<?xml version="1.0"?>
<VTKFile type="UnstructuredGrid" version="0.1" byte_order="LittleEndian" >
<UnstructuredGrid>
<Piece NumberOfPoints="4961" NumberOfCells="4000" >
<PointData Tensors="Vector" >
<DataArray type="Float64" Name="displacement" NumberOfComponents="3" format="ascii" >
0.000412232 -0.0659604 -0.0259299
0.00341567 -0.0627407 -0.0261826
0.00357338 -0.19604 -0.0351599
0.00228533 -0.198308 -0.0345892
-0.00221995 -0.0623799 0.0263347
0.00023902 -0.197608 0.0359947
0.000236599 -0.200216 0.0361544
0.00147397 -0.064845 0.0269778
-6.05525E-13 -1.8371E-12 -4.9714E-12
0.00427768 -6.26054E-13 -4.88123E-12
6.05525E-13 -0.003235 4.9714E-12
-0.00298721 -0.000241187 4.88123E-12
0.000412232 -0.0659604 -0.0259299
0.000412232 -0.0659604 -0.0259299
0.000412232 -0.0659604 -0.0259299
0.000412232 -0.0659604 -0.0259299
0.00341567 -0.0627407 -0.0261826
0.00341567 -0.0627407 -0.0261826
0.00341567 -0.0627407 -0.0261826
0.00341567 -0.0627407 -0.0261826
0.00341567 -0.0627407 -0.0261826
0.00341567 -0.0627407 -0.0261826
0.00341567 -0.0627407 -0.0261826
0.00341567 -0.0627407 -0.0261826
0.00341567 -0.0627407 -0.0261826
0.00341567 -0.0627407 -0.0261826
0.00341567 -0.0627407 -0.0261826
0.00341567 -0.0627407 -0.0261826
0.00341567 -0.0627407 -0.0261826
0.00341567 -0.0627407 -0.0261826
0.00341567 -0.0627407 -0.0261826
0.00341567 -0.0627407 -0.0261826
0.00341567 -0.0627407 -0.0261826
0.00341567 -0.0627407 -0.0261826
0.00341567 -0.0627407 -0.0261826
0.00341567 -0.0627407 -0.0261826
0.00341567 -0.0627407 -0.0261826
0.00341567 -0.0627407 -0.0261826
0.00341567 -0.0627407 -0.0261826
0.00341567 -0.0627407 -0.0261826
0.00357338 -0.19604 -0.0351599
0.00357338 -0.19604 -0.0351599
0.00357338 -0.19604 -0.0351599
0.00357338 -0.19604 -0.0351599
0.00357338 -0.19604 -0.0351599
0.00357338 -0.19604 -0.0351599
0.00357338 -0.19604 -0.0351599
0.00357338 -0.19604 -0.0351599
0.00357338 -0.19604 -0.0351599
0.00357338 -0.19604 -0.0351599
0.00357338 -0.19604 -0.0351599
0.00357338 -0.19604 -0.0351599
0.00357338 -0.19604 -0.0351599
0.00357338 -0.19604 -0.0351599
0.00357338 -0.19604 -0.0351599
0.00228533 -0.198308 -0.0345892
0.00228533 -0.198308 -0.0345892
0.00228533 -0.198308 -0.0345892
0.00228533 -0.198308 -0.0345892
0.00228533 -0.198308 -0.0345892
0.00228533 -0.198308 -0.0345892
0.00228533 -0.198308 -0.0345892
0.00228533 -0.198308 -0.0345892
0.00228533 -0.198308 -0.0345892
0.00228533 -0.198308 -0.0345892
0.00228533 -0.198308 -0.0345892
0.00228533 -0.198308 -0.0345892
0.00228533 -0.198308 -0.0345892
0.00228533 -0.198308 -0.0345892
0.000412232 -0.0659604 -0.0259299
0.000412232 -0.0659604 -0.0259299
0.000412232 -0.0659604 -0.0259299
0.000412232 -0.0659604 -0.0259299
0.000412232 -0.0659604 -0.0259299
0.000412232 -0.0659604 -0.0259299
0.000412232 -0.0659604 -0.0259299
0.000412232 -0.0659604 -0.0259299
0.000412232 -0.0659604 -0.0259299
0.000412232 -0.0659604 -0.0259299
0.000412232 -0.0659604 -0.0259299
0.000412232 -0.0659604 -0.0259299
0.000412232 -0.0659604 -0.0259299
0.000412232 -0.0659604 -0.0259299
0.000412232 -0.0659604 -0.0259299
0.000412232 -0.0659604 -0.0259299
0.000412232 -0.0659604 -0.0259299
0.000412232 -0.0659604 -0.0259299
0.000412232 -0.0659604 -0.0259299
-0.00221995 -0.0623799 0.0263347
-0.00221995 -0.0623799 0.0263347
-0.00221995 -0.0623799 0.0263347
-0.00221995 -0.0623799 0.0263347
-0.00221995 -0.0623799 0.0263347
0.00147397 -0.064845 0.0269778
0.00147397 -0.064845 0.0269778
0.00147397 -0.064845 0.0269778
0.00147397 -0.064845 0.0269778
0.00023902 -0.197608 0.0359947
0.00023902 -0.197608 0.0359947
0.00023902 -0.197608 0.0359947
0.00023902 -0.197608 0.0359947
0.00023902 -0.197608 0.0359947
0.00023902 -0.197608 0.0359947
0.00023902 -0.197608 0.0359947
0.00023902 -0.197608 0.0359947
0.00023902 -0.197608 0.0359947
0.00023902 -0.197608 0.0359947
-0.00221995 -0.0623799 0.0263347
-0.00221995 -0.0623799 0.0263347
-0.00221995 -0.0623799 0.0263347
-0.00221995 -0.0623799 0.0263347
-0.00221995 -0.0623799 0.0263347
-0.00221995 -0.0623799 0.0263347
-0.00221995 -0.0623799 0.0263347
-0.00221995 -0.0623799 0.0263347
-0.00221995 -0.0623799 0.0263347
-0.00221995 -0.0623799 0.0263347
-0.00221995 -0.0623799 0.0263347
-0.00221995 -0.0623799 0.0263347
-0.00221995 -0.0623799 0.0263347
-0.00221995 -0.0623799 0.0263347
-0.00221995 -0.0623799 0.0263347
-0.00221995 -0.0623799 0.0263347
-0.00221995 -0.0623799 0.0263347
-0.00221995 -0.0623799 0.0263347
-0.00221995 -0.0623799 0.0263347
0.000236599 -0.200216 0.0361544
0.000236599 -0.200216 0.0361544
0.000236599 -0.200216 0.0361544
0.000236599 -0.200216 0.0361544
0.00023902 -0.197608 0.0359947
0.00023902 -0.197608 0.0359947
0.00023902 -0.197608 0.0359947
0.00023902 -0.197608 0.0359947
0.00023902 -0.197608 0.0359947
0.00147397 -0.064845 0.0269778
0.00147397 -0.064845 0.0269778
0.00147397 -0.064845 0.0269778
0.00147397 -0.064845 0.0269778
0.00147397 -0.064845 0.0269778
0.00147397 -0.064845 0.0269778
0.00147397 -0.064845 0.0269778
0.00147397 -0.064845 0.0269778
0.00147397 -0.064845 0.0269778
0.00147397 -0.064845 0.0269778
0.00147397 -0.064845 0.0269778
0.00147397 -0.064845 0.0269778
0.00147397 -0.064845 0.0269778
0.00147397 -0.064845 0.0269778
0.00147397 -0.064845 0.0269778
0.00147397 -0.064845 0.0269778
0.00147397 -0.064845 0.0269778
0.00147397 -0.064845 0.0269778
0.00147397 -0.064845 0.0269778
0.000236599 -0.200216 0.0361544
0.000236599 -0.200216 0.0361544
0.000236599 -0.200216 0.0361544
0.000236599 -0.200216 0.0361544
0.000236599 -0.200216 0.0361544
0.000236599 -0.200216 0.0361544
0.000236599 -0.200216 0.0361544
0.000236599 -0.200216 0.0361544
0.000236599 -0.200216 0.0361544
0.000236599 -0.200216 0.0361544
0.00228533 -0.198308 -0.0345892
0.00228533 -0.198308 -0.0345892
0.00228533 -0.198308 -0.0345892
0.00228533 -0.198308 -0.0345892
0.000236599 -0.200216 0.0361544
0.000236599 -0.200216 0.0361544
0.000236599 -0.200216 0.0361544
0.000236599 -0.200216 0.0361544
0.000236599 -0.200216 0.0361544
0.00147397 -0.064845 0.0269778
0.00147397 -0.064845 0.0269778
0.00147397 -0.064845 0.0269778
0.00147397 -0.064845 0.0269778
0.00147397 -0.064845 0.0269778
0.000412232 -0.0659604 -0.0259299
0.000412232 -0.0659604 -0.0259299
0.000412232 -0.0659604 -0.0259299
0.000412232 -0.0659604 -0.0259299
0.00023902 -0.197608 0.0359947
0.00023902 -0.197608 0.0359947
0.00023902 -0.197608 0.0359947
0.00023902 -0.197608 0.0359947
0.00023902 -0.197608 0.0359947
0.00357338 -0.19604 -0.0351599
0.00357338 -0.19604 -0.0351599
0.00357338 -0.19604 -0.0351599
0.00357338 -0.19604 -0.0351599
0.00341567 -0.0627407 -0.0261826
0.00341567 -0.0627407 -0.0261826
0.00341567 -0.0627407 -0.0261826
0.00341567 -0.0627407 -0.0261826
-0.00221995 -0.0623799 0.0263347
-0.00221995 -0.0623799 0.0263347
-0.00221995 -0.0623799 0.0263347
-0.00221995 -0.0623799 0.0263347
-0.00221995 -0.0623799 0.0263347
-6.05525E-13 -1.8371E-12 -4.9714E-12
-6.05525E-13 -1.8371E-12 -4.9714E-12
-6.05525E-13 -1.8371E-12 -4.9714E-12
-6.05525E-13 -1.8371E-12 -4.9714E-12
-6.05525E-13 -1.8371E-12 -4.9714E-12
-6.05525E-13 -1.8371E-12 -4.9714E-12
-6.05525E-13 -1.8371E-12 -4.9714E-12
-6.05525E-13 -1.8371E-12 -4.9714E-12
-6.05525E-13 -1.8371E-12 -4.9714E-12
-6.05525E-13 -1.8371E-12 -4.9714E-12
-6.05525E-13 -1.8371E-12 -4.9714E-12
-6.05525E-13 -1.8371E-12 -4.9714E-12
-6.05525E-13 -1.8371E-12 -4.9714E-12
0.00427768 -6.26054E-13 -4.88123E-12
0.00427768 -6.26054E-13 -4.88123E-12
0.00427768 -6.26054E-13 -4.88123E-12
0.00427768 -6.26054E-13 -4.88123E-12
0.00427768 -6.26054E-13 -4.88123E-12
0.00427768 -6.26054E-13 -4.88123E-12
0.00427768 -6.26054E-13 -4.88123E-12
0.00427768 -6.26054E-13 -4.88123E-12
0.00427768 -6.26054E-13 -4.88123E-12
0.00427768 -6.26054E-13 -4.88123E-12
0.00427768 -6.26054E-13 -4.88123E-12
0.00427768 -6.26054E-13 -4.88123E-12
0.00427768 -6.26054E-13 -4.88123E-12
0.00427768 -6.26054E-13 -4.88123E-12
6.05525E-13 -0.003235 4.9714E-12
6.05525E-13 -0.003235 4.9714E-12
6.05525E-13 -0.003235 4.9714E-12
6.05525E-13 -0.003235 4.9714E-12
6.05525E-13 -0.003235 4.9714E-12
6.05525E-13 -0.003235 4.9714E-12
6.05525E-13 -0.003235 4.9714E-12
6.05525E-13 -0.003235 4.9714E-12
6.05525E-13 -0.003235 4.9714E-12
-0.00298721 -0.000241187 4.88123E-12
-0.00298721 -0.000241187 4.88123E-12
-0.00298721 -0.000241187 4.88123E-12
-0.00298721 -0.000241187 4.88123E-12
-0.00298721 -0.000241187 4.88123E-12
6.05525E-13 -0.003235 4.9714E-12
6.05525E-13 -0.003235 4.9714E-12
6.05525E-13 -0.003235 4.9714E-12
6.05525E-13 -0.003235 4.9714E-12
-0.00298721 -0.000241187 4.88123E-12
-0.00298721 -0.000241187 4.88123E-12
-0.00298721 -0.000241187 4.88123E-12
-0.00298721 -0.000241187 4.88123E-12
-0.00298721 -0.000241187 4.88123E-12
-0.00298721 -0.000241187 4.88123E-12
-0.00298721 -0.000241187 4.88123E-12
-0.00298721 -0.000241187 4.88123E-12
-0.00298721 -0.000241187 4.88123E-12
0.00427768 -6.26054E-13 -4.88123E-12
0.00427768 -6.26054E-13 -4.88123E-12
0.00427768 -6.26054E-13 -4.88123E-12
0.00427768 -6.26054E-13 -4.88123E-12
-0.00298721 -0.000241187 4.88123E-12
-0.00298721 -0.000241187 4.88123E-12
-0.00298721 -0.000241187 4.88123E-12
-0.00298721 -0.000241187 4.88123E-12
-0.00298721 -0.000241187 4.88123E-12
6.05525E-13 -0.003235 4.9714E-12
6.05525E-13 -0.003235 4.9714E-12
6.05525E-13 -0.003235 4.9714E-12
6.05525E-13 -0.003235 4.9714E-12
6.05525E-13 -0.003235 4.9714E-12
-6.05525E-13 -1.8371E-12 -4.9714E-12
-6.05525E-13 -1.8371E-12 -4.9714E-12
-6.05525E-13 -1.8371E-12 -4.9714E-12
-6.05525E-13 -1.8371E-12 -4.9714E-12
0.000412232 -0.0659604 -0.0259299
0.000412232 -0.0659604 -0.0259299
0.000412232 -0.0659604 -0.0259299
0.000412232 -0.0659604 -0.0259299
0.00341567 -0.0627407 -0.0261826
0.00341567 -0.0627407 -0.0261826
0.00341567 -0.0627407 -0.0261826
0.00341567 -0.0627407 -0.0261826
0.00341567 -0.0627407 -0.0261826
0.000412232 -0.0659604 -0.0259299
0.000412232 -0.0659604 -0.0259299
0.000412232 -0.0659604 -0.0259299
0.000412232 -0.0659604 -0.0259299
0.00341567 -0.0627407 -0.0261826
0.00341567 -0.0627407 -0.0261826
0.00341567 -0.0627407 -0.0261826
0.00341567 -0.0627407 -0.0261826
0.00341567 -0.0627407 -0.0261826
0.000412232 -0.0659604 -0.0259299
0.000412232 -0.0659604 -0.0259299
0.000412232 -0.0659604 -0.0259299
0.000412232 -0.0659604 -0.0259299
0.00341567 -0.0627407 -0.0261826
0.00341567 -0.0627407 -0.0261826
0.00341567 -0.0627407 -0.0261826
0.00341567 -0.0627407 -0.0261826
0.00341567 -0.0627407 -0.0261826
0.000412232 -0.0659604 -0.0259299
0.000412232 -0.0659604 -0.0259299
0.000412232 -0.0659604 -0.0259299
0.000412232 -0.0659604 -0.0259299
0.00341567 -0.0627407 -0.0261826
0.00341567 -0.0627407 -0.0261826
0.00341567 -0.0627407 -0.0261826
0.00341567 -0.0627407 -0.0261826
0.00341567 -0.0627407 -0.0261826
0.000412232 -0.0659604 -0.0259299
0.000412232 -0.0659604 -0.0259299
0.000412232 -0.0659604 -0.0259299
0.000412232 -0.0659604 -0.0259299
0.00341567 -0.0627407 -0.0261826
0.00341567 -0.0627407 -0.0261826
0.00341567 -0.0627407 -0.0261826
0.00341567 -0.0627407 -0.0261826
0.00341567 -0.0627407 -0.0261826
0.000412232 -0.0659604 -0.0259299
0.000412232 -0.0659604 -0.0259299
0.000412232 -0.0659604 -0.0259299
0.000412232 -0.0659604 -0.0259299
0.00341567 -0.0627407 -0.0261826
0.00341567 -0.0627407 -0.0261826
0.00341567 -0.0627407 -0.0261826
0.00341567 -0.0627407 -0.0261826
0.00341567 -0.0627407 -0.0261826
0.000412232 -0.0659604 -0.0259299
0.000412232 -0.0659604 -0.0259299
0.000412232 -0.0659604 -0.0259299
0.000412232 -0.0659604 -0.0259299
0.00341567 -0.0627407 -0.0261826
0.00341567 -0.0627407 -0.0261826
0.00341567 -0.0627407 -0.0261826
0.00341567 -0.0627407 -0.0261826
0.00341567 -0.0627407 -0.0261826
0.000412232 -0.0659604 -0.0259299
0.000412232 -0.0659604 -0.0259299
0.000412232 -0.0659604 -0.0259299
0.000412232 -0.0659604 -0.0259299
0.00341567 -0.0627407 -0.0261826
0.00341567 -0.0627407 -0.0261826
0.00341567 -0.0627407 -0.0261826
0.00341567 -0.0627407 -0.0261826
0.00341567 -0.0627407 -0.0261826
0.000412232 -0.0659604 -0.0259299
0.000412232 -0.0659604 -0.0259299
0.000412232 -0.0659604 -0.0259299
0.000412232 -0.0659604 -0.0259299
0.00341567 -0.0627407 -0.0261826
0.00341567 -0.0627407 -0.0261826
0.00341567 -0.0627407 -0.0261826
0.00341567 -0.0627407 -0.0261826
0.00341567 -0.0627407 -0.0261826
0.000412232 -0.0659604 -0.0259299
0.000412232 -0.0659604 -0.0259299
0.000412232 -0.0659604 -0.0259299
0.000412232 -0.0659604 -0.0259299
0.00341567 -0.0627407 -0.0261826
0.00341567 -0.0627407 -0.0261826
0.00341567 -0.0627407 -0.0261826
0.00341567 -0.0627407 -0.0261826
0.00341567 -0.0627407 -0.0261826
0.000412232 -0.0659604 -0.0259299
0.000412232 -0.0659604 -0.0259299
0.000412232 -0.0659604 -0.0259299
0.000412232 -0.0659604 -0.0259299
0.00341567 -0.0627407 -0.0261826
0.00341567 -0.0627407 -0.0261826
0.00341567 -0.0627407 -0.0261826
0.00341567 -0.0627407 -0.0261826
0.00341567 -0.0627407 -0.0261826
0.000412232 -0.0659604 -0.0259299
0.000412232 -0.0659604 -0.0259299
0.000412232 -0.0659604 -0.0259299
0.000412232 -0.0659604 -0.0259299
0.00341567 -0.0627407 -0.0261826
0.00341567 -0.0627407 -0.0261826
0.00341567 -0.0627407 -0.0261826
0.00341567 -0.0627407 -0.0261826
0.00341567 -0.0627407 -0.0261826
0.000412232 -0.0659604 -0.0259299
0.000412232 -0.0659604 -0.0259299
0.000412232 -0.0659604 -0.0259299
0.000412232 -0.0659604 -0.0259299
0.00341567 -0.0627407 -0.0261826
0.00341567 -0.0627407 -0.0261826
0.00341567 -0.0627407 -0.0261826
0.00341567 -0.0627407 -0.0261826
0.00341567 -0.0627407 -0.0261826
0.000412232 -0.0659604 -0.0259299
0.000412232 -0.0659604 -0.0259299
0.000412232 -0.0659604 -0.0259299
0.000412232 -0.0659604 -0.0259299
0.00341567 -0.0627407 -0.0261826
0.00341567 -0.0627407 -0.0261826
0.00341567 -0.0627407 -0.0261826
0.00341567 -0.0627407 -0.0261826
0.00341567 -0.0627407 -0.0261826
0.000412232 -0.0659604 -0.0259299
0.000412232 -0.0659604 -0.0259299
0.000412232 -0.0659604 -0.0259299
0.000412232 -0.0659604 -0.0259299
0.00341567 -0.0627407 -0.0261826
0.00341567 -0.0627407 -0.0261826
0.00341567 -0.0627407 -0.0261826
0.00341567 -0.0627407 -0.0261826
0.00341567 -0.0627407 -0.0261826
0.000412232 -0.0659604 -0.0259299
0.000412232 -0.0659604 -0.0259299
0.000412232 -0.0659604 -0.0259299
0.000412232 -0.0659604 -0.0259299
0.00341567 -0.0627407 -0.0261826
0.00341567 -0.0627407 -0.0261826
0.00341567 -0.0627407 -0.0261826
0.00341567 -0.0627407 -0.0261826
0.00341567 -0.0627407 -0.0261826
0.000412232 -0.0659604 -0.0259299
0.000412232 -0.0659604 -0.0259299
0.000412232 -0.0659604 -0.0259299
0.000412232 -0.0659604 -0.0259299
0.00341567 -0.0627407 -0.0261826
0.00341567 -0.0627407 -0.0261826
0.00341567 -0.0627407 -0.0261826
0.00341567 -0.0627407 -0.0261826
0.00341567 -0.0627407 -0.0261826
0.000412232 -0.0659604 -0.0259299
0.000412232 -0.0659604 -0.0259299
0.000412232 -0.0659604 -0.0259299
0.000412232 -0.0659604 -0.0259299
0.00341567 -0.0627407 -0.0261826
0.00341567 -0.0627407 -0.0261826
0.00341567 -0.0627407 -0.0261826
0.00341567 -0.0627407 -0.0261826
0.00341567 -0.0627407 -0.0261826
0.000412232 -0.0659604 -0.0259299
0.000412232 -0.0659604 -0.0259299
0.000412232 -0.0659604 -0.0259299
0.000412232 -0.0659604 -0.0259299
0.00341567 -0.0627407 -0.0261826
0.00341567 -0.0627407 -0.0261826
0.00341567 -0.0627407 -0.0261826
0.00341567 -0.0627407 -0.0261826
0.00341567 -0.0627407 -0.0261826
0.00228533 -0.198308 -0.0345892
0.00228533 -0.198308 -0.0345892
0.00228533 -0.198308 -0.0345892
0.00228533 -0.198308 -0.0345892
0.00357338 -0.19604 -0.0351599
0.00357338 -0.19604 -0.0351599
0.00357338 -0.19604 -0.0351599
0.00357338 -0.19604 -0.0351599
0.00357338 -0.19604 -0.0351599
0.00228533 -0.198308 -0.0345892
0.00228533 -0.198308 -0.0345892
0.00228533 -0.198308 -0.0345892
0.00228533 -0.198308 -0.0345892
0.00357338 -0.19604 -0.0351599
0.00357338 -0.19604 -0.0351599
0.00357338 -0.19604 -0.0351599
0.00357338 -0.19604 -0.0351599
0.00357338 -0.19604 -0.0351599
0.00228533 -0.198308 -0.0345892
0.00228533 -0.198308 -0.0345892
0.00228533 -0.198308 -0.0345892
0.00228533 -0.198308 -0.0345892
0.00357338 -0.19604 -0.0351599
0.00357338 -0.19604 -0.0351599
0.00357338 -0.19604 -0.0351599
0.00357338 -0.19604 -0.0351599
0.00357338 -0.19604 -0.0351599
0.00228533 -0.198308 -0.0345892
0.00228533 -0.198308 -0.0345892
0.00228533 -0.198308 -0.0345892
0.00228533 -0.198308 -0.0345892
0.00357338 -0.19604 -0.0351599
0.00357338 -0.19604 -0.0351599
0.00357338 -0.19604 -0.0351599
0.00357338 -0.19604 -0.0351599
0.00357338 -0.19604 -0.0351599
0.00228533 -0.198308 -0.0345892
0.00228533 -0.198308 -0.0345892
0.00228533 -0.198308 -0.0345892
0.00228533 -0.198308 -0.0345892
0.00357338 -0.19604 -0.0351599
0.00357338 -0.19604 -0.0351599
0.00357338 -0.19604 -0.0351599
0.00357338 -0.19604 -0.0351599
0.00357338 -0.19604 -0.0351599
0.00228533 -0.198308 -0.0345892
0.00228533 -0.198308 -0.0345892
0.00228533 -0.198308 -0.0345892
0.00228533 -0.198308 -0.0345892
0.00357338 -0.19604 -0.0351599
0.00357338 -0.19604 -0.0351599
0.00357338 -0.19604 -0.0351599
0.00357338 -0.19604 -0.0351599
0.00357338 -0.19604 -0.0351599
0.00228533 -0.198308 -0.0345892
0.00228533 -0.198308 -0.0345892
0.00228533 -0.198308 -0.0345892
0.00228533 -0.198308 -0.0345892
0.00357338 -0.19604 -0.0351599
0.00357338 -0.19604 -0.0351599
0.00357338 -0.19604 -0.0351599
0.00357338 -0.19604 -0.0351599
0.00357338 -0.19604 -0.0351599
0.00228533 -0.198308 -0.0345892
0.00228533 -0.198308 -0.0345892
0.00228533 -0.198308 -0.0345892
0.00228533 -0.198308 -0.0345892
0.00357338 -0.19604 -0.0351599
0.00357338 -0.19604 -0.0351599
0.00357338 -0.19604 -0.0351599
0.00357338 -0.19604 -0.0351599
0.00357338 -0.19604 -0.0351599
0.00228533 -0.198308 -0.0345892
0.00228533 -0.198308 -0.0345892
0.00228533 -0.198308 -0.0345892
0.00228533 -0.198308 -0.0345892
0.00357338 -0.19604 -0.0351599
0.00357338 -0.19604 -0.0351599
0.00357338 -0.19604 -0.0351599
0.00357338 -0.19604 -0.0351599
0.00357338 -0.19604 -0.0351599
0.00228533 -0.198308 -0.0345892
0.00228533 -0.198308 -0.0345892
0.00228533 -0.198308 -0.0345892
0.00228533 -0.198308 -0.0345892
0.00357338 -0.19604 -0.0351599
0.00357338 -0.19604 -0.0351599
0.00357338 -0.19604 -0.0351599
0.00357338 -0.19604 -0.0351599
0.00357338 -0.19604 -0.0351599
0.00147397 -0.064845 0.0269778
0.00147397 -0.064845 0.0269778
0.00147397 -0.064845 0.0269778
0.00147397 -0.064845 0.0269778
-0.00221995 -0.0623799 0.0263347
-0.00221995 -0.0623799 0.0263347
-0.00221995 -0.0623799 0.0263347
-0.00221995 -0.0623799 0.0263347
-0.00221995 -0.0623799 0.0263347
0.00147397 -0.064845 0.0269778
0.00147397 -0.064845 0.0269778
0.00147397 -0.064845 0.0269778
0.00147397 -0.064845 0.0269778
-0.00221995 -0.0623799 0.0263347
-0.00221995 -0.0623799 0.0263347
-0.00221995 -0.0623799 0.0263347
-0.00221995 -0.0623799 0.0263347
-0.00221995 -0.0623799 0.0263347
0.00147397 -0.064845 0.0269778
0.00147397 -0.064845 0.0269778
0.00147397 -0.064845 0.0269778
0.00147397 -0.064845 0.0269778
-0.00221995 -0.0623799 0.0263347
-0.00221995 -0.0623799 0.0263347
-0.00221995 -0.0623799 0.0263347
-0.00221995 -0.0623799 0.0263347
-0.00221995 -0.0623799 0.0263347
0.00147397 -0.064845 0.0269778
0.00147397 -0.064845 0.0269778
0.00147397 -0.064845 0.0269778
0.00147397 -0.064845 0.0269778
-0.00221995 -0.0623799 0.0263347
-0.00221995 -0.0623799 0.0263347
-0.00221995 -0.0623799 0.0263347
-0.00221995 -0.0623799 0.0263347
-0.00221995 -0.0623799 0.0263347
0.00147397 -0.064845 0.0269778
0.00147397 -0.064845 0.0269778
0.00147397 -0.064845 0.0269778
0.00147397 -0.064845 0.0269778
-0.00221995 -0.0623799 0.0263347
-0.00221995 -0.0623799 0.0263347
-0.00221995 -0.0623799 0.0263347
-0.00221995 -0.0623799 0.0263347
-0.00221995 -0.0623799 0.0263347
0.00147397 -0.064845 0.0269778
0.00147397 -0.064845 0.0269778
0.00147397 -0.064845 0.0269778
0.00147397 -0.064845 0.0269778
-0.00221995 -0.0623799 0.0263347
-0.00221995 -0.0623799 0.0263347
-0.00221995 -0.0623799 0.0263347
-0.00221995 -0.0623799 0.0263347
-0.00221995 -0.0623799 0.0263347
0.00147397 -0.064845 0.0269778
0.00147397 -0.064845 0.0269778
0.00147397 -0.064845 0.0269778
0.00147397 -0.064845 0.0269778
-0.00221995 -0.0623799 0.0263347
-0.00221995 -0.0623799 0.0263347
-0.00221995 -0.0623799 0.0263347
-0.00221995 -0.0623799 0.0263347
-0.00221995 -0.0623799 0.0263347
0.00147397 -0.064845 0.0269778
0.00147397 -0.064845 0.0269778
0.00147397 -0.064845 0.0269778
0.00147397 -0.064845 0.0269778
-0.00221995 -0.0623799 0.0263347
-0.00221995 -0.0623799 0.0263347
-0.00221995 -0.0623799 0.0263347
-0.00221995 -0.0623799 0.0263347
-0.00221995 -0.0623799 0.0263347
0.00147397 -0.064845 0.0269778
0.00147397 -0.064845 0.0269778
0.00147397 -0.064845 0.0269778
0.00147397 -0.064845 0.0269778
-0.00221995 -0.0623799 0.0263347
-0.00221995 -0.0623799 0.0263347
-0.00221995 -0.0623799 0.0263347
-0.00221995 -0.0623799 0.0263347
-0.00221995 -0.0623799 0.0263347
0.00147397 -0.064845 0.0269778
0.00147397 -0.064845 0.0269778
0.00147397 -0.064845 0.0269778
0.00147397 -0.064845 0.0269778
-0.00221995 -0.0623799 0.0263347
-0.00221995 -0.0623799 0.0263347
-0.00221995 -0.0623799 0.0263347
-0.00221995 -0.0623799 0.0263347
-0.00221995 -0.0623799 0.0263347
0.00147397 -0.064845 0.0269778
0.00147397 -0.064845 0.0269778
0.00147397 -0.064845 0.0269778
0.00147397 -0.064845 0.0269778
-0.00221995 -0.0623799 0.0263347
-0.00221995 -0.0623799 0.0263347
-0.00221995 -0.0623799 0.0263347
-0.00221995 -0.0623799 0.0263347
-0.00221995 -0.0623799 0.0263347
0.00147397 -0.064845 0.0269778
0.00147397 -0.064845 0.0269778
0.00147397 -0.064845 0.0269778
0.00147397 -0.064845 0.0269778
-0.00221995 -0.0623799 0.0263347
-0.00221995 -0.0623799 0.0263347
-0.00221995 -0.0623799 0.0263347
-0.00221995 -0.0623799 0.0263347
-0.00221995 -0.0623799 0.0263347
0.00147397 -0.064845 0.0269778
0.00147397 -0.064845 0.0269778
0.00147397 -0.064845 0.0269778
0.00147397 -0.064845 0.0269778
-0.00221995 -0.0623799 0.0263347
-0.00221995 -0.0623799 0.0263347
-0.00221995 -0.0623799 0.0263347
-0.00221995 -0.0623799 0.0263347
-0.00221995 -0.0623799 0.0263347
0.00147397 -0.064845 0.0269778
0.00147397 -0.064845 0.0269778
0.00147397 -0.064845 0.0269778
0.00147397 -0.064845 0.0269778
-0.00221995 -0.0623799 0.0263347
-0.00221995 -0.0623799 0.0263347
-0.00221995 -0.0623799 0.0263347
-0.00221995 -0.0623799 0.0263347
-0.00221995 -0.0623799 0.0263347
0.00147397 -0.064845 0.0269778
0.00147397 -0.064845 0.0269778
0.00147397 -0.064845 0.0269778
0.00147397 -0.064845 0.0269778
-0.00221995 -0.0623799 0.0263347
-0.00221995 -0.0623799 0.0263347
-0.00221995 -0.0623799 0.0263347
-0.00221995 -0.0623799 0.0263347
-0.00221995 -0.0623799 0.0263347
0.00147397 -0.064845 0.0269778
0.00147397 -0.064845 0.0269778
0.00147397 -0.064845 0.0269778
0.00147397 -0.064845 0.0269778
-0.00221995 -0.0623799 0.0263347
-0.00221995 -0.0623799 0.0263347
-0.00221995 -0.0623799 0.0263347
-0.00221995 -0.0623799 0.0263347
-0.00221995 -0.0623799 0.0263347
0.00147397 -0.064845 0.0269778
0.00147397 -0.064845 0.0269778
0.00147397 -0.064845 0.0269778
0.00147397 -0.064845 0.0269778
-0.00221995 -0.0623799 0.0263347
-0.00221995 -0.0623799 0.0263347
-0.00221995 -0.0623799 0.0263347
-0.00221995 -0.0623799 0.0263347
-0.00221995 -0.0623799 0.0263347
0.00147397 -0.064845 0.0269778
0.00147397 -0.064845 0.0269778
0.00147397 -0.064845 0.0269778
0.00147397 -0.064845 0.0269778
-0.00221995 -0.0623799 0.0263347
-0.00221995 -0.0623799 0.0263347
-0.00221995 -0.0623799 0.0263347
-0.00221995 -0.0623799 0.0263347
-0.00221995 -0.0623799 0.0263347
0.00147397 -0.064845 0.0269778
0.00147397 -0.064845 0.0269778
0.00147397 -0.064845 0.0269778
0.00147397 -0.064845 0.0269778
-0.00221995 -0.0623799 0.0263347
-0.00221995 -0.0623799 0.0263347
-0.00221995 -0.0623799 0.0263347
-0.00221995 -0.0623799 0.0263347
-0.00221995 -0.0623799 0.0263347
0.000236599 -0.200216 0.0361544
0.000236599 -0.200216 0.0361544
0.000236599 -0.200216 0.0361544
0.000236599 -0.200216 0.0361544
0.00023902 -0.197608 0.0359947
0.00023902 -0.197608 0.0359947
0.00023902 -0.197608 0.0359947
0.00023902 -0.197608 0.0359947
0.00023902 -0.197608 0.0359947
0.000236599 -0.200216 0.0361544
0.000236599 -0.200216 0.0361544
0.000236599 -0.200216 0.0361544
0.000236599 -0.200216 0.0361544
0.00023902 -0.197608 0.0359947
0.00023902 -0.197608 0.0359947
0.00023902 -0.197608 0.0359947
0.00023902 -0.197608 0.0359947
0.00023902 -0.197608 0.0359947
0.000236599 -0.200216 0.0361544
0.000236599 -0.200216 0.0361544
0.000236599 -0.200216 0.0361544
0.000236599 -0.200216 0.0361544
0.00023902 -0.197608 0.0359947
0.00023902 -0.197608 0.0359947
0.00023902 -0.197608 0.0359947
0.00023902 -0.197608 0.0359947
0.00023902 -0.197608 0.0359947
0.000236599 -0.200216 0.0361544
0.000236599 -0.200216 0.0361544
0.000236599 -0.200216 0.0361544
0.000236599 -0.200216 0.0361544
0.00023902 -0.197608 0.0359947
0.00023902 -0.197608 0.0359947
0.00023902 -0.197608 0.0359947
0.00023902 -0.197608 0.0359947
0.00023902 -0.197608 0.0359947
0.000236599 -0.200216 0.0361544
0.000236599 -0.200216 0.0361544
0.000236599 -0.200216 0.0361544
0.000236599 -0.200216 0.0361544
0.00023902 -0.197608 0.0359947
0.00023902 -0.197608 0.0359947
0.00023902 -0.197608 0.0359947
0.00023902 -0.197608 0.0359947
0.00023902 -0.197608 0.0359947
0.000236599 -0.200216 0.0361544
0.000236599 -0.200216 0.0361544
0.000236599 -0.200216 0.0361544
0.000236599 -0.200216 0.0361544
0.00023902 -0.197608 0.0359947
0.00023902 -0.197608 0.0359947
0.00023902 -0.197608 0.0359947
0.00023902 -0.197608 0.0359947
0.00023902 -0.197608 0.0359947
0.000236599 -0.200216 0.0361544
0.000236599 -0.200216 0.0361544
0.000236599 -0.200216 0.0361544
0.000236599 -0.200216 0.0361544
0.00023902 -0.197608 0.0359947
0.00023902 -0.197608 0.0359947
0.00023902 -0.197608 0.0359947
0.00023902 -0.197608 0.0359947
0.00023902 -0.197608 0.0359947
0.000236599 -0.200216 0.0361544
0.000236599 -0.200216 0.0361544
0.000236599 -0.200216 0.0361544
0.000236599 -0.200216 0.0361544
0.00023902 -0.197608 0.0359947
0.00023902 -0.197608 0.0359947
0.00023902 -0.197608 0.0359947
0.00023902 -0.197608 0.0359947
0.00023902 -0.197608 0.0359947
0.000236599 -0.200216 0.0361544
0.000236599 -0.200216 0.0361544
0.000236599 -0.200216 0.0361544
0.000236599 -0.200216 0.0361544
0.00023902 -0.197608 0.0359947
0.00023902 -0.197608 0.0359947
0.00023902 -0.197608 0.0359947
0.00023902 -0.197608 0.0359947
0.00023902 -0.197608 0.0359947
0.000236599 -0.200216 0.0361544
0.000236599 -0.200216 0.0361544
0.000236599 -0.200216 0.0361544
0.000236599 -0.200216 0.0361544
0.00023902 -0.197608 0.0359947
0.00023902 -0.197608 0.0359947
0.00023902 -0.197608 0.0359947
0.00023902 -0.197608 0.0359947
0.00023902 -0.197608 0.0359947
0.000412232 -0.0659604 -0.0259299
0.000412232 -0.0659604 -0.0259299
0.000412232 -0.0659604 -0.0259299
0.000412232 -0.0659604 -0.0259299
0.000412232 -0.0659604 -0.0259299
0.000412232 -0.0659604 -0.0259299
0.000412232 -0.0659604 -0.0259299
0.000412232 -0.0659604 -0.0259299
0.000412232 -0.0659604 -0.0259299
0.000412232 -0.0659604 -0.0259299
0.000412232 -0.0659604 -0.0259299
0.000412232 -0.0659604 -0.0259299
0.000412232 -0.0659604 -0.0259299
0.000412232 -0.0659604 -0.0259299
0.000412232 -0.0659604 -0.0259299
0.000412232 -0.0659604 -0.0259299
0.000412232 -0.0659604 -0.0259299
0.000412232 -0.0659604 -0.0259299
0.000412232 -0.0659604 -0.0259299
0.00228533 -0.198308 -0.0345892
0.00228533 -0.198308 -0.0345892
0.00228533 -0.198308 -0.0345892
0.00228533 -0.198308 -0.0345892
0.00228533 -0.198308 -0.0345892
0.00228533 -0.198308 -0.0345892
0.00228533 -0.198308 -0.0345892
0.00228533 -0.198308 -0.0345892
0.00228533 -0.198308 -0.0345892
0.00228533 -0.198308 -0.0345892
0.000412232 -0.0659604 -0.0259299
0.000412232 -0.0659604 -0.0259299
0.000412232 -0.0659604 -0.0259299
0.000412232 -0.0659604 -0.0259299
0.000412232 -0.0659604 -0.0259299
0.000412232 -0.0659604 -0.0259299
0.000412232 -0.0659604 -0.0259299
0.000412232 -0.0659604 -0.0259299
0.000412232 -0.0659604 -0.0259299
0.000412232 -0.0659604 -0.0259299
0.000412232 -0.0659604 -0.0259299
0.000412232 -0.0659604 -0.0259299
0.000412232 -0.0659604 -0.0259299
0.000412232 -0.0659604 -0.0259299
0.000412232 -0.0659604 -0.0259299
0.000412232 -0.0659604 -0.0259299
0.000412232 -0.0659604 -0.0259299
0.000412232 -0.0659604 -0.0259299
0.000412232 -0.0659604 -0.0259299
0.00228533 -0.198308 -0.0345892
0.00228533 -0.198308 -0.0345892
0.00228533 -0.198308 -0.0345892
0.00228533 -0.198308 -0.0345892
0.00228533 -0.198308 -0.0345892
0.00228533 -0.198308 -0.0345892
0.00228533 -0.198308 -0.0345892
0.00228533 -0.198308 -0.0345892
0.00228533 -0.198308 -0.0345892
0.00228533 -0.198308 -0.0345892
0.000412232 -0.0659604 -0.0259299
0.000412232 -0.0659604 -0.0259299
0.000412232 -0.0659604 -0.0259299
0.000412232 -0.0659604 -0.0259299
0.000412232 -0.0659604 -0.0259299
0.000412232 -0.0659604 -0.0259299
0.000412232 -0.0659604 -0.0259299
0.000412232 -0.0659604 -0.0259299
0.000412232 -0.0659604 -0.0259299
0.000412232 -0.0659604 -0.0259299
0.000412232 -0.0659604 -0.0259299
0.000412232 -0.0659604 -0.0259299
0.000412232 -0.0659604 -0.0259299
0.000412232 -0.0659604 -0.0259299
0.000412232 -0.0659604 -0.0259299
0.000412232 -0.0659604 -0.0259299
0.000412232 -0.0659604 -0.0259299
0.000412232 -0.0659604 -0.0259299
0.000412232 -0.0659604 -0.0259299
0.00228533 -0.198308 -0.0345892
0.00228533 -0.198308 -0.0345892
0.00228533 -0.198308 -0.0345892
0.00228533 -0.198308 -0.0345892
0.00228533 -0.198308 -0.0345892
0.00228533 -0.198308 -0.0345892
0.00228533 -0.198308 -0.0345892
0.00228533 -0.198308 -0.0345892
0.00228533 -0.198308 -0.0345892
0.00228533 -0.198308 -0.0345892
0.000412232 -0.0659604 -0.0259299
0.000412232 -0.0659604 -0.0259299
0.000412232 -0.0659604 -0.0259299
0.000412232 -0.0659604 -0.0259299
0.000412232 -0.0659604 -0.0259299
0.000412232 -0.0659604 -0.0259299
0.000412232 -0.0659604 -0.0259299
0.000412232 -0.0659604 -0.0259299
0.000412232 -0.0659604 -0.0259299
0.000412232 -0.0659604 -0.0259299
0.000412232 -0.0659604 -0.0259299
0.000412232 -0.0659604 -0.0259299
0.000412232 -0.0659604 -0.0259299
0.000412232 -0.0659604 -0.0259299
0.000412232 -0.0659604 -0.0259299
0.000412232 -0.0659604 -0.0259299
0.000412232 -0.0659604 -0.0259299
0.000412232 -0.0659604 -0.0259299
0.000412232 -0.0659604 -0.0259299
0.00228533 -0.198308 -0.0345892
0.00228533 -0.198308 -0.0345892
0.00228533 -0.198308 -0.0345892
0.00228533 -0.198308 -0.0345892
0.00228533 -0.198308 -0.0345892
0.00228533 -0.198308 -0.0345892
0.00228533 -0.198308 -0.0345892
0.00228533 -0.198308 -0.0345892
0.00228533 -0.198308 -0.0345892
0.00228533 -0.198308 -0.0345892
0.00147397 -0.064845 0.0269778
0.00147397 -0.064845 0.0269778
0.00147397 -0.064845 0.0269778
0.00147397 -0.064845 0.0269778
0.00147397 -0.064845 0.0269778
0.00147397 -0.064845 0.0269778
0.00147397 -0.064845 0.0269778
0.00147397 -0.064845 0.0269778
0.00147397 -0.064845 0.0269778
0.00147397 -0.064845 0.0269778
0.00147397 -0.064845 0.0269778
0.00147397 -0.064845 0.0269778
0.00147397 -0.064845 0.0269778
0.00147397 -0.064845 0.0269778
0.00147397 -0.064845 0.0269778
0.00147397 -0.064845 0.0269778
0.00147397 -0.064845 0.0269778
0.00147397 -0.064845 0.0269778
0.00147397 -0.064845 0.0269778
0.000236599 -0.200216 0.0361544
0.000236599 -0.200216 0.0361544
0.000236599 -0.200216 0.0361544
0.000236599 -0.200216 0.0361544
0.000236599 -0.200216 0.0361544
0.000236599 -0.200216 0.0361544
0.000236599 -0.200216 0.0361544
0.000236599 -0.200216 0.0361544
0.000236599 -0.200216 0.0361544
0.000236599 -0.200216 0.0361544
0.00147397 -0.064845 0.0269778
0.00147397 -0.064845 0.0269778
0.00147397 -0.064845 0.0269778
0.00147397 -0.064845 0.0269778
0.00147397 -0.064845 0.0269778
0.00147397 -0.064845 0.0269778
0.00147397 -0.064845 0.0269778
0.00147397 -0.064845 0.0269778
0.00147397 -0.064845 0.0269778
0.00147397 -0.064845 0.0269778
0.00147397 -0.064845 0.0269778
0.00147397 -0.064845 0.0269778
0.00147397 -0.064845 0.0269778
0.00147397 -0.064845 0.0269778
0.00147397 -0.064845 0.0269778
0.00147397 -0.064845 0.0269778
0.00147397 -0.064845 0.0269778
0.00147397 -0.064845 0.0269778
0.00147397 -0.064845 0.0269778
0.000236599 -0.200216 0.0361544
0.000236599 -0.200216 0.0361544
0.000236599 -0.200216 0.0361544
0.000236599 -0.200216 0.0361544
0.000236599 -0.200216 0.0361544
0.000236599 -0.200216 0.0361544
0.000236599 -0.200216 0.0361544
0.000236599 -0.200216 0.0361544
0.000236599 -0.200216 0.0361544
0.000236599 -0.200216 0.0361544
0.00147397 -0.064845 0.0269778
0.00147397 -0.064845 0.0269778
0.00147397 -0.064845 0.0269778
0.00147397 -0.064845 0.0269778
0.00147397 -0.064845 0.0269778
0.00147397 -0.064845 0.0269778
0.00147397 -0.064845 0.0269778
0.00147397 -0.064845 0.0269778
0.00147397 -0.064845 0.0269778
0.00147397 -0.064845 0.0269778
0.00147397 -0.064845 0.0269778
0.00147397 -0.064845 0.0269778
0.00147397 -0.064845 0.0269778
0.00147397 -0.064845 0.0269778
0.00147397 -0.064845 0.0269778
0.00147397 -0.064845 0.0269778
0.00147397 -0.064845 0.0269778
0.00147397 -0.064845 0.0269778
0.00147397 -0.064845 0.0269778
0.000236599 -0.200216 0.0361544
0.000236599 -0.200216 0.0361544
0.000236599 -0.200216 0.0361544
0.000236599 -0.200216 0.0361544
0.000236599 -0.200216 0.0361544
0.000236599 -0.200216 0.0361544
0.000236599 -0.200216 0.0361544
0.000236599 -0.200216 0.0361544
0.000236599 -0.200216 0.0361544
0.000236599 -0.200216 0.0361544
0.00147397 -0.064845 0.0269778
0.00147397 -0.064845 0.0269778
0.00147397 -0.064845 0.0269778
0.00147397 -0.064845 0.0269778
0.00147397 -0.064845 0.0269778
0.00147397 -0.064845 0.0269778
0.00147397 -0.064845 0.0269778
0.00147397 -0.064845 0.0269778
0.00147397 -0.064845 0.0269778
0.00147397 -0.064845 0.0269778
0.00147397 -0.064845 0.0269778
0.00147397 -0.064845 0.0269778
0.00147397 -0.064845 0.0269778
0.00147397 -0.064845 0.0269778
0.00147397 -0.064845 0.0269778
0.00147397 -0.064845 0.0269778
0.00147397 -0.064845 0.0269778
0.00147397 -0.064845 0.0269778
0.00147397 -0.064845 0.0269778
0.000236599 -0.200216 0.0361544
0.000236599 -0.200216 0.0361544
0.000236599 -0.200216 0.0361544
0.000236599 -0.200216 0.0361544
0.000236599 -0.200216 0.0361544
0.000236599 -0.200216 0.0361544
0.000236599 -0.200216 0.0361544
0.000236599 -0.200216 0.0361544
0.000236599 -0.200216 0.0361544
0.000236599 -0.200216 0.0361544
0.00147397 -0.064845 0.0269778
0.00147397 -0.064845 0.0269778
0.00147397 -0.064845 0.0269778
0.00147397 -0.064845 0.0269778
0.00147397 -0.064845 0.0269778
0.00147397 -0.064845 0.0269778
0.00147397 -0.064845 0.0269778
0.00147397 -0.064845 0.0269778
0.00147397 -0.064845 0.0269778
0.00147397 -0.064845 0.0269778
0.00147397 -0.064845 0.0269778
0.00147397 -0.064845 0.0269778
0.00147397 -0.064845 0.0269778
0.00147397 -0.064845 0.0269778
0.00147397 -0.064845 0.0269778
0.00147397 -0.064845 0.0269778
0.00147397 -0.064845 0.0269778
0.00147397 -0.064845 0.0269778
0.00147397 -0.064845 0.0269778
0.000236599 -0.200216 0.0361544
0.000236599 -0.200216 0.0361544
0.000236599 -0.200216 0.0361544
0.000236599 -0.200216 0.0361544
0.000236599 -0.200216 0.0361544
0.000236599 -0.200216 0.0361544
0.000236599 -0.200216 0.0361544
0.000236599 -0.200216 0.0361544
0.000236599 -0.200216 0.0361544
0.000236599 -0.200216 0.0361544
0.00341567 -0.0627407 -0.0261826
0.00341567 -0.0627407 -0.0261826
0.00341567 -0.0627407 -0.0261826
0.00341567 -0.0627407 -0.0261826
0.00341567 -0.0627407 -0.0261826
0.00341567 -0.0627407 -0.0261826
0.00341567 -0.0627407 -0.0261826
0.00341567 -0.0627407 -0.0261826
0.00341567 -0.0627407 -0.0261826
0.00341567 -0.0627407 -0.0261826
0.00341567 -0.0627407 -0.0261826
0.00341567 -0.0627407 -0.0261826
0.00341567 -0.0627407 -0.0261826
0.00341567 -0.0627407 -0.0261826
0.00341567 -0.0627407 -0.0261826
0.00341567 -0.0627407 -0.0261826
0.00341567 -0.0627407 -0.0261826
0.00341567 -0.0627407 -0.0261826
0.00341567 -0.0627407 -0.0261826
0.00357338 -0.19604 -0.0351599
0.00357338 -0.19604 -0.0351599
0.00357338 -0.19604 -0.0351599
0.00357338 -0.19604 -0.0351599
0.00357338 -0.19604 -0.0351599
0.00357338 -0.19604 -0.0351599
0.00357338 -0.19604 -0.0351599
0.00357338 -0.19604 -0.0351599
0.00357338 -0.19604 -0.0351599
0.00357338 -0.19604 -0.0351599
0.00341567 -0.0627407 -0.0261826
0.00341567 -0.0627407 -0.0261826
0.00341567 -0.0627407 -0.0261826
0.00341567 -0.0627407 -0.0261826
0.00341567 -0.0627407 -0.0261826
0.00341567 -0.0627407 -0.0261826
0.00341567 -0.0627407 -0.0261826
0.00341567 -0.0627407 -0.0261826
0.00341567 -0.0627407 -0.0261826
0.00341567 -0.0627407 -0.0261826
0.00341567 -0.0627407 -0.0261826
0.00341567 -0.0627407 -0.0261826
0.00341567 -0.0627407 -0.0261826
0.00341567 -0.0627407 -0.0261826
0.00341567 -0.0627407 -0.0261826
0.00341567 -0.0627407 -0.0261826
0.00341567 -0.0627407 -0.0261826
0.00341567 -0.0627407 -0.0261826
0.00341567 -0.0627407 -0.0261826
0.00357338 -0.19604 -0.0351599
0.00357338 -0.19604 -0.0351599
0.00357338 -0.19604 -0.0351599
0.00357338 -0.19604 -0.0351599
0.00357338 -0.19604 -0.0351599
0.00357338 -0.19604 -0.0351599
0.00357338 -0.19604 -0.0351599
0.00357338 -0.19604 -0.0351599
0.00357338 -0.19604 -0.0351599
0.00357338 -0.19604 -0.0351599
0.00341567 -0.0627407 -0.0261826
0.00341567 -0.0627407 -0.0261826
0.00341567 -0.0627407 -0.0261826
0.00341567 -0.0627407 -0.0261826
0.00341567 -0.0627407 -0.0261826
0.00341567 -0.0627407 -0.0261826
0.00341567 -0.0627407 -0.0261826
0.00341567 -0.0627407 -0.0261826
0.00341567 -0.0627407 -0.0261826
0.00341567 -0.0627407 -0.0261826
0.00341567 -0.0627407 -0.0261826
0.00341567 -0.0627407 -0.0261826
0.00341567 -0.0627407 -0.0261826
0.00341567 -0.0627407 -0.0261826
0.00341567 -0.0627407 -0.0261826
0.00341567 -0.0627407 -0.0261826
0.00341567 -0.0627407 -0.0261826
0.00341567 -0.0627407 -0.0261826
0.00341567 -0.0627407 -0.0261826
0.00357338 -0.19604 -0.0351599
0.00357338 -0.19604 -0.0351599
0.00357338 -0.19604 -0.0351599
0.00357338 -0.19604 -0.0351599
0.00357338 -0.19604 -0.0351599
0.00357338 -0.19604 -0.0351599
0.00357338 -0.19604 -0.0351599
0.00357338 -0.19604 -0.0351599
0.00357338 -0.19604 -0.0351599
0.00357338 -0.19604 -0.0351599
0.00341567 -0.0627407 -0.0261826
0.00341567 -0.0627407 -0.0261826
0.00341567 -0.0627407 -0.0261826
0.00341567 -0.0627407 -0.0261826
0.00341567 -0.0627407 -0.0261826
0.00341567 -0.0627407 -0.0261826
0.00341567 -0.0627407 -0.0261826
0.00341567 -0.0627407 -0.0261826
0.00341567 -0.0627407 -0.0261826
0.00341567 -0.0627407 -0.0261826
0.00341567 -0.0627407 -0.0261826
0.00341567 -0.0627407 -0.0261826
0.00341567 -0.0627407 -0.0261826
0.00341567 -0.0627407 -0.0261826
0.00341567 -0.0627407 -0.0261826
0.00341567 -0.0627407 -0.0261826
0.00341567 -0.0627407 -0.0261826
0.00341567 -0.0627407 -0.0261826
0.00341567 -0.0627407 -0.0261826
0.00357338 -0.19604 -0.0351599
0.00357338 -0.19604 -0.0351599
0.00357338 -0.19604 -0.0351599
0.00357338 -0.19604 -0.0351599
0.00357338 -0.19604 -0.0351599
0.00357338 -0.19604 -0.0351599
0.00357338 -0.19604 -0.0351599
0.00357338 -0.19604 -0.0351599
0.00357338 -0.19604 -0.0351599
0.00357338 -0.19604 -0.0351599
-0.00221995 -0.0623799 0.0263347
-0.00221995 -0.0623799 0.0263347
-0.00221995 -0.0623799 0.0263347
-0.00221995 -0.0623799 0.0263347
-0.00221995 -0.0623799 0.0263347
-0.00221995 -0.0623799 0.0263347
-0.00221995 -0.0623799 0.0263347
-0.00221995 -0.0623799 0.0263347
-0.00221995 -0.0623799 0.0263347
-0.00221995 -0.0623799 0.0263347
-0.00221995 -0.0623799 0.0263347
-0.00221995 -0.0623799 0.0263347
-0.00221995 -0.0623799 0.0263347
-0.00221995 -0.0623799 0.0263347
-0.00221995 -0.0623799 0.0263347
-0.00221995 -0.0623799 0.0263347
-0.00221995 -0.0623799 0.0263347
-0.00221995 -0.0623799 0.0263347
-0.00221995 -0.0623799 0.0263347
0.00023902 -0.197608 0.0359947
0.00023902 -0.197608 0.0359947
0.00023902 -0.197608 0.0359947
0.00023902 -0.197608 0.0359947
0.00023902 -0.197608 0.0359947
0.00023902 -0.197608 0.0359947
0.00023902 -0.197608 0.0359947
0.00023902 -0.197608 0.0359947
0.00023902 -0.197608 0.0359947
0.00023902 -0.197608 0.0359947
-0.00221995 -0.0623799 0.0263347
-0.00221995 -0.0623799 0.0263347
-0.00221995 -0.0623799 0.0263347
-0.00221995 -0.0623799 0.0263347
-0.00221995 -0.0623799 0.0263347
-0.00221995 -0.0623799 0.0263347
-0.00221995 -0.0623799 0.0263347
-0.00221995 -0.0623799 0.0263347
-0.00221995 -0.0623799 0.0263347
-0.00221995 -0.0623799 0.0263347
-0.00221995 -0.0623799 0.0263347
-0.00221995 -0.0623799 0.0263347
-0.00221995 -0.0623799 0.0263347
-0.00221995 -0.0623799 0.0263347
-0.00221995 -0.0623799 0.0263347
-0.00221995 -0.0623799 0.0263347
-0.00221995 -0.0623799 0.0263347
-0.00221995 -0.0623799 0.0263347
-0.00221995 -0.0623799 0.0263347
0.00023902 -0.197608 0.0359947
0.00023902 -0.197608 0.0359947
0.00023902 -0.197608 0.0359947
0.00023902 -0.197608 0.0359947
0.00023902 -0.197608 0.0359947
0.00023902 -0.197608 0.0359947
0.00023902 -0.197608 0.0359947
0.00023902 -0.197608 0.0359947
0.00023902 -0.197608 0.0359947
0.00023902 -0.197608 0.0359947
-0.00221995 -0.0623799 0.0263347
-0.00221995 -0.0623799 0.0263347
-0.00221995 -0.0623799 0.0263347
-0.00221995 -0.0623799 0.0263347
-0.00221995 -0.0623799 0.0263347
-0.00221995 -0.0623799 0.0263347
-0.00221995 -0.0623799 0.0263347
-0.00221995 -0.0623799 0.0263347
-0.00221995 -0.0623799 0.0263347
-0.00221995 -0.0623799 0.0263347
-0.00221995 -0.0623799 0.0263347
-0.00221995 -0.0623799 0.0263347
-0.00221995 -0.0623799 0.0263347
-0.00221995 -0.0623799 0.0263347
-0.00221995 -0.0623799 0.0263347
-0.00221995 -0.0623799 0.0263347
-0.00221995 -0.0623799 0.0263347
-0.00221995 -0.0623799 0.0263347
-0.00221995 -0.0623799 0.0263347
0.00023902 -0.197608 0.0359947
0.00023902 -0.197608 0.0359947
0.00023902 -0.197608 0.0359947
0.00023902 -0.197608 0.0359947
0.00023902 -0.197608 0.0359947
0.00023902 -0.197608 0.0359947
0.00023902 -0.197608 0.0359947
0.00023902 -0.197608 0.0359947
0.00023902 -0.197608 0.0359947
0.00023902 -0.197608 0.0359947
-0.00221995 -0.0623799 0.0263347
-0.00221995 -0.0623799 0.0263347
-0.00221995 -0.0623799 0.0263347
-0.00221995 -0.0623799 0.0263347
-0.00221995 -0.0623799 0.0263347
-0.00221995 -0.0623799 0.0263347
-0.00221995 -0.0623799 0.0263347
-0.00221995 -0.0623799 0.0263347
-0.00221995 -0.0623799 0.0263347
-0.00221995 -0.0623799 0.0263347
-0.00221995 -0.0623799 0.0263347
-0.00221995 -0.0623799 0.0263347
-0.00221995 -0.0623799 0.0263347
-0.00221995 -0.0623799 0.0263347
-0.00221995 -0.0623799 0.0263347
-0.00221995 -0.0623799 0.0263347
-0.00221995 -0.0623799 0.0263347
-0.00221995 -0.0623799 0.0263347
-0.00221995 -0.0623799 0.0263347
0.00023902 -0.197608 0.0359947
0.00023902 -0.197608 0.0359947
0.00023902 -0.197608 0.0359947
0.00023902 -0.197608 0.0359947
0.00023902 -0.197608 0.0359947
0.00023902 -0.197608 0.0359947
0.00023902 -0.197608 0.0359947
0.00023902 -0.197608 0.0359947
0.00023902 -0.197608 0.0359947
0.00023902 -0.197608 0.0359947
-0.00221995 -0.0623799 0.0263347
-0.00221995 -0.0623799 0.0263347
-0.00221995 -0.0623799 0.0263347
-0.00221995 -0.0623799 0.0263347
-0.00221995 -0.0623799 0.0263347
-0.00221995 -0.0623799 0.0263347
-0.00221995 -0.0623799 0.0263347
-0.00221995 -0.0623799 0.0263347
-0.00221995 -0.0623799 0.0263347
-0.00221995 -0.0623799 0.0263347
-0.00221995 -0.0623799 0.0263347
-0.00221995 -0.0623799 0.0263347
-0.00221995 -0.0623799 0.0263347
-0.00221995 -0.0623799 0.0263347
-0.00221995 -0.0623799 0.0263347
-0.00221995 -0.0623799 0.0263347
-0.00221995 -0.0623799 0.0263347
-0.00221995 -0.0623799 0.0263347
-0.00221995 -0.0623799 0.0263347
0.00023902 -0.197608 0.0359947
0.00023902 -0.197608 0.0359947
0.00023902 -0.197608 0.0359947
0.00023902 -0.197608 0.0359947
0.00023902 -0.197608 0.0359947
0.00023902 -0.197608 0.0359947
0.00023902 -0.197608 0.0359947
0.00023902 -0.197608 0.0359947
0.00023902 -0.197608 0.0359947
0.00023902 -0.197608 0.0359947
0.000412232 -0.0659604 -0.0259299
0.000412232 -0.0659604 -0.0259299
0.000412232 -0.0659604 -0.0259299
0.000412232 -0.0659604 -0.0259299
0.00341567 -0.0627407 -0.0261826
0.00341567 -0.0627407 -0.0261826
0.00341567 -0.0627407 -0.0261826
0.00341567 -0.0627407 -0.0261826
0.00341567 -0.0627407 -0.0261826
0.000412232 -0.0659604 -0.0259299
0.000412232 -0.0659604 -0.0259299
0.000412232 -0.0659604 -0.0259299
0.000412232 -0.0659604 -0.0259299
0.00341567 -0.0627407 -0.0261826
0.00341567 -0.0627407 -0.0261826
0.00341567 -0.0627407 -0.0261826
0.00341567 -0.0627407 -0.0261826
0.00341567 -0.0627407 -0.0261826
0.000412232 -0.0659604 -0.0259299
0.000412232 -0.0659604 -0.0259299
0.000412232 -0.0659604 -0.0259299
0.000412232 -0.0659604 -0.0259299
0.00341567 -0.0627407 -0.0261826
0.00341567 -0.0627407 -0.0261826
0.00341567 -0.0627407 -0.0261826
0.00341567 -0.0627407 -0.0261826
0.00341567 -0.0627407 -0.0261826
0.000412232 -0.0659604 -0.0259299
0.000412232 -0.0659604 -0.0259299
0.000412232 -0.0659604 -0.0259299
0.000412232 -0.0659604 -0.0259299
0.00341567 -0.0627407 -0.0261826
0.00341567 -0.0627407 -0.0261826
0.00341567 -0.0627407 -0.0261826
0.00341567 -0.0627407 -0.0261826
0.00341567 -0.0627407 -0.0261826
0.00147397 -0.064845 0.0269778
0.00147397 -0.064845 0.0269778
0.00147397 -0.064845 0.0269778
0.00147397 -0.064845 0.0269778
-0.00221995 -0.0623799 0.0263347
-0.00221995 -0.0623799 0.0263347
-0.00221995 -0.0623799 0.0263347
-0.00221995 -0.0623799 0.0263347
-0.00221995 -0.0623799 0.0263347
0.00147397 -0.064845 0.0269778
0.00147397 -0.064845 0.0269778
0.00147397 -0.064845 0.0269778
0.00147397 -0.064845 0.0269778
-0.00221995 -0.0623799 0.0263347
-0.00221995 -0.0623799 0.0263347
-0.00221995 -0.0623799 0.0263347
-0.00221995 -0.0623799 0.0263347
-0.00221995 -0.0623799 0.0263347
0.00147397 -0.064845 0.0269778
0.00147397 -0.064845 0.0269778
0.00147397 -0.064845 0.0269778
0.00147397 -0.064845 0.0269778
-0.00221995 -0.0623799 0.0263347
-0.00221995 -0.0623799 0.0263347
-0.00221995 -0.0623799 0.0263347
-0.00221995 -0.0623799 0.0263347
-0.00221995 -0.0623799 0.0263347
0.00147397 -0.064845 0.0269778
0.00147397 -0.064845 0.0269778
0.00147397 -0.064845 0.0269778
0.00147397 -0.064845 0.0269778
-0.00221995 -0.0623799 0.0263347
-0.00221995 -0.0623799 0.0263347
-0.00221995 -0.0623799 0.0263347
-0.00221995 -0.0623799 0.0263347
-0.00221995 -0.0623799 0.0263347
0.00147397 -0.064845 0.0269778
0.00147397 -0.064845 0.0269778
0.00147397 -0.064845 0.0269778
0.00147397 -0.064845 0.0269778
-0.00221995 -0.0623799 0.0263347
-0.00221995 -0.0623799 0.0263347
-0.00221995 -0.0623799 0.0263347
-0.00221995 -0.0623799 0.0263347
-0.00221995 -0.0623799 0.0263347
0.00228533 -0.198308 -0.0345892
0.00228533 -0.198308 -0.0345892
0.00228533 -0.198308 -0.0345892
0.00228533 -0.198308 -0.0345892
0.00357338 -0.19604 -0.0351599
0.00357338 -0.19604 -0.0351599
0.00357338 -0.19604 -0.0351599
0.00357338 -0.19604 -0.0351599
0.00357338 -0.19604 -0.0351599
0.00228533 -0.198308 -0.0345892
0.00228533 -0.198308 -0.0345892
0.00228533 -0.198308 -0.0345892
0.00228533 -0.198308 -0.0345892
0.00357338 -0.19604 -0.0351599
0.00357338 -0.19604 -0.0351599
0.00357338 -0.19604 -0.0351599
0.00357338 -0.19604 -0.0351599
0.00357338 -0.19604 -0.0351599
0.00228533 -0.198308 -0.0345892
0.00228533 -0.198308 -0.0345892
0.00228533 -0.198308 -0.0345892
0.00228533 -0.198308 -0.0345892
0.00357338 -0.19604 -0.0351599
0.00357338 -0.19604 -0.0351599
0.00357338 -0.19604 -0.0351599
0.00357338 -0.19604 -0.0351599
0.00357338 -0.19604 -0.0351599
0.00228533 -0.198308 -0.0345892
0.00228533 -0.198308 -0.0345892
0.00228533 -0.198308 -0.0345892
0.00228533 -0.198308 -0.0345892
0.00357338 -0.19604 -0.0351599
0.00357338 -0.19604 -0.0351599
0.00357338 -0.19604 -0.0351599
0.00357338 -0.19604 -0.0351599
0.00357338 -0.19604 -0.0351599
0.000236599 -0.200216 0.0361544
0.000236599 -0.200216 0.0361544
0.000236599 -0.200216 0.0361544
0.000236599 -0.200216 0.0361544
0.00023902 -0.197608 0.0359947
0.00023902 -0.197608 0.0359947
0.00023902 -0.197608 0.0359947
0.00023902 -0.197608 0.0359947
0.00023902 -0.197608 0.0359947
0.000236599 -0.200216 0.0361544
0.000236599 -0.200216 0.0361544
0.000236599 -0.200216 0.0361544
0.000236599 -0.200216 0.0361544
0.00023902 -0.197608 0.0359947
0.00023902 -0.197608 0.0359947
0.00023902 -0.197608 0.0359947
0.00023902 -0.197608 0.0359947
0.00023902 -0.197608 0.0359947
0.000236599 -0.200216 0.0361544
0.000236599 -0.200216 0.0361544
0.000236599 -0.200216 0.0361544
0.000236599 -0.200216 0.0361544
0.00023902 -0.197608 0.0359947
0.00023902 -0.197608 0.0359947
0.00023902 -0.197608 0.0359947
0.00023902 -0.197608 0.0359947
0.00023902 -0.197608 0.0359947
0.000236599 -0.200216 0.0361544
0.000236599 -0.200216 0.0361544
0.000236599 -0.200216 0.0361544
0.000236599 -0.200216 0.0361544
0.00023902 -0.197608 0.0359947
0.00023902 -0.197608 0.0359947
0.00023902 -0.197608 0.0359947
0.00023902 -0.197608 0.0359947
0.00023902 -0.197608 0.0359947
0.000236599 -0.200216 0.0361544
0.000236599 -0.200216 0.0361544
0.000236599 -0.200216 0.0361544
0.000236599 -0.200216 0.0361544
0.00023902 -0.197608 0.0359947
0.00023902 -0.197608 0.0359947
0.00023902 -0.197608 0.0359947
0.00023902 -0.197608 0.0359947
0.00023902 -0.197608 0.0359947
0.00427768 -6.26054E-13 -4.88123E-12
0.00427768 -6.26054E-13 -4.88123E-12
0.00427768 -6.26054E-13 -4.88123E-12
0.00427768 -6.26054E-13 -4.88123E-12
0.00427768 -6.26054E-13 -4.88123E-12
-6.05525E-13 -1.8371E-12 -4.9714E-12
-6.05525E-13 -1.8371E-12 -4.9714E-12
-6.05525E-13 -1.8371E-12 -4.9714E-12
-6.05525E-13 -1.8371E-12 -4.9714E-12
0.00427768 -6.26054E-13 -4.88123E-12
0.00427768 -6.26054E-13 -4.88123E-12
0.00427768 -6.26054E-13 -4.88123E-12
0.00427768 -6.26054E-13 -4.88123E-12
0.00427768 -6.26054E-13 -4.88123E-12
-6.05525E-13 -1.8371E-12 -4.9714E-12
-6.05525E-13 -1.8371E-12 -4.9714E-12
-6.05525E-13 -1.8371E-12 -4.9714E-12
-6.05525E-13 -1.8371E-12 -4.9714E-12
0.00427768 -6.26054E-13 -4.88123E-12
0.00427768 -6.26054E-13 -4.88123E-12
0.00427768 -6.26054E-13 -4.88123E-12
0.00427768 -6.26054E-13 -4.88123E-12
0.00427768 -6.26054E-13 -4.88123E-12
-6.05525E-13 -1.8371E-12 -4.9714E-12
-6.05525E-13 -1.8371E-12 -4.9714E-12
-6.05525E-13 -1.8371E-12 -4.9714E-12
-6.05525E-13 -1.8371E-12 -4.9714E-12
0.00427768 -6.26054E-13 -4.88123E-12
0.00427768 -6.26054E-13 -4.88123E-12
0.00427768 -6.26054E-13 -4.88123E-12
0.00427768 -6.26054E-13 -4.88123E-12
0.00427768 -6.26054E-13 -4.88123E-12
-6.05525E-13 -1.8371E-12 -4.9714E-12
-6.05525E-13 -1.8371E-12 -4.9714E-12
-6.05525E-13 -1.8371E-12 -4.9714E-12
-6.05525E-13 -1.8371E-12 -4.9714E-12
0.00427768 -6.26054E-13 -4.88123E-12
0.00427768 -6.26054E-13 -4.88123E-12
0.00427768 -6.26054E-13 -4.88123E-12
0.00427768 -6.26054E-13 -4.88123E-12
0.00427768 -6.26054E-13 -4.88123E-12
-6.05525E-13 -1.8371E-12 -4.9714E-12
-6.05525E-13 -1.8371E-12 -4.9714E-12
-6.05525E-13 -1.8371E-12 -4.9714E-12
-6.05525E-13 -1.8371E-12 -4.9714E-12
0.00427768 -6.26054E-13 -4.88123E-12
0.00427768 -6.26054E-13 -4.88123E-12
0.00427768 -6.26054E-13 -4.88123E-12
0.00427768 -6.26054E-13 -4.88123E-12
0.00427768 -6.26054E-13 -4.88123E-12
-6.05525E-13 -1.8371E-12 -4.9714E-12
-6.05525E-13 -1.8371E-12 -4.9714E-12
-6.05525E-13 -1.8371E-12 -4.9714E-12
-6.05525E-13 -1.8371E-12 -4.9714E-12
0.00427768 -6.26054E-13 -4.88123E-12
0.00427768 -6.26054E-13 -4.88123E-12
0.00427768 -6.26054E-13 -4.88123E-12
0.00427768 -6.26054E-13 -4.88123E-12
0.00427768 -6.26054E-13 -4.88123E-12
-6.05525E-13 -1.8371E-12 -4.9714E-12
-6.05525E-13 -1.8371E-12 -4.9714E-12
-6.05525E-13 -1.8371E-12 -4.9714E-12
-6.05525E-13 -1.8371E-12 -4.9714E-12
0.00427768 -6.26054E-13 -4.88123E-12
0.00427768 -6.26054E-13 -4.88123E-12
0.00427768 -6.26054E-13 -4.88123E-12
0.00427768 -6.26054E-13 -4.88123E-12
0.00427768 -6.26054E-13 -4.88123E-12
-6.05525E-13 -1.8371E-12 -4.9714E-12
-6.05525E-13 -1.8371E-12 -4.9714E-12
-6.05525E-13 -1.8371E-12 -4.9714E-12
-6.05525E-13 -1.8371E-12 -4.9714E-12
0.00427768 -6.26054E-13 -4.88123E-12
0.00427768 -6.26054E-13 -4.88123E-12
0.00427768 -6.26054E-13 -4.88123E-12
0.00427768 -6.26054E-13 -4.88123E-12
0.00427768 -6.26054E-13 -4.88123E-12
-6.05525E-13 -1.8371E-12 -4.9714E-12
-6.05525E-13 -1.8371E-12 -4.9714E-12
-6.05525E-13 -1.8371E-12 -4.9714E-12
-6.05525E-13 -1.8371E-12 -4.9714E-12
-0.00298721 -0.000241187 4.88123E-12
-0.00298721 -0.000241187 4.88123E-12
-0.00298721 -0.000241187 4.88123E-12
-0.00298721 -0.000241187 4.88123E-12
-0.00298721 -0.000241187 4.88123E-12
6.05525E-13 -0.003235 4.9714E-12
6.05525E-13 -0.003235 4.9714E-12
6.05525E-13 -0.003235 4.9714E-12
6.05525E-13 -0.003235 4.9714E-12
-0.00298721 -0.000241187 4.88123E-12
-0.00298721 -0.000241187 4.88123E-12
-0.00298721 -0.000241187 4.88123E-12
-0.00298721 -0.000241187 4.88123E-12
-0.00298721 -0.000241187 4.88123E-12
6.05525E-13 -0.003235 4.9714E-12
6.05525E-13 -0.003235 4.9714E-12
6.05525E-13 -0.003235 4.9714E-12
6.05525E-13 -0.003235 4.9714E-12
-0.00298721 -0.000241187 4.88123E-12
-0.00298721 -0.000241187 4.88123E-12
-0.00298721 -0.000241187 4.88123E-12
-0.00298721 -0.000241187 4.88123E-12
-0.00298721 -0.000241187 4.88123E-12
6.05525E-13 -0.003235 4.9714E-12
6.05525E-13 -0.003235 4.9714E-12
6.05525E-13 -0.003235 4.9714E-12
6.05525E-13 -0.003235 4.9714E-12
-0.00298721 -0.000241187 4.88123E-12
-0.00298721 -0.000241187 4.88123E-12
-0.00298721 -0.000241187 4.88123E-12
-0.00298721 -0.000241187 4.88123E-12
-0.00298721 -0.000241187 4.88123E-12
6.05525E-13 -0.003235 4.9714E-12
6.05525E-13 -0.003235 4.9714E-12
6.05525E-13 -0.003235 4.9714E-12
6.05525E-13 -0.003235 4.9714E-12
-0.00298721 -0.000241187 4.88123E-12
-0.00298721 -0.000241187 4.88123E-12
-0.00298721 -0.000241187 4.88123E-12
-0.00298721 -0.000241187 4.88123E-12
-0.00298721 -0.000241187 4.88123E-12
6.05525E-13 -0.003235 4.9714E-12
6.05525E-13 -0.003235 4.9714E-12
6.05525E-13 -0.003235 4.9714E-12
6.05525E-13 -0.003235 4.9714E-12
-0.00298721 -0.000241187 4.88123E-12
-0.00298721 -0.000241187 4.88123E-12
-0.00298721 -0.000241187 4.88123E-12
-0.00298721 -0.000241187 4.88123E-12
-0.00298721 -0.000241187 4.88123E-12
6.05525E-13 -0.003235 4.9714E-12
6.05525E-13 -0.003235 4.9714E-12
6.05525E-13 -0.003235 4.9714E-12
6.05525E-13 -0.003235 4.9714E-12
-0.00298721 -0.000241187 4.88123E-12
-0.00298721 -0.000241187 4.88123E-12
-0.00298721 -0.000241187 4.88123E-12
-0.00298721 -0.000241187 4.88123E-12
-0.00298721 -0.000241187 4.88123E-12
6.05525E-13 -0.003235 4.9714E-12
6.05525E-13 -0.003235 4.9714E-12
6.05525E-13 -0.003235 4.9714E-12
6.05525E-13 -0.003235 4.9714E-12
-0.00298721 -0.000241187 4.88123E-12
-0.00298721 -0.000241187 4.88123E-12
-0.00298721 -0.000241187 4.88123E-12
-0.00298721 -0.000241187 4.88123E-12
-0.00298721 -0.000241187 4.88123E-12
6.05525E-13 -0.003235 4.9714E-12
6.05525E-13 -0.003235 4.9714E-12
6.05525E-13 -0.003235 4.9714E-12
6.05525E-13 -0.003235 4.9714E-12
-0.00298721 -0.000241187 4.88123E-12
-0.00298721 -0.000241187 4.88123E-12
-0.00298721 -0.000241187 4.88123E-12
-0.00298721 -0.000241187 4.88123E-12
-0.00298721 -0.000241187 4.88123E-12
6.05525E-13 -0.003235 4.9714E-12
6.05525E-13 -0.003235 4.9714E-12
6.05525E-13 -0.003235 4.9714E-12
6.05525E-13 -0.003235 4.9714E-12
0.00427768 -6.26054E-13 -4.88123E-12
0.00427768 -6.26054E-13 -4.88123E-12
0.00427768 -6.26054E-13 -4.88123E-12
0.00427768 -6.26054E-13 -4.88123E-12
0.00427768 -6.26054E-13 -4.88123E-12
0.00427768 -6.26054E-13 -4.88123E-12
0.00427768 -6.26054E-13 -4.88123E-12
0.00427768 -6.26054E-13 -4.88123E-12
0.00427768 -6.26054E-13 -4.88123E-12
0.00427768 -6.26054E-13 -4.88123E-12
0.00427768 -6.26054E-13 -4.88123E-12
0.00427768 -6.26054E-13 -4.88123E-12
0.00427768 -6.26054E-13 -4.88123E-12
0.00427768 -6.26054E-13 -4.88123E-12
0.00427768 -6.26054E-13 -4.88123E-12
0.00427768 -6.26054E-13 -4.88123E-12
0.00427768 -6.26054E-13 -4.88123E-12
0.00427768 -6.26054E-13 -4.88123E-12
0.00427768 -6.26054E-13 -4.88123E-12
0.00427768 -6.26054E-13 -4.88123E-12
0.00427768 -6.26054E-13 -4.88123E-12
0.00427768 -6.26054E-13 -4.88123E-12
0.00427768 -6.26054E-13 -4.88123E-12
0.00427768 -6.26054E-13 -4.88123E-12
0.00427768 -6.26054E-13 -4.88123E-12
0.00427768 -6.26054E-13 -4.88123E-12
0.00427768 -6.26054E-13 -4.88123E-12
0.00427768 -6.26054E-13 -4.88123E-12
0.00427768 -6.26054E-13 -4.88123E-12
0.00427768 -6.26054E-13 -4.88123E-12
0.00427768 -6.26054E-13 -4.88123E-12
0.00427768 -6.26054E-13 -4.88123E-12
0.00427768 -6.26054E-13 -4.88123E-12
0.00427768 -6.26054E-13 -4.88123E-12
0.00427768 -6.26054E-13 -4.88123E-12
0.00427768 -6.26054E-13 -4.88123E-12
-0.00298721 -0.000241187 4.88123E-12
-0.00298721 -0.000241187 4.88123E-12
-0.00298721 -0.000241187 4.88123E-12
-0.00298721 -0.000241187 4.88123E-12
-0.00298721 -0.000241187 4.88123E-12
-0.00298721 -0.000241187 4.88123E-12
-0.00298721 -0.000241187 4.88123E-12
-0.00298721 -0.000241187 4.88123E-12
-0.00298721 -0.000241187 4.88123E-12
-0.00298721 -0.000241187 4.88123E-12
-0.00298721 -0.000241187 4.88123E-12
-0.00298721 -0.000241187 4.88123E-12
-0.00298721 -0.000241187 4.88123E-12
-0.00298721 -0.000241187 4.88123E-12
-0.00298721 -0.000241187 4.88123E-12
-0.00298721 -0.000241187 4.88123E-12
-0.00298721 -0.000241187 4.88123E-12
-0.00298721 -0.000241187 4.88123E-12
-0.00298721 -0.000241187 4.88123E-12
-0.00298721 -0.000241187 4.88123E-12
-0.00298721 -0.000241187 4.88123E-12
-0.00298721 -0.000241187 4.88123E-12
-0.00298721 -0.000241187 4.88123E-12
-0.00298721 -0.000241187 4.88123E-12
-0.00298721 -0.000241187 4.88123E-12
-0.00298721 -0.000241187 4.88123E-12
-0.00298721 -0.000241187 4.88123E-12
-0.00298721 -0.000241187 4.88123E-12
-0.00298721 -0.000241187 4.88123E-12
-0.00298721 -0.000241187 4.88123E-12
-0.00298721 -0.000241187 4.88123E-12
-0.00298721 -0.000241187 4.88123E-12
-0.00298721 -0.000241187 4.88123E-12
-0.00298721 -0.000241187 4.88123E-12
-0.00298721 -0.000241187 4.88123E-12
-0.00298721 -0.000241187 4.88123E-12
-0.00298721 -0.000241187 4.88123E-12
-0.00298721 -0.000241187 4.88123E-12
-0.00298721 -0.000241187 4.88123E-12
-0.00298721 -0.000241187 4.88123E-12
-0.00298721 -0.000241187 4.88123E-12
-0.00298721 -0.000241187 4.88123E-12
-0.00298721 -0.000241187 4.88123E-12
-0.00298721 -0.000241187 4.88123E-12
-0.00298721 -0.000241187 4.88123E-12
-6.05525E-13 -1.8371E-12 -4.9714E-12
-6.05525E-13 -1.8371E-12 -4.9714E-12
-6.05525E-13 -1.8371E-12 -4.9714E-12
-6.05525E-13 -1.8371E-12 -4.9714E-12
-6.05525E-13 -1.8371E-12 -4.9714E-12
-6.05525E-13 -1.8371E-12 -4.9714E-12
-6.05525E-13 -1.8371E-12 -4.9714E-12
-6.05525E-13 -1.8371E-12 -4.9714E-12
-6.05525E-13 -1.8371E-12 -4.9714E-12
-6.05525E-13 -1.8371E-12 -4.9714E-12
-6.05525E-13 -1.8371E-12 -4.9714E-12
-6.05525E-13 -1.8371E-12 -4.9714E-12
-6.05525E-13 -1.8371E-12 -4.9714E-12
-6.05525E-13 -1.8371E-12 -4.9714E-12
-6.05525E-13 -1.8371E-12 -4.9714E-12
-6.05525E-13 -1.8371E-12 -4.9714E-12
-6.05525E-13 -1.8371E-12 -4.9714E-12
-6.05525E-13 -1.8371E-12 -4.9714E-12
-6.05525E-13 -1.8371E-12 -4.9714E-12
-6.05525E-13 -1.8371E-12 -4.9714E-12
-6.05525E-13 -1.8371E-12 -4.9714E-12
-6.05525E-13 -1.8371E-12 -4.9714E-12
-6.05525E-13 -1.8371E-12 -4.9714E-12
-6.05525E-13 -1.8371E-12 -4.9714E-12
-6.05525E-13 -1.8371E-12 -4.9714E-12
-6.05525E-13 -1.8371E-12 -4.9714E-12
-6.05525E-13 -1.8371E-12 -4.9714E-12
-6.05525E-13 -1.8371E-12 -4.9714E-12
-6.05525E-13 -1.8371E-12 -4.9714E-12
-6.05525E-13 -1.8371E-12 -4.9714E-12
-6.05525E-13 -1.8371E-12 -4.9714E-12
-6.05525E-13 -1.8371E-12 -4.9714E-12
-6.05525E-13 -1.8371E-12 -4.9714E-12
-6.05525E-13 -1.8371E-12 -4.9714E-12
-6.05525E-13 -1.8371E-12 -4.9714E-12
-6.05525E-13 -1.8371E-12 -4.9714E-12
6.05525E-13 -0.003235 4.9714E-12
6.05525E-13 -0.003235 4.9714E-12
6.05525E-13 -0.003235 4.9714E-12
6.05525E-13 -0.003235 4.9714E-12
6.05525E-13 -0.003235 4.9714E-12
6.05525E-13 -0.003235 4.9714E-12
6.05525E-13 -0.003235 4.9714E-12
6.05525E-13 -0.003235 4.9714E-12
6.05525E-13 -0.003235 4.9714E-12
6.05525E-13 -0.003235 4.9714E-12
6.05525E-13 -0.003235 4.9714E-12
6.05525E-13 -0.003235 4.9714E-12
6.05525E-13 -0.003235 4.9714E-12
6.05525E-13 -0.003235 4.9714E-12
6.05525E-13 -0.003235 4.9714E-12
6.05525E-13 -0.003235 4.9714E-12
6.05525E-13 -0.003235 4.9714E-12
6.05525E-13 -0.003235 4.9714E-12
6.05525E-13 -0.003235 4.9714E-12
6.05525E-13 -0.003235 4.9714E-12
6.05525E-13 -0.003235 4.9714E-12
6.05525E-13 -0.003235 4.9714E-12
6.05525E-13 -0.003235 4.9714E-12
6.05525E-13 -0.003235 4.9714E-12
6.05525E-13 -0.003235 4.9714E-12
6.05525E-13 -0.003235 4.9714E-12
6.05525E-13 -0.003235 4.9714E-12
6.05525E-13 -0.003235 4.9714E-12
6.05525E-13 -0.003235 4.9714E-12
6.05525E-13 -0.003235 4.9714E-12
6.05525E-13 -0.003235 4.9714E-12
6.05525E-13 -0.003235 4.9714E-12
6.05525E-13 -0.003235 4.9714E-12
6.05525E-13 -0.003235 4.9714E-12
6.05525E-13 -0.003235 4.9714E-12
6.05525E-13 -0.003235 4.9714E-12
6.05525E-13 -0.003235 4.9714E-12
6.05525E-13 -0.003235 4.9714E-12
6.05525E-13 -0.003235 4.9714E-12
6.05525E-13 -0.003235 4.9714E-12
6.05525E-13 -0.003235 4.9714E-12
6.05525E-13 -0.003235 4.9714E-12
6.05525E-13 -0.003235 4.9714E-12
6.05525E-13 -0.003235 4.9714E-12
6.05525E-13 -0.003235 4.9714E-12
0.00427768 -6.26054E-13 -4.88123E-12
0.00427768 -6.26054E-13 -4.88123E-12
0.00427768 -6.26054E-13 -4.88123E-12
0.00427768 -6.26054E-13 -4.88123E-12
0.00427768 -6.26054E-13 -4.88123E-12
-6.05525E-13 -1.8371E-12 -4.9714E-12
-6.05525E-13 -1.8371E-12 -4.9714E-12
-6.05525E-13 -1.8371E-12 -4.9714E-12
-6.05525E-13 -1.8371E-12 -4.9714E-12
0.00427768 -6.26054E-13 -4.88123E-12
0.00427768 -6.26054E-13 -4.88123E-12
0.00427768 -6.26054E-13 -4.88123E-12
0.00427768 -6.26054E-13 -4.88123E-12
0.00427768 -6.26054E-13 -4.88123E-12
-6.05525E-13 -1.8371E-12 -4.9714E-12
-6.05525E-13 -1.8371E-12 -4.9714E-12
-6.05525E-13 -1.8371E-12 -4.9714E-12
-6.05525E-13 -1.8371E-12 -4.9714E-12
0.00427768 -6.26054E-13 -4.88123E-12
0.00427768 -6.26054E-13 -4.88123E-12
0.00427768 -6.26054E-13 -4.88123E-12
0.00427768 -6.26054E-13 -4.88123E-12
0.00427768 -6.26054E-13 -4.88123E-12
-6.05525E-13 -1.8371E-12 -4.9714E-12
-6.05525E-13 -1.8371E-12 -4.9714E-12
-6.05525E-13 -1.8371E-12 -4.9714E-12
-6.05525E-13 -1.8371E-12 -4.9714E-12
0.00427768 -6.26054E-13 -4.88123E-12
0.00427768 -6.26054E-13 -4.88123E-12
0.00427768 -6.26054E-13 -4.88123E-12
0.00427768 -6.26054E-13 -4.88123E-12
0.00427768 -6.26054E-13 -4.88123E-12
-6.05525E-13 -1.8371E-12 -4.9714E-12
-6.05525E-13 -1.8371E-12 -4.9714E-12
-6.05525E-13 -1.8371E-12 -4.9714E-12
-6.05525E-13 -1.8371E-12 -4.9714E-12
-0.00298721 -0.000241187 4.88123E-12
-0.00298721 -0.000241187 4.88123E-12
-0.00298721 -0.000241187 4.88123E-12
-0.00298721 -0.000241187 4.88123E-12
-0.00298721 -0.000241187 4.88123E-12
6.05525E-13 -0.003235 4.9714E-12
6.05525E-13 -0.003235 4.9714E-12
6.05525E-13 -0.003235 4.9714E-12
6.05525E-13 -0.003235 4.9714E-12
-0.00298721 -0.000241187 4.88123E-12
-0.00298721 -0.000241187 4.88123E-12
-0.00298721 -0.000241187 4.88123E-12
-0.00298721 -0.000241187 4.88123E-12
-0.00298721 -0.000241187 4.88123E-12
6.05525E-13 -0.003235 4.9714E-12
6.05525E-13 -0.003235 4.9714E-12
6.05525E-13 -0.003235 4.9714E-12
6.05525E-13 -0.003235 4.9714E-12
-0.00298721 -0.000241187 4.88123E-12
-0.00298721 -0.000241187 4.88123E-12
-0.00298721 -0.000241187 4.88123E-12
-0.00298721 -0.000241187 4.88123E-12
-0.00298721 -0.000241187 4.88123E-12
6.05525E-13 -0.003235 4.9714E-12
6.05525E-13 -0.003235 4.9714E-12
6.05525E-13 -0.003235 4.9714E-12
6.05525E-13 -0.003235 4.9714E-12
-0.00298721 -0.000241187 4.88123E-12
-0.00298721 -0.000241187 4.88123E-12
-0.00298721 -0.000241187 4.88123E-12
-0.00298721 -0.000241187 4.88123E-12
-0.00298721 -0.000241187 4.88123E-12
6.05525E-13 -0.003235 4.9714E-12
6.05525E-13 -0.003235 4.9714E-12
6.05525E-13 -0.003235 4.9714E-12
6.05525E-13 -0.003235 4.9714E-12
-0.00298721 -0.000241187 4.88123E-12
-0.00298721 -0.000241187 4.88123E-12
-0.00298721 -0.000241187 4.88123E-12
-0.00298721 -0.000241187 4.88123E-12
-0.00298721 -0.000241187 4.88123E-12
6.05525E-13 -0.003235 4.9714E-12
6.05525E-13 -0.003235 4.9714E-12
6.05525E-13 -0.003235 4.9714E-12
6.05525E-13 -0.003235 4.9714E-12
0.000412232 -0.0659604 -0.0259299
0.000412232 -0.0659604 -0.0259299
0.000412232 -0.0659604 -0.0259299
0.000412232 -0.0659604 -0.0259299
0.00341567 -0.0627407 -0.0261826
0.00341567 -0.0627407 -0.0261826
0.00341567 -0.0627407 -0.0261826
0.00341567 -0.0627407 -0.0261826
0.00341567 -0.0627407 -0.0261826
0.000412232 -0.0659604 -0.0259299
0.000412232 -0.0659604 -0.0259299
0.000412232 -0.0659604 -0.0259299
0.000412232 -0.0659604 -0.0259299
0.00341567 -0.0627407 -0.0261826
0.00341567 -0.0627407 -0.0261826
0.00341567 -0.0627407 -0.0261826
0.00341567 -0.0627407 -0.0261826
0.00341567 -0.0627407 -0.0261826
0.000412232 -0.0659604 -0.0259299
0.000412232 -0.0659604 -0.0259299
0.000412232 -0.0659604 -0.0259299
0.000412232 -0.0659604 -0.0259299
0.00341567 -0.0627407 -0.0261826
0.00341567 -0.0627407 -0.0261826
0.00341567 -0.0627407 -0.0261826
0.00341567 -0.0627407 -0.0261826
0.00341567 -0.0627407 -0.0261826
0.000412232 -0.0659604 -0.0259299
0.000412232 -0.0659604 -0.0259299
0.000412232 -0.0659604 -0.0259299
0.000412232 -0.0659604 -0.0259299
0.00341567 -0.0627407 -0.0261826
0.00341567 -0.0627407 -0.0261826
0.00341567 -0.0627407 -0.0261826
0.00341567 -0.0627407 -0.0261826
0.00341567 -0.0627407 -0.0261826
0.000412232 -0.0659604 -0.0259299
0.000412232 -0.0659604 -0.0259299
0.000412232 -0.0659604 -0.0259299
0.000412232 -0.0659604 -0.0259299
0.00341567 -0.0627407 -0.0261826
0.00341567 -0.0627407 -0.0261826
0.00341567 -0.0627407 -0.0261826
0.00341567 -0.0627407 -0.0261826
0.00341567 -0.0627407 -0.0261826
0.000412232 -0.0659604 -0.0259299
0.000412232 -0.0659604 -0.0259299
0.000412232 -0.0659604 -0.0259299
0.000412232 -0.0659604 -0.0259299
0.00341567 -0.0627407 -0.0261826
0.00341567 -0.0627407 -0.0261826
0.00341567 -0.0627407 -0.0261826
0.00341567 -0.0627407 -0.0261826
0.00341567 -0.0627407 -0.0261826
0.000412232 -0.0659604 -0.0259299
0.000412232 -0.0659604 -0.0259299
0.000412232 -0.0659604 -0.0259299
0.000412232 -0.0659604 -0.0259299
0.00341567 -0.0627407 -0.0261826
0.00341567 -0.0627407 -0.0261826
0.00341567 -0.0627407 -0.0261826
0.00341567 -0.0627407 -0.0261826
0.00341567 -0.0627407 -0.0261826
0.000412232 -0.0659604 -0.0259299
0.000412232 -0.0659604 -0.0259299
0.000412232 -0.0659604 -0.0259299
0.000412232 -0.0659604 -0.0259299
0.00341567 -0.0627407 -0.0261826
0.00341567 -0.0627407 -0.0261826
0.00341567 -0.0627407 -0.0261826
0.00341567 -0.0627407 -0.0261826
0.00341567 -0.0627407 -0.0261826
0.000412232 -0.0659604 -0.0259299
0.000412232 -0.0659604 -0.0259299
0.000412232 -0.0659604 -0.0259299
0.000412232 -0.0659604 -0.0259299
0.00341567 -0.0627407 -0.0261826
0.00341567 -0.0627407 -0.0261826
0.00341567 -0.0627407 -0.0261826
0.00341567 -0.0627407 -0.0261826
0.00341567 -0.0627407 -0.0261826
0.000412232 -0.0659604 -0.0259299
0.000412232 -0.0659604 -0.0259299
0.000412232 -0.0659604 -0.0259299
0.000412232 -0.0659604 -0.0259299
0.00341567 -0.0627407 -0.0261826
0.00341567 -0.0627407 -0.0261826
0.00341567 -0.0627407 -0.0261826
0.00341567 -0.0627407 -0.0261826
0.00341567 -0.0627407 -0.0261826
0.000412232 -0.0659604 -0.0259299
0.000412232 -0.0659604 -0.0259299
0.000412232 -0.0659604 -0.0259299
0.000412232 -0.0659604 -0.0259299
0.00341567 -0.0627407 -0.0261826
0.00341567 -0.0627407 -0.0261826
0.00341567 -0.0627407 -0.0261826
0.00341567 -0.0627407 -0.0261826
0.00341567 -0.0627407 -0.0261826
0.000412232 -0.0659604 -0.0259299
0.000412232 -0.0659604 -0.0259299
0.000412232 -0.0659604 -0.0259299
0.000412232 -0.0659604 -0.0259299
0.00341567 -0.0627407 -0.0261826
0.00341567 -0.0627407 -0.0261826
0.00341567 -0.0627407 -0.0261826
0.00341567 -0.0627407 -0.0261826
0.00341567 -0.0627407 -0.0261826
0.000412232 -0.0659604 -0.0259299
0.000412232 -0.0659604 -0.0259299
0.000412232 -0.0659604 -0.0259299
0.000412232 -0.0659604 -0.0259299
0.00341567 -0.0627407 -0.0261826
0.00341567 -0.0627407 -0.0261826
0.00341567 -0.0627407 -0.0261826
0.00341567 -0.0627407 -0.0261826
0.00341567 -0.0627407 -0.0261826
0.000412232 -0.0659604 -0.0259299
0.000412232 -0.0659604 -0.0259299
0.000412232 -0.0659604 -0.0259299
0.000412232 -0.0659604 -0.0259299
0.00341567 -0.0627407 -0.0261826
0.00341567 -0.0627407 -0.0261826
0.00341567 -0.0627407 -0.0261826
0.00341567 -0.0627407 -0.0261826
0.00341567 -0.0627407 -0.0261826
0.000412232 -0.0659604 -0.0259299
0.000412232 -0.0659604 -0.0259299
0.000412232 -0.0659604 -0.0259299
0.000412232 -0.0659604 -0.0259299
0.00341567 -0.0627407 -0.0261826
0.00341567 -0.0627407 -0.0261826
0.00341567 -0.0627407 -0.0261826
0.00341567 -0.0627407 -0.0261826
0.00341567 -0.0627407 -0.0261826
0.000412232 -0.0659604 -0.0259299
0.000412232 -0.0659604 -0.0259299
0.000412232 -0.0659604 -0.0259299
0.000412232 -0.0659604 -0.0259299
0.00341567 -0.0627407 -0.0261826
0.00341567 -0.0627407 -0.0261826
0.00341567 -0.0627407 -0.0261826
0.00341567 -0.0627407 -0.0261826
0.00341567 -0.0627407 -0.0261826
0.000412232 -0.0659604 -0.0259299
0.000412232 -0.0659604 -0.0259299
0.000412232 -0.0659604 -0.0259299
0.000412232 -0.0659604 -0.0259299
0.00341567 -0.0627407 -0.0261826
0.00341567 -0.0627407 -0.0261826
0.00341567 -0.0627407 -0.0261826
0.00341567 -0.0627407 -0.0261826
0.00341567 -0.0627407 -0.0261826
0.000412232 -0.0659604 -0.0259299
0.000412232 -0.0659604 -0.0259299
0.000412232 -0.0659604 -0.0259299
0.000412232 -0.0659604 -0.0259299
0.00341567 -0.0627407 -0.0261826
0.00341567 -0.0627407 -0.0261826
0.00341567 -0.0627407 -0.0261826
0.00341567 -0.0627407 -0.0261826
0.00341567 -0.0627407 -0.0261826
0.000412232 -0.0659604 -0.0259299
0.000412232 -0.0659604 -0.0259299
0.000412232 -0.0659604 -0.0259299
0.000412232 -0.0659604 -0.0259299
0.00341567 -0.0627407 -0.0261826
0.00341567 -0.0627407 -0.0261826
0.00341567 -0.0627407 -0.0261826
0.00341567 -0.0627407 -0.0261826
0.00341567 -0.0627407 -0.0261826
0.00228533 -0.198308 -0.0345892
0.00228533 -0.198308 -0.0345892
0.00228533 -0.198308 -0.0345892
0.00228533 -0.198308 -0.0345892
0.00357338 -0.19604 -0.0351599
0.00357338 -0.19604 -0.0351599
0.00357338 -0.19604 -0.0351599
0.00357338 -0.19604 -0.0351599
0.00357338 -0.19604 -0.0351599
0.00228533 -0.198308 -0.0345892
0.00228533 -0.198308 -0.0345892
0.00228533 -0.198308 -0.0345892
0.00228533 -0.198308 -0.0345892
0.00357338 -0.19604 -0.0351599
0.00357338 -0.19604 -0.0351599
0.00357338 -0.19604 -0.0351599
0.00357338 -0.19604 -0.0351599
0.00357338 -0.19604 -0.0351599
0.00228533 -0.198308 -0.0345892
0.00228533 -0.198308 -0.0345892
0.00228533 -0.198308 -0.0345892
0.00228533 -0.198308 -0.0345892
0.00357338 -0.19604 -0.0351599
0.00357338 -0.19604 -0.0351599
0.00357338 -0.19604 -0.0351599
0.00357338 -0.19604 -0.0351599
0.00357338 -0.19604 -0.0351599
0.00228533 -0.198308 -0.0345892
0.00228533 -0.198308 -0.0345892
0.00228533 -0.198308 -0.0345892
0.00228533 -0.198308 -0.0345892
0.00357338 -0.19604 -0.0351599
0.00357338 -0.19604 -0.0351599
0.00357338 -0.19604 -0.0351599
0.00357338 -0.19604 -0.0351599
0.00357338 -0.19604 -0.0351599
0.00228533 -0.198308 -0.0345892
0.00228533 -0.198308 -0.0345892
0.00228533 -0.198308 -0.0345892
0.00228533 -0.198308 -0.0345892
0.00357338 -0.19604 -0.0351599
0.00357338 -0.19604 -0.0351599
0.00357338 -0.19604 -0.0351599
0.00357338 -0.19604 -0.0351599
0.00357338 -0.19604 -0.0351599
0.00228533 -0.198308 -0.0345892
0.00228533 -0.198308 -0.0345892
0.00228533 -0.198308 -0.0345892
0.00228533 -0.198308 -0.0345892
0.00357338 -0.19604 -0.0351599
0.00357338 -0.19604 -0.0351599
0.00357338 -0.19604 -0.0351599
0.00357338 -0.19604 -0.0351599
0.00357338 -0.19604 -0.0351599
0.00228533 -0.198308 -0.0345892
0.00228533 -0.198308 -0.0345892
0.00228533 -0.198308 -0.0345892
0.00228533 -0.198308 -0.0345892
0.00357338 -0.19604 -0.0351599
0.00357338 -0.19604 -0.0351599
0.00357338 -0.19604 -0.0351599
0.00357338 -0.19604 -0.0351599
0.00357338 -0.19604 -0.0351599
0.00228533 -0.198308 -0.0345892
0.00228533 -0.198308 -0.0345892
0.00228533 -0.198308 -0.0345892
0.00228533 -0.198308 -0.0345892
0.00357338 -0.19604 -0.0351599
0.00357338 -0.19604 -0.0351599
0.00357338 -0.19604 -0.0351599
0.00357338 -0.19604 -0.0351599
0.00357338 -0.19604 -0.0351599
0.00228533 -0.198308 -0.0345892
0.00228533 -0.198308 -0.0345892
0.00228533 -0.198308 -0.0345892
0.00228533 -0.198308 -0.0345892
0.00357338 -0.19604 -0.0351599
0.00357338 -0.19604 -0.0351599
0.00357338 -0.19604 -0.0351599
0.00357338 -0.19604 -0.0351599
0.00357338 -0.19604 -0.0351599
0.00228533 -0.198308 -0.0345892
0.00228533 -0.198308 -0.0345892
0.00228533 -0.198308 -0.0345892
0.00228533 -0.198308 -0.0345892
0.00357338 -0.19604 -0.0351599
0.00357338 -0.19604 -0.0351599
0.00357338 -0.19604 -0.0351599
0.00357338 -0.19604 -0.0351599
0.00357338 -0.19604 -0.0351599
0.000412232 -0.0659604 -0.0259299
0.000412232 -0.0659604 -0.0259299
0.000412232 -0.0659604 -0.0259299
0.000412232 -0.0659604 -0.0259299
0.00341567 -0.0627407 -0.0261826
0.00341567 -0.0627407 -0.0261826
0.00341567 -0.0627407 -0.0261826
0.00341567 -0.0627407 -0.0261826
0.00341567 -0.0627407 -0.0261826
0.000412232 -0.0659604 -0.0259299
0.000412232 -0.0659604 -0.0259299
0.000412232 -0.0659604 -0.0259299
0.000412232 -0.0659604 -0.0259299
0.00341567 -0.0627407 -0.0261826
0.00341567 -0.0627407 -0.0261826
0.00341567 -0.0627407 -0.0261826
0.00341567 -0.0627407 -0.0261826
0.00341567 -0.0627407 -0.0261826
0.000412232 -0.0659604 -0.0259299
0.000412232 -0.0659604 -0.0259299
0.000412232 -0.0659604 -0.0259299
0.000412232 -0.0659604 -0.0259299
0.00341567 -0.0627407 -0.0261826
0.00341567 -0.0627407 -0.0261826
0.00341567 -0.0627407 -0.0261826
0.00341567 -0.0627407 -0.0261826
0.00341567 -0.0627407 -0.0261826
0.000412232 -0.0659604 -0.0259299
0.000412232 -0.0659604 -0.0259299
0.000412232 -0.0659604 -0.0259299
0.000412232 -0.0659604 -0.0259299
0.00341567 -0.0627407 -0.0261826
0.00341567 -0.0627407 -0.0261826
0.00341567 -0.0627407 -0.0261826
0.00341567 -0.0627407 -0.0261826
0.00341567 -0.0627407 -0.0261826
0.000412232 -0.0659604 -0.0259299
0.000412232 -0.0659604 -0.0259299
0.000412232 -0.0659604 -0.0259299
0.000412232 -0.0659604 -0.0259299
0.00341567 -0.0627407 -0.0261826
0.00341567 -0.0627407 -0.0261826
0.00341567 -0.0627407 -0.0261826
0.00341567 -0.0627407 -0.0261826
0.00341567 -0.0627407 -0.0261826
0.000412232 -0.0659604 -0.0259299
0.000412232 -0.0659604 -0.0259299
0.000412232 -0.0659604 -0.0259299
0.000412232 -0.0659604 -0.0259299
0.00341567 -0.0627407 -0.0261826
0.00341567 -0.0627407 -0.0261826
0.00341567 -0.0627407 -0.0261826
0.00341567 -0.0627407 -0.0261826
0.00341567 -0.0627407 -0.0261826
0.000412232 -0.0659604 -0.0259299
0.000412232 -0.0659604 -0.0259299
0.000412232 -0.0659604 -0.0259299
0.000412232 -0.0659604 -0.0259299
0.00341567 -0.0627407 -0.0261826
0.00341567 -0.0627407 -0.0261826
0.00341567 -0.0627407 -0.0261826
0.00341567 -0.0627407 -0.0261826
0.00341567 -0.0627407 -0.0261826
0.000412232 -0.0659604 -0.0259299
0.000412232 -0.0659604 -0.0259299
0.000412232 -0.0659604 -0.0259299
0.000412232 -0.0659604 -0.0259299
0.00341567 -0.0627407 -0.0261826
0.00341567 -0.0627407 -0.0261826
0.00341567 -0.0627407 -0.0261826
0.00341567 -0.0627407 -0.0261826
0.00341567 -0.0627407 -0.0261826
0.000412232 -0.0659604 -0.0259299
0.000412232 -0.0659604 -0.0259299
0.000412232 -0.0659604 -0.0259299
0.000412232 -0.0659604 -0.0259299
0.00341567 -0.0627407 -0.0261826
0.00341567 -0.0627407 -0.0261826
0.00341567 -0.0627407 -0.0261826
0.00341567 -0.0627407 -0.0261826
0.00341567 -0.0627407 -0.0261826
0.000412232 -0.0659604 -0.0259299
0.000412232 -0.0659604 -0.0259299
0.000412232 -0.0659604 -0.0259299
0.000412232 -0.0659604 -0.0259299
0.00341567 -0.0627407 -0.0261826
0.00341567 -0.0627407 -0.0261826
0.00341567 -0.0627407 -0.0261826
0.00341567 -0.0627407 -0.0261826
0.00341567 -0.0627407 -0.0261826
0.000412232 -0.0659604 -0.0259299
0.000412232 -0.0659604 -0.0259299
0.000412232 -0.0659604 -0.0259299
0.000412232 -0.0659604 -0.0259299
0.00341567 -0.0627407 -0.0261826
0.00341567 -0.0627407 -0.0261826
0.00341567 -0.0627407 -0.0261826
0.00341567 -0.0627407 -0.0261826
0.00341567 -0.0627407 -0.0261826
0.000412232 -0.0659604 -0.0259299
0.000412232 -0.0659604 -0.0259299
0.000412232 -0.0659604 -0.0259299
0.000412232 -0.0659604 -0.0259299
0.00341567 -0.0627407 -0.0261826
0.00341567 -0.0627407 -0.0261826
0.00341567 -0.0627407 -0.0261826
0.00341567 -0.0627407 -0.0261826
0.00341567 -0.0627407 -0.0261826
0.000412232 -0.0659604 -0.0259299
0.000412232 -0.0659604 -0.0259299
0.000412232 -0.0659604 -0.0259299
0.000412232 -0.0659604 -0.0259299
0.00341567 -0.0627407 -0.0261826
0.00341567 -0.0627407 -0.0261826
0.00341567 -0.0627407 -0.0261826
0.00341567 -0.0627407 -0.0261826
0.00341567 -0.0627407 -0.0261826
0.000412232 -0.0659604 -0.0259299
0.000412232 -0.0659604 -0.0259299
0.000412232 -0.0659604 -0.0259299
0.000412232 -0.0659604 -0.0259299
0.00341567 -0.0627407 -0.0261826
0.00341567 -0.0627407 -0.0261826
0.00341567 -0.0627407 -0.0261826
0.00341567 -0.0627407 -0.0261826
0.00341567 -0.0627407 -0.0261826
0.000412232 -0.0659604 -0.0259299
0.000412232 -0.0659604 -0.0259299
0.000412232 -0.0659604 -0.0259299
0.000412232 -0.0659604 -0.0259299
0.00341567 -0.0627407 -0.0261826
0.00341567 -0.0627407 -0.0261826
0.00341567 -0.0627407 -0.0261826
0.00341567 -0.0627407 -0.0261826
0.00341567 -0.0627407 -0.0261826
0.000412232 -0.0659604 -0.0259299
0.000412232 -0.0659604 -0.0259299
0.000412232 -0.0659604 -0.0259299
0.000412232 -0.0659604 -0.0259299
0.00341567 -0.0627407 -0.0261826
0.00341567 -0.0627407 -0.0261826
0.00341567 -0.0627407 -0.0261826
0.00341567 -0.0627407 -0.0261826
0.00341567 -0.0627407 -0.0261826
0.000412232 -0.0659604 -0.0259299
0.000412232 -0.0659604 -0.0259299
0.000412232 -0.0659604 -0.0259299
0.000412232 -0.0659604 -0.0259299
0.00341567 -0.0627407 -0.0261826
0.00341567 -0.0627407 -0.0261826
0.00341567 -0.0627407 -0.0261826
0.00341567 -0.0627407 -0.0261826
0.00341567 -0.0627407 -0.0261826
0.000412232 -0.0659604 -0.0259299
0.000412232 -0.0659604 -0.0259299
0.000412232 -0.0659604 -0.0259299
0.000412232 -0.0659604 -0.0259299
0.00341567 -0.0627407 -0.0261826
0.00341567 -0.0627407 -0.0261826
0.00341567 -0.0627407 -0.0261826
0.00341567 -0.0627407 -0.0261826
0.00341567 -0.0627407 -0.0261826
0.000412232 -0.0659604 -0.0259299
0.000412232 -0.0659604 -0.0259299
0.000412232 -0.0659604 -0.0259299
0.000412232 -0.0659604 -0.0259299
0.00341567 -0.0627407 -0.0261826
0.00341567 -0.0627407 -0.0261826
0.00341567 -0.0627407 -0.0261826
0.00341567 -0.0627407 -0.0261826
0.00341567 -0.0627407 -0.0261826
0.00228533 -0.198308 -0.0345892
0.00228533 -0.198308 -0.0345892
0.00228533 -0.198308 -0.0345892
0.00228533 -0.198308 -0.0345892
0.00357338 -0.19604 -0.0351599
0.00357338 -0.19604 -0.0351599
0.00357338 -0.19604 -0.0351599
0.00357338 -0.19604 -0.0351599
0.00357338 -0.19604 -0.0351599
0.00228533 -0.198308 -0.0345892
0.00228533 -0.198308 -0.0345892
0.00228533 -0.198308 -0.0345892
0.00228533 -0.198308 -0.0345892
0.00357338 -0.19604 -0.0351599
0.00357338 -0.19604 -0.0351599
0.00357338 -0.19604 -0.0351599
0.00357338 -0.19604 -0.0351599
0.00357338 -0.19604 -0.0351599
0.00228533 -0.198308 -0.0345892
0.00228533 -0.198308 -0.0345892
0.00228533 -0.198308 -0.0345892
0.00228533 -0.198308 -0.0345892
0.00357338 -0.19604 -0.0351599
0.00357338 -0.19604 -0.0351599
0.00357338 -0.19604 -0.0351599
0.00357338 -0.19604 -0.0351599
0.00357338 -0.19604 -0.0351599
0.00228533 -0.198308 -0.0345892
0.00228533 -0.198308 -0.0345892
0.00228533 -0.198308 -0.0345892
0.00228533 -0.198308 -0.0345892
0.00357338 -0.19604 -0.0351599
0.00357338 -0.19604 -0.0351599
0.00357338 -0.19604 -0.0351599
0.00357338 -0.19604 -0.0351599
0.00357338 -0.19604 -0.0351599
0.00228533 -0.198308 -0.0345892
0.00228533 -0.198308 -0.0345892
0.00228533 -0.198308 -0.0345892
0.00228533 -0.198308 -0.0345892
0.00357338 -0.19604 -0.0351599
0.00357338 -0.19604 -0.0351599
0.00357338 -0.19604 -0.0351599
0.00357338 -0.19604 -0.0351599
0.00357338 -0.19604 -0.0351599
0.00228533 -0.198308 -0.0345892
0.00228533 -0.198308 -0.0345892
0.00228533 -0.198308 -0.0345892
0.00228533 -0.198308 -0.0345892
0.00357338 -0.19604 -0.0351599
0.00357338 -0.19604 -0.0351599
0.00357338 -0.19604 -0.0351599
0.00357338 -0.19604 -0.0351599
0.00357338 -0.19604 -0.0351599
0.00228533 -0.198308 -0.0345892
0.00228533 -0.198308 -0.0345892
0.00228533 -0.198308 -0.0345892
0.00228533 -0.198308 -0.0345892
0.00357338 -0.19604 -0.0351599
0.00357338 -0.19604 -0.0351599
0.00357338 -0.19604 -0.0351599
0.00357338 -0.19604 -0.0351599
0.00357338 -0.19604 -0.0351599
0.00228533 -0.198308 -0.0345892
0.00228533 -0.198308 -0.0345892
0.00228533 -0.198308 -0.0345892
0.00228533 -0.198308 -0.0345892
0.00357338 -0.19604 -0.0351599
0.00357338 -0.19604 -0.0351599
0.00357338 -0.19604 -0.0351599
0.00357338 -0.19604 -0.0351599
0.00357338 -0.19604 -0.0351599
0.00228533 -0.198308 -0.0345892
0.00228533 -0.198308 -0.0345892
0.00228533 -0.198308 -0.0345892
0.00228533 -0.198308 -0.0345892
0.00357338 -0.19604 -0.0351599
0.00357338 -0.19604 -0.0351599
0.00357338 -0.19604 -0.0351599
0.00357338 -0.19604 -0.0351599
0.00357338 -0.19604 -0.0351599
0.00228533 -0.198308 -0.0345892
0.00228533 -0.198308 -0.0345892
0.00228533 -0.198308 -0.0345892
0.00228533 -0.198308 -0.0345892
0.00357338 -0.19604 -0.0351599
0.00357338 -0.19604 -0.0351599
0.00357338 -0.19604 -0.0351599
0.00357338 -0.19604 -0.0351599
0.00357338 -0.19604 -0.0351599
0.000412232 -0.0659604 -0.0259299
0.000412232 -0.0659604 -0.0259299
0.000412232 -0.0659604 -0.0259299
0.000412232 -0.0659604 -0.0259299
0.00341567 -0.0627407 -0.0261826
0.00341567 -0.0627407 -0.0261826
0.00341567 -0.0627407 -0.0261826
0.00341567 -0.0627407 -0.0261826
0.00341567 -0.0627407 -0.0261826
0.000412232 -0.0659604 -0.0259299
0.000412232 -0.0659604 -0.0259299
0.000412232 -0.0659604 -0.0259299
0.000412232 -0.0659604 -0.0259299
0.00341567 -0.0627407 -0.0261826
0.00341567 -0.0627407 -0.0261826
0.00341567 -0.0627407 -0.0261826
0.00341567 -0.0627407 -0.0261826
0.00341567 -0.0627407 -0.0261826
0.000412232 -0.0659604 -0.0259299
0.000412232 -0.0659604 -0.0259299
0.000412232 -0.0659604 -0.0259299
0.000412232 -0.0659604 -0.0259299
0.00341567 -0.0627407 -0.0261826
0.00341567 -0.0627407 -0.0261826
0.00341567 -0.0627407 -0.0261826
0.00341567 -0.0627407 -0.0261826
0.00341567 -0.0627407 -0.0261826
0.000412232 -0.0659604 -0.0259299
0.000412232 -0.0659604 -0.0259299
0.000412232 -0.0659604 -0.0259299
0.000412232 -0.0659604 -0.0259299
0.00341567 -0.0627407 -0.0261826
0.00341567 -0.0627407 -0.0261826
0.00341567 -0.0627407 -0.0261826
0.00341567 -0.0627407 -0.0261826
0.00341567 -0.0627407 -0.0261826
0.000412232 -0.0659604 -0.0259299
0.000412232 -0.0659604 -0.0259299
0.000412232 -0.0659604 -0.0259299
0.000412232 -0.0659604 -0.0259299
0.00341567 -0.0627407 -0.0261826
0.00341567 -0.0627407 -0.0261826
0.00341567 -0.0627407 -0.0261826
0.00341567 -0.0627407 -0.0261826
0.00341567 -0.0627407 -0.0261826
0.000412232 -0.0659604 -0.0259299
0.000412232 -0.0659604 -0.0259299
0.000412232 -0.0659604 -0.0259299
0.000412232 -0.0659604 -0.0259299
0.00341567 -0.0627407 -0.0261826
0.00341567 -0.0627407 -0.0261826
0.00341567 -0.0627407 -0.0261826
0.00341567 -0.0627407 -0.0261826
0.00341567 -0.0627407 -0.0261826
0.000412232 -0.0659604 -0.0259299
0.000412232 -0.0659604 -0.0259299
0.000412232 -0.0659604 -0.0259299
0.000412232 -0.0659604 -0.0259299
0.00341567 -0.0627407 -0.0261826
0.00341567 -0.0627407 -0.0261826
0.00341567 -0.0627407 -0.0261826
0.00341567 -0.0627407 -0.0261826
0.00341567 -0.0627407 -0.0261826
0.000412232 -0.0659604 -0.0259299
0.000412232 -0.0659604 -0.0259299
0.000412232 -0.0659604 -0.0259299
0.000412232 -0.0659604 -0.0259299
0.00341567 -0.0627407 -0.0261826
0.00341567 -0.0627407 -0.0261826
0.00341567 -0.0627407 -0.0261826
0.00341567 -0.0627407 -0.0261826
0.00341567 -0.0627407 -0.0261826
0.000412232 -0.0659604 -0.0259299
0.000412232 -0.0659604 -0.0259299
0.000412232 -0.0659604 -0.0259299
0.000412232 -0.0659604 -0.0259299
0.00341567 -0.0627407 -0.0261826
0.00341567 -0.0627407 -0.0261826
0.00341567 -0.0627407 -0.0261826
0.00341567 -0.0627407 -0.0261826
0.00341567 -0.0627407 -0.0261826
0.000412232 -0.0659604 -0.0259299
0.000412232 -0.0659604 -0.0259299
0.000412232 -0.0659604 -0.0259299
0.000412232 -0.0659604 -0.0259299
0.00341567 -0.0627407 -0.0261826
0.00341567 -0.0627407 -0.0261826
0.00341567 -0.0627407 -0.0261826
0.00341567 -0.0627407 -0.0261826
0.00341567 -0.0627407 -0.0261826
0.000412232 -0.0659604 -0.0259299
0.000412232 -0.0659604 -0.0259299
0.000412232 -0.0659604 -0.0259299
0.000412232 -0.0659604 -0.0259299
0.00341567 -0.0627407 -0.0261826
0.00341567 -0.0627407 -0.0261826
0.00341567 -0.0627407 -0.0261826
0.00341567 -0.0627407 -0.0261826
0.00341567 -0.0627407 -0.0261826
0.000412232 -0.0659604 -0.0259299
0.000412232 -0.0659604 -0.0259299
0.000412232 -0.0659604 -0.0259299
0.000412232 -0.0659604 -0.0259299
0.00341567 -0.0627407 -0.0261826
0.00341567 -0.0627407 -0.0261826
0.00341567 -0.0627407 -0.0261826
0.00341567 -0.0627407 -0.0261826
0.00341567 -0.0627407 -0.0261826
0.000412232 -0.0659604 -0.0259299
0.000412232 -0.0659604 -0.0259299
0.000412232 -0.0659604 -0.0259299
0.000412232 -0.0659604 -0.0259299
0.00341567 -0.0627407 -0.0261826
0.00341567 -0.0627407 -0.0261826
0.00341567 -0.0627407 -0.0261826
0.00341567 -0.0627407 -0.0261826
0.00341567 -0.0627407 -0.0261826
0.000412232 -0.0659604 -0.0259299
0.000412232 -0.0659604 -0.0259299
0.000412232 -0.0659604 -0.0259299
0.000412232 -0.0659604 -0.0259299
0.00341567 -0.0627407 -0.0261826
0.00341567 -0.0627407 -0.0261826
0.00341567 -0.0627407 -0.0261826
0.00341567 -0.0627407 -0.0261826
0.00341567 -0.0627407 -0.0261826
0.000412232 -0.0659604 -0.0259299
0.000412232 -0.0659604 -0.0259299
0.000412232 -0.0659604 -0.0259299
0.000412232 -0.0659604 -0.0259299
0.00341567 -0.0627407 -0.0261826
0.00341567 -0.0627407 -0.0261826
0.00341567 -0.0627407 -0.0261826
0.00341567 -0.0627407 -0.0261826
0.00341567 -0.0627407 -0.0261826
0.000412232 -0.0659604 -0.0259299
0.000412232 -0.0659604 -0.0259299
0.000412232 -0.0659604 -0.0259299
0.000412232 -0.0659604 -0.0259299
0.00341567 -0.0627407 -0.0261826
0.00341567 -0.0627407 -0.0261826
0.00341567 -0.0627407 -0.0261826
0.00341567 -0.0627407 -0.0261826
0.00341567 -0.0627407 -0.0261826
0.000412232 -0.0659604 -0.0259299
0.000412232 -0.0659604 -0.0259299
0.000412232 -0.0659604 -0.0259299
0.000412232 -0.0659604 -0.0259299
0.00341567 -0.0627407 -0.0261826
0.00341567 -0.0627407 -0.0261826
0.00341567 -0.0627407 -0.0261826
0.00341567 -0.0627407 -0.0261826
0.00341567 -0.0627407 -0.0261826
0.000412232 -0.0659604 -0.0259299
0.000412232 -0.0659604 -0.0259299
0.000412232 -0.0659604 -0.0259299
0.000412232 -0.0659604 -0.0259299
0.00341567 -0.0627407 -0.0261826
0.00341567 -0.0627407 -0.0261826
0.00341567 -0.0627407 -0.0261826
0.00341567 -0.0627407 -0.0261826
0.00341567 -0.0627407 -0.0261826
0.000412232 -0.0659604 -0.0259299
0.000412232 -0.0659604 -0.0259299
0.000412232 -0.0659604 -0.0259299
0.000412232 -0.0659604 -0.0259299
0.00341567 -0.0627407 -0.0261826
0.00341567 -0.0627407 -0.0261826
0.00341567 -0.0627407 -0.0261826
0.00341567 -0.0627407 -0.0261826
0.00341567 -0.0627407 -0.0261826
0.00228533 -0.198308 -0.0345892
0.00228533 -0.198308 -0.0345892
0.00228533 -0.198308 -0.0345892
0.00228533 -0.198308 -0.0345892
0.00357338 -0.19604 -0.0351599
0.00357338 -0.19604 -0.0351599
0.00357338 -0.19604 -0.0351599
0.00357338 -0.19604 -0.0351599
0.00357338 -0.19604 -0.0351599
0.00228533 -0.198308 -0.0345892
0.00228533 -0.198308 -0.0345892
0.00228533 -0.198308 -0.0345892
0.00228533 -0.198308 -0.0345892
0.00357338 -0.19604 -0.0351599
0.00357338 -0.19604 -0.0351599
0.00357338 -0.19604 -0.0351599
0.00357338 -0.19604 -0.0351599
0.00357338 -0.19604 -0.0351599
0.00228533 -0.198308 -0.0345892
0.00228533 -0.198308 -0.0345892
0.00228533 -0.198308 -0.0345892
0.00228533 -0.198308 -0.0345892
0.00357338 -0.19604 -0.0351599
0.00357338 -0.19604 -0.0351599
0.00357338 -0.19604 -0.0351599
0.00357338 -0.19604 -0.0351599
0.00357338 -0.19604 -0.0351599
0.00228533 -0.198308 -0.0345892
0.00228533 -0.198308 -0.0345892
0.00228533 -0.198308 -0.0345892
0.00228533 -0.198308 -0.0345892
0.00357338 -0.19604 -0.0351599
0.00357338 -0.19604 -0.0351599
0.00357338 -0.19604 -0.0351599
0.00357338 -0.19604 -0.0351599
0.00357338 -0.19604 -0.0351599
0.00228533 -0.198308 -0.0345892
0.00228533 -0.198308 -0.0345892
0.00228533 -0.198308 -0.0345892
0.00228533 -0.198308 -0.0345892
0.00357338 -0.19604 -0.0351599
0.00357338 -0.19604 -0.0351599
0.00357338 -0.19604 -0.0351599
0.00357338 -0.19604 -0.0351599
0.00357338 -0.19604 -0.0351599
0.00228533 -0.198308 -0.0345892
0.00228533 -0.198308 -0.0345892
0.00228533 -0.198308 -0.0345892
0.00228533 -0.198308 -0.0345892
0.00357338 -0.19604 -0.0351599
0.00357338 -0.19604 -0.0351599
0.00357338 -0.19604 -0.0351599
0.00357338 -0.19604 -0.0351599
0.00357338 -0.19604 -0.0351599
0.00228533 -0.198308 -0.0345892
0.00228533 -0.198308 -0.0345892
0.00228533 -0.198308 -0.0345892
0.00228533 -0.198308 -0.0345892
0.00357338 -0.19604 -0.0351599
0.00357338 -0.19604 -0.0351599
0.00357338 -0.19604 -0.0351599
0.00357338 -0.19604 -0.0351599
0.00357338 -0.19604 -0.0351599
0.00228533 -0.198308 -0.0345892
0.00228533 -0.198308 -0.0345892
0.00228533 -0.198308 -0.0345892
0.00228533 -0.198308 -0.0345892
0.00357338 -0.19604 -0.0351599
0.00357338 -0.19604 -0.0351599
0.00357338 -0.19604 -0.0351599
0.00357338 -0.19604 -0.0351599
0.00357338 -0.19604 -0.0351599
0.00228533 -0.198308 -0.0345892
0.00228533 -0.198308 -0.0345892
0.00228533 -0.198308 -0.0345892
0.00228533 -0.198308 -0.0345892
0.00357338 -0.19604 -0.0351599
0.00357338 -0.19604 -0.0351599
0.00357338 -0.19604 -0.0351599
0.00357338 -0.19604 -0.0351599
0.00357338 -0.19604 -0.0351599
0.00228533 -0.198308 -0.0345892
0.00228533 -0.198308 -0.0345892
0.00228533 -0.198308 -0.0345892
0.00228533 -0.198308 -0.0345892
0.00357338 -0.19604 -0.0351599
0.00357338 -0.19604 -0.0351599
0.00357338 -0.19604 -0.0351599
0.00357338 -0.19604 -0.0351599
0.00357338 -0.19604 -0.0351599
0.000412232 -0.0659604 -0.0259299
0.000412232 -0.0659604 -0.0259299
0.000412232 -0.0659604 -0.0259299
0.000412232 -0.0659604 -0.0259299
0.00341567 -0.0627407 -0.0261826
0.00341567 -0.0627407 -0.0261826
0.00341567 -0.0627407 -0.0261826
0.00341567 -0.0627407 -0.0261826
0.00341567 -0.0627407 -0.0261826
0.000412232 -0.0659604 -0.0259299
0.000412232 -0.0659604 -0.0259299
0.000412232 -0.0659604 -0.0259299
0.000412232 -0.0659604 -0.0259299
0.00341567 -0.0627407 -0.0261826
0.00341567 -0.0627407 -0.0261826
0.00341567 -0.0627407 -0.0261826
0.00341567 -0.0627407 -0.0261826
0.00341567 -0.0627407 -0.0261826
0.000412232 -0.0659604 -0.0259299
0.000412232 -0.0659604 -0.0259299
0.000412232 -0.0659604 -0.0259299
0.000412232 -0.0659604 -0.0259299
0.00341567 -0.0627407 -0.0261826
0.00341567 -0.0627407 -0.0261826
0.00341567 -0.0627407 -0.0261826
0.00341567 -0.0627407 -0.0261826
0.00341567 -0.0627407 -0.0261826
0.000412232 -0.0659604 -0.0259299
0.000412232 -0.0659604 -0.0259299
0.000412232 -0.0659604 -0.0259299
0.000412232 -0.0659604 -0.0259299
0.00341567 -0.0627407 -0.0261826
0.00341567 -0.0627407 -0.0261826
0.00341567 -0.0627407 -0.0261826
0.00341567 -0.0627407 -0.0261826
0.00341567 -0.0627407 -0.0261826
0.000412232 -0.0659604 -0.0259299
0.000412232 -0.0659604 -0.0259299
0.000412232 -0.0659604 -0.0259299
0.000412232 -0.0659604 -0.0259299
0.00341567 -0.0627407 -0.0261826
0.00341567 -0.0627407 -0.0261826
0.00341567 -0.0627407 -0.0261826
0.00341567 -0.0627407 -0.0261826
0.00341567 -0.0627407 -0.0261826
0.000412232 -0.0659604 -0.0259299
0.000412232 -0.0659604 -0.0259299
0.000412232 -0.0659604 -0.0259299
0.000412232 -0.0659604 -0.0259299
0.00341567 -0.0627407 -0.0261826
0.00341567 -0.0627407 -0.0261826
0.00341567 -0.0627407 -0.0261826
0.00341567 -0.0627407 -0.0261826
0.00341567 -0.0627407 -0.0261826
0.000412232 -0.0659604 -0.0259299
0.000412232 -0.0659604 -0.0259299
0.000412232 -0.0659604 -0.0259299
0.000412232 -0.0659604 -0.0259299
0.00341567 -0.0627407 -0.0261826
0.00341567 -0.0627407 -0.0261826
0.00341567 -0.0627407 -0.0261826
0.00341567 -0.0627407 -0.0261826
0.00341567 -0.0627407 -0.0261826
0.000412232 -0.0659604 -0.0259299
0.000412232 -0.0659604 -0.0259299
0.000412232 -0.0659604 -0.0259299
0.000412232 -0.0659604 -0.0259299
0.00341567 -0.0627407 -0.0261826
0.00341567 -0.0627407 -0.0261826
0.00341567 -0.0627407 -0.0261826
0.00341567 -0.0627407 -0.0261826
0.00341567 -0.0627407 -0.0261826
0.000412232 -0.0659604 -0.0259299
0.000412232 -0.0659604 -0.0259299
0.000412232 -0.0659604 -0.0259299
0.000412232 -0.0659604 -0.0259299
0.00341567 -0.0627407 -0.0261826
0.00341567 -0.0627407 -0.0261826
0.00341567 -0.0627407 -0.0261826
0.00341567 -0.0627407 -0.0261826
0.00341567 -0.0627407 -0.0261826
0.000412232 -0.0659604 -0.0259299
0.000412232 -0.0659604 -0.0259299
0.000412232 -0.0659604 -0.0259299
0.000412232 -0.0659604 -0.0259299
0.00341567 -0.0627407 -0.0261826
0.00341567 -0.0627407 -0.0261826
0.00341567 -0.0627407 -0.0261826
0.00341567 -0.0627407 -0.0261826
0.00341567 -0.0627407 -0.0261826
0.000412232 -0.0659604 -0.0259299
0.000412232 -0.0659604 -0.0259299
0.000412232 -0.0659604 -0.0259299
0.000412232 -0.0659604 -0.0259299
0.00341567 -0.0627407 -0.0261826
0.00341567 -0.0627407 -0.0261826
0.00341567 -0.0627407 -0.0261826
0.00341567 -0.0627407 -0.0261826
0.00341567 -0.0627407 -0.0261826
0.000412232 -0.0659604 -0.0259299
0.000412232 -0.0659604 -0.0259299
0.000412232 -0.0659604 -0.0259299
0.000412232 -0.0659604 -0.0259299
0.00341567 -0.0627407 -0.0261826
0.00341567 -0.0627407 -0.0261826
0.00341567 -0.0627407 -0.0261826
0.00341567 -0.0627407 -0.0261826
0.00341567 -0.0627407 -0.0261826
0.000412232 -0.0659604 -0.0259299
0.000412232 -0.0659604 -0.0259299
0.000412232 -0.0659604 -0.0259299
0.000412232 -0.0659604 -0.0259299
0.00341567 -0.0627407 -0.0261826
0.00341567 -0.0627407 -0.0261826
0.00341567 -0.0627407 -0.0261826
0.00341567 -0.0627407 -0.0261826
0.00341567 -0.0627407 -0.0261826
0.000412232 -0.0659604 -0.0259299
0.000412232 -0.0659604 -0.0259299
0.000412232 -0.0659604 -0.0259299
0.000412232 -0.0659604 -0.0259299
0.00341567 -0.0627407 -0.0261826
0.00341567 -0.0627407 -0.0261826
0.00341567 -0.0627407 -0.0261826
0.00341567 -0.0627407 -0.0261826
0.00341567 -0.0627407 -0.0261826
0.000412232 -0.0659604 -0.0259299
0.000412232 -0.0659604 -0.0259299
0.000412232 -0.0659604 -0.0259299
0.000412232 -0.0659604 -0.0259299
0.00341567 -0.0627407 -0.0261826
0.00341567 -0.0627407 -0.0261826
0.00341567 -0.0627407 -0.0261826
0.00341567 -0.0627407 -0.0261826
0.00341567 -0.0627407 -0.0261826
0.000412232 -0.0659604 -0.0259299
0.000412232 -0.0659604 -0.0259299
0.000412232 -0.0659604 -0.0259299
0.000412232 -0.0659604 -0.0259299
0.00341567 -0.0627407 -0.0261826
0.00341567 -0.0627407 -0.0261826
0.00341567 -0.0627407 -0.0261826
0.00341567 -0.0627407 -0.0261826
0.00341567 -0.0627407 -0.0261826
0.000412232 -0.0659604 -0.0259299
0.000412232 -0.0659604 -0.0259299
0.000412232 -0.0659604 -0.0259299
0.000412232 -0.0659604 -0.0259299
0.00341567 -0.0627407 -0.0261826
0.00341567 -0.0627407 -0.0261826
0.00341567 -0.0627407 -0.0261826
0.00341567 -0.0627407 -0.0261826
0.00341567 -0.0627407 -0.0261826
0.000412232 -0.0659604 -0.0259299
0.000412232 -0.0659604 -0.0259299
0.000412232 -0.0659604 -0.0259299
0.000412232 -0.0659604 -0.0259299
0.00341567 -0.0627407 -0.0261826
0.00341567 -0.0627407 -0.0261826
0.00341567 -0.0627407 -0.0261826
0.00341567 -0.0627407 -0.0261826
0.00341567 -0.0627407 -0.0261826
0.000412232 -0.0659604 -0.0259299
0.000412232 -0.0659604 -0.0259299
0.000412232 -0.0659604 -0.0259299
0.000412232 -0.0659604 -0.0259299
0.00341567 -0.0627407 -0.0261826
0.00341567 -0.0627407 -0.0261826
0.00341567 -0.0627407 -0.0261826
0.00341567 -0.0627407 -0.0261826
0.00341567 -0.0627407 -0.0261826
0.00228533 -0.198308 -0.0345892
0.00228533 -0.198308 -0.0345892
0.00228533 -0.198308 -0.0345892
0.00228533 -0.198308 -0.0345892
0.00357338 -0.19604 -0.0351599
0.00357338 -0.19604 -0.0351599
0.00357338 -0.19604 -0.0351599
0.00357338 -0.19604 -0.0351599
0.00357338 -0.19604 -0.0351599
0.00228533 -0.198308 -0.0345892
0.00228533 -0.198308 -0.0345892
0.00228533 -0.198308 -0.0345892
0.00228533 -0.198308 -0.0345892
0.00357338 -0.19604 -0.0351599
0.00357338 -0.19604 -0.0351599
0.00357338 -0.19604 -0.0351599
0.00357338 -0.19604 -0.0351599
0.00357338 -0.19604 -0.0351599
0.00228533 -0.198308 -0.0345892
0.00228533 -0.198308 -0.0345892
0.00228533 -0.198308 -0.0345892
0.00228533 -0.198308 -0.0345892
0.00357338 -0.19604 -0.0351599
0.00357338 -0.19604 -0.0351599
0.00357338 -0.19604 -0.0351599
0.00357338 -0.19604 -0.0351599
0.00357338 -0.19604 -0.0351599
0.00228533 -0.198308 -0.0345892
0.00228533 -0.198308 -0.0345892
0.00228533 -0.198308 -0.0345892
0.00228533 -0.198308 -0.0345892
0.00357338 -0.19604 -0.0351599
0.00357338 -0.19604 -0.0351599
0.00357338 -0.19604 -0.0351599
0.00357338 -0.19604 -0.0351599
0.00357338 -0.19604 -0.0351599
0.00228533 -0.198308 -0.0345892
0.00228533 -0.198308 -0.0345892
0.00228533 -0.198308 -0.0345892
0.00228533 -0.198308 -0.0345892
0.00357338 -0.19604 -0.0351599
0.00357338 -0.19604 -0.0351599
0.00357338 -0.19604 -0.0351599
0.00357338 -0.19604 -0.0351599
0.00357338 -0.19604 -0.0351599
0.00228533 -0.198308 -0.0345892
0.00228533 -0.198308 -0.0345892
0.00228533 -0.198308 -0.0345892
0.00228533 -0.198308 -0.0345892
0.00357338 -0.19604 -0.0351599
0.00357338 -0.19604 -0.0351599
0.00357338 -0.19604 -0.0351599
0.00357338 -0.19604 -0.0351599
0.00357338 -0.19604 -0.0351599
0.00228533 -0.198308 -0.0345892
0.00228533 -0.198308 -0.0345892
0.00228533 -0.198308 -0.0345892
0.00228533 -0.198308 -0.0345892
0.00357338 -0.19604 -0.0351599
0.00357338 -0.19604 -0.0351599
0.00357338 -0.19604 -0.0351599
0.00357338 -0.19604 -0.0351599
0.00357338 -0.19604 -0.0351599
0.00228533 -0.198308 -0.0345892
0.00228533 -0.198308 -0.0345892
0.00228533 -0.198308 -0.0345892
0.00228533 -0.198308 -0.0345892
0.00357338 -0.19604 -0.0351599
0.00357338 -0.19604 -0.0351599
0.00357338 -0.19604 -0.0351599
0.00357338 -0.19604 -0.0351599
0.00357338 -0.19604 -0.0351599
0.00228533 -0.198308 -0.0345892
0.00228533 -0.198308 -0.0345892
0.00228533 -0.198308 -0.0345892
0.00228533 -0.198308 -0.0345892
0.00357338 -0.19604 -0.0351599
0.00357338 -0.19604 -0.0351599
0.00357338 -0.19604 -0.0351599
0.00357338 -0.19604 -0.0351599
0.00357338 -0.19604 -0.0351599
0.00228533 -0.198308 -0.0345892
0.00228533 -0.198308 -0.0345892
0.00228533 -0.198308 -0.0345892
0.00228533 -0.198308 -0.0345892
0.00357338 -0.19604 -0.0351599
0.00357338 -0.19604 -0.0351599
0.00357338 -0.19604 -0.0351599
0.00357338 -0.19604 -0.0351599
0.00357338 -0.19604 -0.0351599
0.00147397 -0.064845 0.0269778
0.00147397 -0.064845 0.0269778
0.00147397 -0.064845 0.0269778
0.00147397 -0.064845 0.0269778
-0.00221995 -0.0623799 0.0263347
-0.00221995 -0.0623799 0.0263347
-0.00221995 -0.0623799 0.0263347
-0.00221995 -0.0623799 0.0263347
-0.00221995 -0.0623799 0.0263347
0.00147397 -0.064845 0.0269778
0.00147397 -0.064845 0.0269778
0.00147397 -0.064845 0.0269778
0.00147397 -0.064845 0.0269778
-0.00221995 -0.0623799 0.0263347
-0.00221995 -0.0623799 0.0263347
-0.00221995 -0.0623799 0.0263347
-0.00221995 -0.0623799 0.0263347
-0.00221995 -0.0623799 0.0263347
0.00147397 -0.064845 0.0269778
0.00147397 -0.064845 0.0269778
0.00147397 -0.064845 0.0269778
0.00147397 -0.064845 0.0269778
-0.00221995 -0.0623799 0.0263347
-0.00221995 -0.0623799 0.0263347
-0.00221995 -0.0623799 0.0263347
-0.00221995 -0.0623799 0.0263347
-0.00221995 -0.0623799 0.0263347
0.00147397 -0.064845 0.0269778
0.00147397 -0.064845 0.0269778
0.00147397 -0.064845 0.0269778
0.00147397 -0.064845 0.0269778
-0.00221995 -0.0623799 0.0263347
-0.00221995 -0.0623799 0.0263347
-0.00221995 -0.0623799 0.0263347
-0.00221995 -0.0623799 0.0263347
-0.00221995 -0.0623799 0.0263347
0.00147397 -0.064845 0.0269778
0.00147397 -0.064845 0.0269778
0.00147397 -0.064845 0.0269778
0.00147397 -0.064845 0.0269778
-0.00221995 -0.0623799 0.0263347
-0.00221995 -0.0623799 0.0263347
-0.00221995 -0.0623799 0.0263347
-0.00221995 -0.0623799 0.0263347
-0.00221995 -0.0623799 0.0263347
0.00147397 -0.064845 0.0269778
0.00147397 -0.064845 0.0269778
0.00147397 -0.064845 0.0269778
0.00147397 -0.064845 0.0269778
-0.00221995 -0.0623799 0.0263347
-0.00221995 -0.0623799 0.0263347
-0.00221995 -0.0623799 0.0263347
-0.00221995 -0.0623799 0.0263347
-0.00221995 -0.0623799 0.0263347
0.00147397 -0.064845 0.0269778
0.00147397 -0.064845 0.0269778
0.00147397 -0.064845 0.0269778
0.00147397 -0.064845 0.0269778
-0.00221995 -0.0623799 0.0263347
-0.00221995 -0.0623799 0.0263347
-0.00221995 -0.0623799 0.0263347
-0.00221995 -0.0623799 0.0263347
-0.00221995 -0.0623799 0.0263347
0.00147397 -0.064845 0.0269778
0.00147397 -0.064845 0.0269778
0.00147397 -0.064845 0.0269778
0.00147397 -0.064845 0.0269778
-0.00221995 -0.0623799 0.0263347
-0.00221995 -0.0623799 0.0263347
-0.00221995 -0.0623799 0.0263347
-0.00221995 -0.0623799 0.0263347
-0.00221995 -0.0623799 0.0263347
0.00147397 -0.064845 0.0269778
0.00147397 -0.064845 0.0269778
0.00147397 -0.064845 0.0269778
0.00147397 -0.064845 0.0269778
-0.00221995 -0.0623799 0.0263347
-0.00221995 -0.0623799 0.0263347
-0.00221995 -0.0623799 0.0263347
-0.00221995 -0.0623799 0.0263347
-0.00221995 -0.0623799 0.0263347
0.00147397 -0.064845 0.0269778
0.00147397 -0.064845 0.0269778
0.00147397 -0.064845 0.0269778
0.00147397 -0.064845 0.0269778
-0.00221995 -0.0623799 0.0263347
-0.00221995 -0.0623799 0.0263347
-0.00221995 -0.0623799 0.0263347
-0.00221995 -0.0623799 0.0263347
-0.00221995 -0.0623799 0.0263347
0.00147397 -0.064845 0.0269778
0.00147397 -0.064845 0.0269778
0.00147397 -0.064845 0.0269778
0.00147397 -0.064845 0.0269778
-0.00221995 -0.0623799 0.0263347
-0.00221995 -0.0623799 0.0263347
-0.00221995 -0.0623799 0.0263347
-0.00221995 -0.0623799 0.0263347
-0.00221995 -0.0623799 0.0263347
0.00147397 -0.064845 0.0269778
0.00147397 -0.064845 0.0269778
0.00147397 -0.064845 0.0269778
0.00147397 -0.064845 0.0269778
-0.00221995 -0.0623799 0.0263347
-0.00221995 -0.0623799 0.0263347
-0.00221995 -0.0623799 0.0263347
-0.00221995 -0.0623799 0.0263347
-0.00221995 -0.0623799 0.0263347
0.00147397 -0.064845 0.0269778
0.00147397 -0.064845 0.0269778
0.00147397 -0.064845 0.0269778
0.00147397 -0.064845 0.0269778
-0.00221995 -0.0623799 0.0263347
-0.00221995 -0.0623799 0.0263347
-0.00221995 -0.0623799 0.0263347
-0.00221995 -0.0623799 0.0263347
-0.00221995 -0.0623799 0.0263347
0.00147397 -0.064845 0.0269778
0.00147397 -0.064845 0.0269778
0.00147397 -0.064845 0.0269778
0.00147397 -0.064845 0.0269778
-0.00221995 -0.0623799 0.0263347
-0.00221995 -0.0623799 0.0263347
-0.00221995 -0.0623799 0.0263347
-0.00221995 -0.0623799 0.0263347
-0.00221995 -0.0623799 0.0263347
0.00147397 -0.064845 0.0269778
0.00147397 -0.064845 0.0269778
0.00147397 -0.064845 0.0269778
0.00147397 -0.064845 0.0269778
-0.00221995 -0.0623799 0.0263347
-0.00221995 -0.0623799 0.0263347
-0.00221995 -0.0623799 0.0263347
-0.00221995 -0.0623799 0.0263347
-0.00221995 -0.0623799 0.0263347
0.00147397 -0.064845 0.0269778
0.00147397 -0.064845 0.0269778
0.00147397 -0.064845 0.0269778
0.00147397 -0.064845 0.0269778
-0.00221995 -0.0623799 0.0263347
-0.00221995 -0.0623799 0.0263347
-0.00221995 -0.0623799 0.0263347
-0.00221995 -0.0623799 0.0263347
-0.00221995 -0.0623799 0.0263347
0.00147397 -0.064845 0.0269778
0.00147397 -0.064845 0.0269778
0.00147397 -0.064845 0.0269778
0.00147397 -0.064845 0.0269778
-0.00221995 -0.0623799 0.0263347
-0.00221995 -0.0623799 0.0263347
-0.00221995 -0.0623799 0.0263347
-0.00221995 -0.0623799 0.0263347
-0.00221995 -0.0623799 0.0263347
0.00147397 -0.064845 0.0269778
0.00147397 -0.064845 0.0269778
0.00147397 -0.064845 0.0269778
0.00147397 -0.064845 0.0269778
-0.00221995 -0.0623799 0.0263347
-0.00221995 -0.0623799 0.0263347
-0.00221995 -0.0623799 0.0263347
-0.00221995 -0.0623799 0.0263347
-0.00221995 -0.0623799 0.0263347
0.00147397 -0.064845 0.0269778
0.00147397 -0.064845 0.0269778
0.00147397 -0.064845 0.0269778
0.00147397 -0.064845 0.0269778
-0.00221995 -0.0623799 0.0263347
-0.00221995 -0.0623799 0.0263347
-0.00221995 -0.0623799 0.0263347
-0.00221995 -0.0623799 0.0263347
-0.00221995 -0.0623799 0.0263347
0.000236599 -0.200216 0.0361544
0.000236599 -0.200216 0.0361544
0.000236599 -0.200216 0.0361544
0.000236599 -0.200216 0.0361544
0.00023902 -0.197608 0.0359947
0.00023902 -0.197608 0.0359947
0.00023902 -0.197608 0.0359947
0.00023902 -0.197608 0.0359947
0.00023902 -0.197608 0.0359947
0.000236599 -0.200216 0.0361544
0.000236599 -0.200216 0.0361544
0.000236599 -0.200216 0.0361544
0.000236599 -0.200216 0.0361544
0.00023902 -0.197608 0.0359947
0.00023902 -0.197608 0.0359947
0.00023902 -0.197608 0.0359947
0.00023902 -0.197608 0.0359947
0.00023902 -0.197608 0.0359947
0.000236599 -0.200216 0.0361544
0.000236599 -0.200216 0.0361544
0.000236599 -0.200216 0.0361544
0.000236599 -0.200216 0.0361544
0.00023902 -0.197608 0.0359947
0.00023902 -0.197608 0.0359947
0.00023902 -0.197608 0.0359947
0.00023902 -0.197608 0.0359947
0.00023902 -0.197608 0.0359947
0.000236599 -0.200216 0.0361544
0.000236599 -0.200216 0.0361544
0.000236599 -0.200216 0.0361544
0.000236599 -0.200216 0.0361544
0.00023902 -0.197608 0.0359947
0.00023902 -0.197608 0.0359947
0.00023902 -0.197608 0.0359947
0.00023902 -0.197608 0.0359947
0.00023902 -0.197608 0.0359947
0.000236599 -0.200216 0.0361544
0.000236599 -0.200216 0.0361544
0.000236599 -0.200216 0.0361544
0.000236599 -0.200216 0.0361544
0.00023902 -0.197608 0.0359947
0.00023902 -0.197608 0.0359947
0.00023902 -0.197608 0.0359947
0.00023902 -0.197608 0.0359947
0.00023902 -0.197608 0.0359947
0.000236599 -0.200216 0.0361544
0.000236599 -0.200216 0.0361544
0.000236599 -0.200216 0.0361544
0.000236599 -0.200216 0.0361544
0.00023902 -0.197608 0.0359947
0.00023902 -0.197608 0.0359947
0.00023902 -0.197608 0.0359947
0.00023902 -0.197608 0.0359947
0.00023902 -0.197608 0.0359947
0.000236599 -0.200216 0.0361544
0.000236599 -0.200216 0.0361544
0.000236599 -0.200216 0.0361544
0.000236599 -0.200216 0.0361544
0.00023902 -0.197608 0.0359947
0.00023902 -0.197608 0.0359947
0.00023902 -0.197608 0.0359947
0.00023902 -0.197608 0.0359947
0.00023902 -0.197608 0.0359947
0.000236599 -0.200216 0.0361544
0.000236599 -0.200216 0.0361544
0.000236599 -0.200216 0.0361544
0.000236599 -0.200216 0.0361544
0.00023902 -0.197608 0.0359947
0.00023902 -0.197608 0.0359947
0.00023902 -0.197608 0.0359947
0.00023902 -0.197608 0.0359947
0.00023902 -0.197608 0.0359947
0.000236599 -0.200216 0.0361544
0.000236599 -0.200216 0.0361544
0.000236599 -0.200216 0.0361544
0.000236599 -0.200216 0.0361544
0.00023902 -0.197608 0.0359947
0.00023902 -0.197608 0.0359947
0.00023902 -0.197608 0.0359947
0.00023902 -0.197608 0.0359947
0.00023902 -0.197608 0.0359947
0.000236599 -0.200216 0.0361544
0.000236599 -0.200216 0.0361544
0.000236599 -0.200216 0.0361544
0.000236599 -0.200216 0.0361544
0.00023902 -0.197608 0.0359947
0.00023902 -0.197608 0.0359947
0.00023902 -0.197608 0.0359947
0.00023902 -0.197608 0.0359947
0.00023902 -0.197608 0.0359947
0.00147397 -0.064845 0.0269778
0.00147397 -0.064845 0.0269778
0.00147397 -0.064845 0.0269778
0.00147397 -0.064845 0.0269778
-0.00221995 -0.0623799 0.0263347
-0.00221995 -0.0623799 0.0263347
-0.00221995 -0.0623799 0.0263347
-0.00221995 -0.0623799 0.0263347
-0.00221995 -0.0623799 0.0263347
0.00147397 -0.064845 0.0269778
0.00147397 -0.064845 0.0269778
0.00147397 -0.064845 0.0269778
0.00147397 -0.064845 0.0269778
-0.00221995 -0.0623799 0.0263347
-0.00221995 -0.0623799 0.0263347
-0.00221995 -0.0623799 0.0263347
-0.00221995 -0.0623799 0.0263347
-0.00221995 -0.0623799 0.0263347
0.00147397 -0.064845 0.0269778
0.00147397 -0.064845 0.0269778
0.00147397 -0.064845 0.0269778
0.00147397 -0.064845 0.0269778
-0.00221995 -0.0623799 0.0263347
-0.00221995 -0.0623799 0.0263347
-0.00221995 -0.0623799 0.0263347
-0.00221995 -0.0623799 0.0263347
-0.00221995 -0.0623799 0.0263347
0.00147397 -0.064845 0.0269778
0.00147397 -0.064845 0.0269778
0.00147397 -0.064845 0.0269778
0.00147397 -0.064845 0.0269778
-0.00221995 -0.0623799 0.0263347
-0.00221995 -0.0623799 0.0263347
-0.00221995 -0.0623799 0.0263347
-0.00221995 -0.0623799 0.0263347
-0.00221995 -0.0623799 0.0263347
0.00147397 -0.064845 0.0269778
0.00147397 -0.064845 0.0269778
0.00147397 -0.064845 0.0269778
0.00147397 -0.064845 0.0269778
-0.00221995 -0.0623799 0.0263347
-0.00221995 -0.0623799 0.0263347
-0.00221995 -0.0623799 0.0263347
-0.00221995 -0.0623799 0.0263347
-0.00221995 -0.0623799 0.0263347
0.00147397 -0.064845 0.0269778
0.00147397 -0.064845 0.0269778
0.00147397 -0.064845 0.0269778
0.00147397 -0.064845 0.0269778
-0.00221995 -0.0623799 0.0263347
-0.00221995 -0.0623799 0.0263347
-0.00221995 -0.0623799 0.0263347
-0.00221995 -0.0623799 0.0263347
-0.00221995 -0.0623799 0.0263347
0.00147397 -0.064845 0.0269778
0.00147397 -0.064845 0.0269778
0.00147397 -0.064845 0.0269778
0.00147397 -0.064845 0.0269778
-0.00221995 -0.0623799 0.0263347
-0.00221995 -0.0623799 0.0263347
-0.00221995 -0.0623799 0.0263347
-0.00221995 -0.0623799 0.0263347
-0.00221995 -0.0623799 0.0263347
0.00147397 -0.064845 0.0269778
0.00147397 -0.064845 0.0269778
0.00147397 -0.064845 0.0269778
0.00147397 -0.064845 0.0269778
-0.00221995 -0.0623799 0.0263347
-0.00221995 -0.0623799 0.0263347
-0.00221995 -0.0623799 0.0263347
-0.00221995 -0.0623799 0.0263347
-0.00221995 -0.0623799 0.0263347
0.00147397 -0.064845 0.0269778
0.00147397 -0.064845 0.0269778
0.00147397 -0.064845 0.0269778
0.00147397 -0.064845 0.0269778
-0.00221995 -0.0623799 0.0263347
-0.00221995 -0.0623799 0.0263347
-0.00221995 -0.0623799 0.0263347
-0.00221995 -0.0623799 0.0263347
-0.00221995 -0.0623799 0.0263347
0.00147397 -0.064845 0.0269778
0.00147397 -0.064845 0.0269778
0.00147397 -0.064845 0.0269778
0.00147397 -0.064845 0.0269778
-0.00221995 -0.0623799 0.0263347
-0.00221995 -0.0623799 0.0263347
-0.00221995 -0.0623799 0.0263347
-0.00221995 -0.0623799 0.0263347
-0.00221995 -0.0623799 0.0263347
0.00147397 -0.064845 0.0269778
0.00147397 -0.064845 0.0269778
0.00147397 -0.064845 0.0269778
0.00147397 -0.064845 0.0269778
-0.00221995 -0.0623799 0.0263347
-0.00221995 -0.0623799 0.0263347
-0.00221995 -0.0623799 0.0263347
-0.00221995 -0.0623799 0.0263347
-0.00221995 -0.0623799 0.0263347
0.00147397 -0.064845 0.0269778
0.00147397 -0.064845 0.0269778
0.00147397 -0.064845 0.0269778
0.00147397 -0.064845 0.0269778
-0.00221995 -0.0623799 0.0263347
-0.00221995 -0.0623799 0.0263347
-0.00221995 -0.0623799 0.0263347
-0.00221995 -0.0623799 0.0263347
-0.00221995 -0.0623799 0.0263347
0.00147397 -0.064845 0.0269778
0.00147397 -0.064845 0.0269778
0.00147397 -0.064845 0.0269778
0.00147397 -0.064845 0.0269778
-0.00221995 -0.0623799 0.0263347
-0.00221995 -0.0623799 0.0263347
-0.00221995 -0.0623799 0.0263347
-0.00221995 -0.0623799 0.0263347
-0.00221995 -0.0623799 0.0263347
0.00147397 -0.064845 0.0269778
0.00147397 -0.064845 0.0269778
0.00147397 -0.064845 0.0269778
0.00147397 -0.064845 0.0269778
-0.00221995 -0.0623799 0.0263347
-0.00221995 -0.0623799 0.0263347
-0.00221995 -0.0623799 0.0263347
-0.00221995 -0.0623799 0.0263347
-0.00221995 -0.0623799 0.0263347
0.00147397 -0.064845 0.0269778
0.00147397 -0.064845 0.0269778
0.00147397 -0.064845 0.0269778
0.00147397 -0.064845 0.0269778
-0.00221995 -0.0623799 0.0263347
-0.00221995 -0.0623799 0.0263347
-0.00221995 -0.0623799 0.0263347
-0.00221995 -0.0623799 0.0263347
-0.00221995 -0.0623799 0.0263347
0.00147397 -0.064845 0.0269778
0.00147397 -0.064845 0.0269778
0.00147397 -0.064845 0.0269778
0.00147397 -0.064845 0.0269778
-0.00221995 -0.0623799 0.0263347
-0.00221995 -0.0623799 0.0263347
-0.00221995 -0.0623799 0.0263347
-0.00221995 -0.0623799 0.0263347
-0.00221995 -0.0623799 0.0263347
0.00147397 -0.064845 0.0269778
0.00147397 -0.064845 0.0269778
0.00147397 -0.064845 0.0269778
0.00147397 -0.064845 0.0269778
-0.00221995 -0.0623799 0.0263347
-0.00221995 -0.0623799 0.0263347
-0.00221995 -0.0623799 0.0263347
-0.00221995 -0.0623799 0.0263347
-0.00221995 -0.0623799 0.0263347
0.00147397 -0.064845 0.0269778
0.00147397 -0.064845 0.0269778
0.00147397 -0.064845 0.0269778
0.00147397 -0.064845 0.0269778
-0.00221995 -0.0623799 0.0263347
-0.00221995 -0.0623799 0.0263347
-0.00221995 -0.0623799 0.0263347
-0.00221995 -0.0623799 0.0263347
-0.00221995 -0.0623799 0.0263347
0.00147397 -0.064845 0.0269778
0.00147397 -0.064845 0.0269778
0.00147397 -0.064845 0.0269778
0.00147397 -0.064845 0.0269778
-0.00221995 -0.0623799 0.0263347
-0.00221995 -0.0623799 0.0263347
-0.00221995 -0.0623799 0.0263347
-0.00221995 -0.0623799 0.0263347
-0.00221995 -0.0623799 0.0263347
0.000236599 -0.200216 0.0361544
0.000236599 -0.200216 0.0361544
0.000236599 -0.200216 0.0361544
0.000236599 -0.200216 0.0361544
0.00023902 -0.197608 0.0359947
0.00023902 -0.197608 0.0359947
0.00023902 -0.197608 0.0359947
0.00023902 -0.197608 0.0359947
0.00023902 -0.197608 0.0359947
0.000236599 -0.200216 0.0361544
0.000236599 -0.200216 0.0361544
0.000236599 -0.200216 0.0361544
0.000236599 -0.200216 0.0361544
0.00023902 -0.197608 0.0359947
0.00023902 -0.197608 0.0359947
0.00023902 -0.197608 0.0359947
0.00023902 -0.197608 0.0359947
0.00023902 -0.197608 0.0359947
0.000236599 -0.200216 0.0361544
0.000236599 -0.200216 0.0361544
0.000236599 -0.200216 0.0361544
0.000236599 -0.200216 0.0361544
0.00023902 -0.197608 0.0359947
0.00023902 -0.197608 0.0359947
0.00023902 -0.197608 0.0359947
0.00023902 -0.197608 0.0359947
0.00023902 -0.197608 0.0359947
0.000236599 -0.200216 0.0361544
0.000236599 -0.200216 0.0361544
0.000236599 -0.200216 0.0361544
0.000236599 -0.200216 0.0361544
0.00023902 -0.197608 0.0359947
0.00023902 -0.197608 0.0359947
0.00023902 -0.197608 0.0359947
0.00023902 -0.197608 0.0359947
0.00023902 -0.197608 0.0359947
0.000236599 -0.200216 0.0361544
0.000236599 -0.200216 0.0361544
0.000236599 -0.200216 0.0361544
0.000236599 -0.200216 0.0361544
0.00023902 -0.197608 0.0359947
0.00023902 -0.197608 0.0359947
0.00023902 -0.197608 0.0359947
0.00023902 -0.197608 0.0359947
0.00023902 -0.197608 0.0359947
0.000236599 -0.200216 0.0361544
0.000236599 -0.200216 0.0361544
0.000236599 -0.200216 0.0361544
0.000236599 -0.200216 0.0361544
0.00023902 -0.197608 0.0359947
0.00023902 -0.197608 0.0359947
0.00023902 -0.197608 0.0359947
0.00023902 -0.197608 0.0359947
0.00023902 -0.197608 0.0359947
0.000236599 -0.200216 0.0361544
0.000236599 -0.200216 0.0361544
0.000236599 -0.200216 0.0361544
0.000236599 -0.200216 0.0361544
0.00023902 -0.197608 0.0359947
0.00023902 -0.197608 0.0359947
0.00023902 -0.197608 0.0359947
0.00023902 -0.197608 0.0359947
0.00023902 -0.197608 0.0359947
0.000236599 -0.200216 0.0361544
0.000236599 -0.200216 0.0361544
0.000236599 -0.200216 0.0361544
0.000236599 -0.200216 0.0361544
0.00023902 -0.197608 0.0359947
0.00023902 -0.197608 0.0359947
0.00023902 -0.197608 0.0359947
0.00023902 -0.197608 0.0359947
0.00023902 -0.197608 0.0359947
0.000236599 -0.200216 0.0361544
0.000236599 -0.200216 0.0361544
0.000236599 -0.200216 0.0361544
0.000236599 -0.200216 0.0361544
0.00023902 -0.197608 0.0359947
0.00023902 -0.197608 0.0359947
0.00023902 -0.197608 0.0359947
0.00023902 -0.197608 0.0359947
0.00023902 -0.197608 0.0359947
0.000236599 -0.200216 0.0361544
0.000236599 -0.200216 0.0361544
0.000236599 -0.200216 0.0361544
0.000236599 -0.200216 0.0361544
0.00023902 -0.197608 0.0359947
0.00023902 -0.197608 0.0359947
0.00023902 -0.197608 0.0359947
0.00023902 -0.197608 0.0359947
0.00023902 -0.197608 0.0359947
0.00147397 -0.064845 0.0269778
0.00147397 -0.064845 0.0269778
0.00147397 -0.064845 0.0269778
0.00147397 -0.064845 0.0269778
-0.00221995 -0.0623799 0.0263347
-0.00221995 -0.0623799 0.0263347
-0.00221995 -0.0623799 0.0263347
-0.00221995 -0.0623799 0.0263347
-0.00221995 -0.0623799 0.0263347
0.00147397 -0.064845 0.0269778
0.00147397 -0.064845 0.0269778
0.00147397 -0.064845 0.0269778
0.00147397 -0.064845 0.0269778
-0.00221995 -0.0623799 0.0263347
-0.00221995 -0.0623799 0.0263347
-0.00221995 -0.0623799 0.0263347
-0.00221995 -0.0623799 0.0263347
-0.00221995 -0.0623799 0.0263347
0.00147397 -0.064845 0.0269778
0.00147397 -0.064845 0.0269778
0.00147397 -0.064845 0.0269778
0.00147397 -0.064845 0.0269778
-0.00221995 -0.0623799 0.0263347
-0.00221995 -0.0623799 0.0263347
-0.00221995 -0.0623799 0.0263347
-0.00221995 -0.0623799 0.0263347
-0.00221995 -0.0623799 0.0263347
0.00147397 -0.064845 0.0269778
0.00147397 -0.064845 0.0269778
0.00147397 -0.064845 0.0269778
0.00147397 -0.064845 0.0269778
-0.00221995 -0.0623799 0.0263347
-0.00221995 -0.0623799 0.0263347
-0.00221995 -0.0623799 0.0263347
-0.00221995 -0.0623799 0.0263347
-0.00221995 -0.0623799 0.0263347
0.00147397 -0.064845 0.0269778
0.00147397 -0.064845 0.0269778
0.00147397 -0.064845 0.0269778
0.00147397 -0.064845 0.0269778
-0.00221995 -0.0623799 0.0263347
-0.00221995 -0.0623799 0.0263347
-0.00221995 -0.0623799 0.0263347
-0.00221995 -0.0623799 0.0263347
-0.00221995 -0.0623799 0.0263347
0.00147397 -0.064845 0.0269778
0.00147397 -0.064845 0.0269778
0.00147397 -0.064845 0.0269778
0.00147397 -0.064845 0.0269778
-0.00221995 -0.0623799 0.0263347
-0.00221995 -0.0623799 0.0263347
-0.00221995 -0.0623799 0.0263347
-0.00221995 -0.0623799 0.0263347
-0.00221995 -0.0623799 0.0263347
0.00147397 -0.064845 0.0269778
0.00147397 -0.064845 0.0269778
0.00147397 -0.064845 0.0269778
0.00147397 -0.064845 0.0269778
-0.00221995 -0.0623799 0.0263347
-0.00221995 -0.0623799 0.0263347
-0.00221995 -0.0623799 0.0263347
-0.00221995 -0.0623799 0.0263347
-0.00221995 -0.0623799 0.0263347
0.00147397 -0.064845 0.0269778
0.00147397 -0.064845 0.0269778
0.00147397 -0.064845 0.0269778
0.00147397 -0.064845 0.0269778
-0.00221995 -0.0623799 0.0263347
-0.00221995 -0.0623799 0.0263347
-0.00221995 -0.0623799 0.0263347
-0.00221995 -0.0623799 0.0263347
-0.00221995 -0.0623799 0.0263347
0.00147397 -0.064845 0.0269778
0.00147397 -0.064845 0.0269778
0.00147397 -0.064845 0.0269778
0.00147397 -0.064845 0.0269778
-0.00221995 -0.0623799 0.0263347
-0.00221995 -0.0623799 0.0263347
-0.00221995 -0.0623799 0.0263347
-0.00221995 -0.0623799 0.0263347
-0.00221995 -0.0623799 0.0263347
0.00147397 -0.064845 0.0269778
0.00147397 -0.064845 0.0269778
0.00147397 -0.064845 0.0269778
0.00147397 -0.064845 0.0269778
-0.00221995 -0.0623799 0.0263347
-0.00221995 -0.0623799 0.0263347
-0.00221995 -0.0623799 0.0263347
-0.00221995 -0.0623799 0.0263347
-0.00221995 -0.0623799 0.0263347
0.00147397 -0.064845 0.0269778
0.00147397 -0.064845 0.0269778
0.00147397 -0.064845 0.0269778
0.00147397 -0.064845 0.0269778
-0.00221995 -0.0623799 0.0263347
-0.00221995 -0.0623799 0.0263347
-0.00221995 -0.0623799 0.0263347
-0.00221995 -0.0623799 0.0263347
-0.00221995 -0.0623799 0.0263347
0.00147397 -0.064845 0.0269778
0.00147397 -0.064845 0.0269778
0.00147397 -0.064845 0.0269778
0.00147397 -0.064845 0.0269778
-0.00221995 -0.0623799 0.0263347
-0.00221995 -0.0623799 0.0263347
-0.00221995 -0.0623799 0.0263347
-0.00221995 -0.0623799 0.0263347
-0.00221995 -0.0623799 0.0263347
0.00147397 -0.064845 0.0269778
0.00147397 -0.064845 0.0269778
0.00147397 -0.064845 0.0269778
0.00147397 -0.064845 0.0269778
-0.00221995 -0.0623799 0.0263347
-0.00221995 -0.0623799 0.0263347
-0.00221995 -0.0623799 0.0263347
-0.00221995 -0.0623799 0.0263347
-0.00221995 -0.0623799 0.0263347
0.00147397 -0.064845 0.0269778
0.00147397 -0.064845 0.0269778
0.00147397 -0.064845 0.0269778
0.00147397 -0.064845 0.0269778
-0.00221995 -0.0623799 0.0263347
-0.00221995 -0.0623799 0.0263347
-0.00221995 -0.0623799 0.0263347
-0.00221995 -0.0623799 0.0263347
-0.00221995 -0.0623799 0.0263347
0.00147397 -0.064845 0.0269778
0.00147397 -0.064845 0.0269778
0.00147397 -0.064845 0.0269778
0.00147397 -0.064845 0.0269778
-0.00221995 -0.0623799 0.0263347
-0.00221995 -0.0623799 0.0263347
-0.00221995 -0.0623799 0.0263347
-0.00221995 -0.0623799 0.0263347
-0.00221995 -0.0623799 0.0263347
0.00147397 -0.064845 0.0269778
0.00147397 -0.064845 0.0269778
0.00147397 -0.064845 0.0269778
0.00147397 -0.064845 0.0269778
-0.00221995 -0.0623799 0.0263347
-0.00221995 -0.0623799 0.0263347
-0.00221995 -0.0623799 0.0263347
-0.00221995 -0.0623799 0.0263347
-0.00221995 -0.0623799 0.0263347
0.00147397 -0.064845 0.0269778
0.00147397 -0.064845 0.0269778
0.00147397 -0.064845 0.0269778
0.00147397 -0.064845 0.0269778
-0.00221995 -0.0623799 0.0263347
-0.00221995 -0.0623799 0.0263347
-0.00221995 -0.0623799 0.0263347
-0.00221995 -0.0623799 0.0263347
-0.00221995 -0.0623799 0.0263347
0.00147397 -0.064845 0.0269778
0.00147397 -0.064845 0.0269778
0.00147397 -0.064845 0.0269778
0.00147397 -0.064845 0.0269778
-0.00221995 -0.0623799 0.0263347
-0.00221995 -0.0623799 0.0263347
-0.00221995 -0.0623799 0.0263347
-0.00221995 -0.0623799 0.0263347
-0.00221995 -0.0623799 0.0263347
0.00147397 -0.064845 0.0269778
0.00147397 -0.064845 0.0269778
0.00147397 -0.064845 0.0269778
0.00147397 -0.064845 0.0269778
-0.00221995 -0.0623799 0.0263347
-0.00221995 -0.0623799 0.0263347
-0.00221995 -0.0623799 0.0263347
-0.00221995 -0.0623799 0.0263347
-0.00221995 -0.0623799 0.0263347
0.000236599 -0.200216 0.0361544
0.000236599 -0.200216 0.0361544
0.000236599 -0.200216 0.0361544
0.000236599 -0.200216 0.0361544
0.00023902 -0.197608 0.0359947
0.00023902 -0.197608 0.0359947
0.00023902 -0.197608 0.0359947
0.00023902 -0.197608 0.0359947
0.00023902 -0.197608 0.0359947
0.000236599 -0.200216 0.0361544
0.000236599 -0.200216 0.0361544
0.000236599 -0.200216 0.0361544
0.000236599 -0.200216 0.0361544
0.00023902 -0.197608 0.0359947
0.00023902 -0.197608 0.0359947
0.00023902 -0.197608 0.0359947
0.00023902 -0.197608 0.0359947
0.00023902 -0.197608 0.0359947
0.000236599 -0.200216 0.0361544
0.000236599 -0.200216 0.0361544
0.000236599 -0.200216 0.0361544
0.000236599 -0.200216 0.0361544
0.00023902 -0.197608 0.0359947
0.00023902 -0.197608 0.0359947
0.00023902 -0.197608 0.0359947
0.00023902 -0.197608 0.0359947
0.00023902 -0.197608 0.0359947
0.000236599 -0.200216 0.0361544
0.000236599 -0.200216 0.0361544
0.000236599 -0.200216 0.0361544
0.000236599 -0.200216 0.0361544
0.00023902 -0.197608 0.0359947
0.00023902 -0.197608 0.0359947
0.00023902 -0.197608 0.0359947
0.00023902 -0.197608 0.0359947
0.00023902 -0.197608 0.0359947
0.000236599 -0.200216 0.0361544
0.000236599 -0.200216 0.0361544
0.000236599 -0.200216 0.0361544
0.000236599 -0.200216 0.0361544
0.00023902 -0.197608 0.0359947
0.00023902 -0.197608 0.0359947
0.00023902 -0.197608 0.0359947
0.00023902 -0.197608 0.0359947
0.00023902 -0.197608 0.0359947
0.000236599 -0.200216 0.0361544
0.000236599 -0.200216 0.0361544
0.000236599 -0.200216 0.0361544
0.000236599 -0.200216 0.0361544
0.00023902 -0.197608 0.0359947
0.00023902 -0.197608 0.0359947
0.00023902 -0.197608 0.0359947
0.00023902 -0.197608 0.0359947
0.00023902 -0.197608 0.0359947
0.000236599 -0.200216 0.0361544
0.000236599 -0.200216 0.0361544
0.000236599 -0.200216 0.0361544
0.000236599 -0.200216 0.0361544
0.00023902 -0.197608 0.0359947
0.00023902 -0.197608 0.0359947
0.00023902 -0.197608 0.0359947
0.00023902 -0.197608 0.0359947
0.00023902 -0.197608 0.0359947
0.000236599 -0.200216 0.0361544
0.000236599 -0.200216 0.0361544
0.000236599 -0.200216 0.0361544
0.000236599 -0.200216 0.0361544
0.00023902 -0.197608 0.0359947
0.00023902 -0.197608 0.0359947
0.00023902 -0.197608 0.0359947
0.00023902 -0.197608 0.0359947
0.00023902 -0.197608 0.0359947
0.000236599 -0.200216 0.0361544
0.000236599 -0.200216 0.0361544
0.000236599 -0.200216 0.0361544
0.000236599 -0.200216 0.0361544
0.00023902 -0.197608 0.0359947
0.00023902 -0.197608 0.0359947
0.00023902 -0.197608 0.0359947
0.00023902 -0.197608 0.0359947
0.00023902 -0.197608 0.0359947
0.000236599 -0.200216 0.0361544
0.000236599 -0.200216 0.0361544
0.000236599 -0.200216 0.0361544
0.000236599 -0.200216 0.0361544
0.00023902 -0.197608 0.0359947
0.00023902 -0.197608 0.0359947
0.00023902 -0.197608 0.0359947
0.00023902 -0.197608 0.0359947
0.00023902 -0.197608 0.0359947
0.00147397 -0.064845 0.0269778
0.00147397 -0.064845 0.0269778
0.00147397 -0.064845 0.0269778
0.00147397 -0.064845 0.0269778
-0.00221995 -0.0623799 0.0263347
-0.00221995 -0.0623799 0.0263347
-0.00221995 -0.0623799 0.0263347
-0.00221995 -0.0623799 0.0263347
-0.00221995 -0.0623799 0.0263347
0.00147397 -0.064845 0.0269778
0.00147397 -0.064845 0.0269778
0.00147397 -0.064845 0.0269778
0.00147397 -0.064845 0.0269778
-0.00221995 -0.0623799 0.0263347
-0.00221995 -0.0623799 0.0263347
-0.00221995 -0.0623799 0.0263347
-0.00221995 -0.0623799 0.0263347
-0.00221995 -0.0623799 0.0263347
0.00147397 -0.064845 0.0269778
0.00147397 -0.064845 0.0269778
0.00147397 -0.064845 0.0269778
0.00147397 -0.064845 0.0269778
-0.00221995 -0.0623799 0.0263347
-0.00221995 -0.0623799 0.0263347
-0.00221995 -0.0623799 0.0263347
-0.00221995 -0.0623799 0.0263347
-0.00221995 -0.0623799 0.0263347
0.00147397 -0.064845 0.0269778
0.00147397 -0.064845 0.0269778
0.00147397 -0.064845 0.0269778
0.00147397 -0.064845 0.0269778
-0.00221995 -0.0623799 0.0263347
-0.00221995 -0.0623799 0.0263347
-0.00221995 -0.0623799 0.0263347
-0.00221995 -0.0623799 0.0263347
-0.00221995 -0.0623799 0.0263347
0.00147397 -0.064845 0.0269778
0.00147397 -0.064845 0.0269778
0.00147397 -0.064845 0.0269778
0.00147397 -0.064845 0.0269778
-0.00221995 -0.0623799 0.0263347
-0.00221995 -0.0623799 0.0263347
-0.00221995 -0.0623799 0.0263347
-0.00221995 -0.0623799 0.0263347
-0.00221995 -0.0623799 0.0263347
0.00147397 -0.064845 0.0269778
0.00147397 -0.064845 0.0269778
0.00147397 -0.064845 0.0269778
0.00147397 -0.064845 0.0269778
-0.00221995 -0.0623799 0.0263347
-0.00221995 -0.0623799 0.0263347
-0.00221995 -0.0623799 0.0263347
-0.00221995 -0.0623799 0.0263347
-0.00221995 -0.0623799 0.0263347
0.00147397 -0.064845 0.0269778
0.00147397 -0.064845 0.0269778
0.00147397 -0.064845 0.0269778
0.00147397 -0.064845 0.0269778
-0.00221995 -0.0623799 0.0263347
-0.00221995 -0.0623799 0.0263347
-0.00221995 -0.0623799 0.0263347
-0.00221995 -0.0623799 0.0263347
-0.00221995 -0.0623799 0.0263347
0.00147397 -0.064845 0.0269778
0.00147397 -0.064845 0.0269778
0.00147397 -0.064845 0.0269778
0.00147397 -0.064845 0.0269778
-0.00221995 -0.0623799 0.0263347
-0.00221995 -0.0623799 0.0263347
-0.00221995 -0.0623799 0.0263347
-0.00221995 -0.0623799 0.0263347
-0.00221995 -0.0623799 0.0263347
0.00147397 -0.064845 0.0269778
0.00147397 -0.064845 0.0269778
0.00147397 -0.064845 0.0269778
0.00147397 -0.064845 0.0269778
-0.00221995 -0.0623799 0.0263347
-0.00221995 -0.0623799 0.0263347
-0.00221995 -0.0623799 0.0263347
-0.00221995 -0.0623799 0.0263347
-0.00221995 -0.0623799 0.0263347
0.00147397 -0.064845 0.0269778
0.00147397 -0.064845 0.0269778
0.00147397 -0.064845 0.0269778
0.00147397 -0.064845 0.0269778
-0.00221995 -0.0623799 0.0263347
-0.00221995 -0.0623799 0.0263347
-0.00221995 -0.0623799 0.0263347
-0.00221995 -0.0623799 0.0263347
-0.00221995 -0.0623799 0.0263347
0.00147397 -0.064845 0.0269778
0.00147397 -0.064845 0.0269778
0.00147397 -0.064845 0.0269778
0.00147397 -0.064845 0.0269778
-0.00221995 -0.0623799 0.0263347
-0.00221995 -0.0623799 0.0263347
-0.00221995 -0.0623799 0.0263347
-0.00221995 -0.0623799 0.0263347
-0.00221995 -0.0623799 0.0263347
0.00147397 -0.064845 0.0269778
0.00147397 -0.064845 0.0269778
0.00147397 -0.064845 0.0269778
0.00147397 -0.064845 0.0269778
-0.00221995 -0.0623799 0.0263347
-0.00221995 -0.0623799 0.0263347
-0.00221995 -0.0623799 0.0263347
-0.00221995 -0.0623799 0.0263347
-0.00221995 -0.0623799 0.0263347
0.00147397 -0.064845 0.0269778
0.00147397 -0.064845 0.0269778
0.00147397 -0.064845 0.0269778
0.00147397 -0.064845 0.0269778
-0.00221995 -0.0623799 0.0263347
-0.00221995 -0.0623799 0.0263347
-0.00221995 -0.0623799 0.0263347
-0.00221995 -0.0623799 0.0263347
-0.00221995 -0.0623799 0.0263347
0.00147397 -0.064845 0.0269778
0.00147397 -0.064845 0.0269778
0.00147397 -0.064845 0.0269778
0.00147397 -0.064845 0.0269778
-0.00221995 -0.0623799 0.0263347
-0.00221995 -0.0623799 0.0263347
-0.00221995 -0.0623799 0.0263347
-0.00221995 -0.0623799 0.0263347
-0.00221995 -0.0623799 0.0263347
0.00147397 -0.064845 0.0269778
0.00147397 -0.064845 0.0269778
0.00147397 -0.064845 0.0269778
0.00147397 -0.064845 0.0269778
-0.00221995 -0.0623799 0.0263347
-0.00221995 -0.0623799 0.0263347
-0.00221995 -0.0623799 0.0263347
-0.00221995 -0.0623799 0.0263347
-0.00221995 -0.0623799 0.0263347
0.00147397 -0.064845 0.0269778
0.00147397 -0.064845 0.0269778
0.00147397 -0.064845 0.0269778
0.00147397 -0.064845 0.0269778
-0.00221995 -0.0623799 0.0263347
-0.00221995 -0.0623799 0.0263347
-0.00221995 -0.0623799 0.0263347
-0.00221995 -0.0623799 0.0263347
-0.00221995 -0.0623799 0.0263347
0.00147397 -0.064845 0.0269778
0.00147397 -0.064845 0.0269778
0.00147397 -0.064845 0.0269778
0.00147397 -0.064845 0.0269778
-0.00221995 -0.0623799 0.0263347
-0.00221995 -0.0623799 0.0263347
-0.00221995 -0.0623799 0.0263347
-0.00221995 -0.0623799 0.0263347
-0.00221995 -0.0623799 0.0263347
0.00147397 -0.064845 0.0269778
0.00147397 -0.064845 0.0269778
0.00147397 -0.064845 0.0269778
0.00147397 -0.064845 0.0269778
-0.00221995 -0.0623799 0.0263347
-0.00221995 -0.0623799 0.0263347
-0.00221995 -0.0623799 0.0263347
-0.00221995 -0.0623799 0.0263347
-0.00221995 -0.0623799 0.0263347
0.00147397 -0.064845 0.0269778
0.00147397 -0.064845 0.0269778
0.00147397 -0.064845 0.0269778
0.00147397 -0.064845 0.0269778
-0.00221995 -0.0623799 0.0263347
-0.00221995 -0.0623799 0.0263347
-0.00221995 -0.0623799 0.0263347
-0.00221995 -0.0623799 0.0263347
-0.00221995 -0.0623799 0.0263347
0.000236599 -0.200216 0.0361544
0.000236599 -0.200216 0.0361544
0.000236599 -0.200216 0.0361544
0.000236599 -0.200216 0.0361544
0.00023902 -0.197608 0.0359947
0.00023902 -0.197608 0.0359947
0.00023902 -0.197608 0.0359947
0.00023902 -0.197608 0.0359947
0.00023902 -0.197608 0.0359947
0.000236599 -0.200216 0.0361544
0.000236599 -0.200216 0.0361544
0.000236599 -0.200216 0.0361544
0.000236599 -0.200216 0.0361544
0.00023902 -0.197608 0.0359947
0.00023902 -0.197608 0.0359947
0.00023902 -0.197608 0.0359947
0.00023902 -0.197608 0.0359947
0.00023902 -0.197608 0.0359947
0.000236599 -0.200216 0.0361544
0.000236599 -0.200216 0.0361544
0.000236599 -0.200216 0.0361544
0.000236599 -0.200216 0.0361544
0.00023902 -0.197608 0.0359947
0.00023902 -0.197608 0.0359947
0.00023902 -0.197608 0.0359947
0.00023902 -0.197608 0.0359947
0.00023902 -0.197608 0.0359947
0.000236599 -0.200216 0.0361544
0.000236599 -0.200216 0.0361544
0.000236599 -0.200216 0.0361544
0.000236599 -0.200216 0.0361544
0.00023902 -0.197608 0.0359947
0.00023902 -0.197608 0.0359947
0.00023902 -0.197608 0.0359947
0.00023902 -0.197608 0.0359947
0.00023902 -0.197608 0.0359947
0.000236599 -0.200216 0.0361544
0.000236599 -0.200216 0.0361544
0.000236599 -0.200216 0.0361544
0.000236599 -0.200216 0.0361544
0.00023902 -0.197608 0.0359947
0.00023902 -0.197608 0.0359947
0.00023902 -0.197608 0.0359947
0.00023902 -0.197608 0.0359947
0.00023902 -0.197608 0.0359947
0.000236599 -0.200216 0.0361544
0.000236599 -0.200216 0.0361544
0.000236599 -0.200216 0.0361544
0.000236599 -0.200216 0.0361544
0.00023902 -0.197608 0.0359947
0.00023902 -0.197608 0.0359947
0.00023902 -0.197608 0.0359947
0.00023902 -0.197608 0.0359947
0.00023902 -0.197608 0.0359947
0.000236599 -0.200216 0.0361544
0.000236599 -0.200216 0.0361544
0.000236599 -0.200216 0.0361544
0.000236599 -0.200216 0.0361544
0.00023902 -0.197608 0.0359947
0.00023902 -0.197608 0.0359947
0.00023902 -0.197608 0.0359947
0.00023902 -0.197608 0.0359947
0.00023902 -0.197608 0.0359947
0.000236599 -0.200216 0.0361544
0.000236599 -0.200216 0.0361544
0.000236599 -0.200216 0.0361544
0.000236599 -0.200216 0.0361544
0.00023902 -0.197608 0.0359947
0.00023902 -0.197608 0.0359947
0.00023902 -0.197608 0.0359947
0.00023902 -0.197608 0.0359947
0.00023902 -0.197608 0.0359947
0.000236599 -0.200216 0.0361544
0.000236599 -0.200216 0.0361544
0.000236599 -0.200216 0.0361544
0.000236599 -0.200216 0.0361544
0.00023902 -0.197608 0.0359947
0.00023902 -0.197608 0.0359947
0.00023902 -0.197608 0.0359947
0.00023902 -0.197608 0.0359947
0.00023902 -0.197608 0.0359947
0.000236599 -0.200216 0.0361544
0.000236599 -0.200216 0.0361544
0.000236599 -0.200216 0.0361544
0.000236599 -0.200216 0.0361544
0.00023902 -0.197608 0.0359947
0.00023902 -0.197608 0.0359947
0.00023902 -0.197608 0.0359947
0.00023902 -0.197608 0.0359947
0.00023902 -0.197608 0.0359947
0.00147397 -0.064845 0.0269778
0.00147397 -0.064845 0.0269778
0.00147397 -0.064845 0.0269778
0.00147397 -0.064845 0.0269778
-0.00221995 -0.0623799 0.0263347
-0.00221995 -0.0623799 0.0263347
-0.00221995 -0.0623799 0.0263347
-0.00221995 -0.0623799 0.0263347
-0.00221995 -0.0623799 0.0263347
0.00147397 -0.064845 0.0269778
0.00147397 -0.064845 0.0269778
0.00147397 -0.064845 0.0269778
0.00147397 -0.064845 0.0269778
-0.00221995 -0.0623799 0.0263347
-0.00221995 -0.0623799 0.0263347
-0.00221995 -0.0623799 0.0263347
-0.00221995 -0.0623799 0.0263347
-0.00221995 -0.0623799 0.0263347
0.00147397 -0.064845 0.0269778
0.00147397 -0.064845 0.0269778
0.00147397 -0.064845 0.0269778
0.00147397 -0.064845 0.0269778
-0.00221995 -0.0623799 0.0263347
-0.00221995 -0.0623799 0.0263347
-0.00221995 -0.0623799 0.0263347
-0.00221995 -0.0623799 0.0263347
-0.00221995 -0.0623799 0.0263347
0.00147397 -0.064845 0.0269778
0.00147397 -0.064845 0.0269778
0.00147397 -0.064845 0.0269778
0.00147397 -0.064845 0.0269778
-0.00221995 -0.0623799 0.0263347
-0.00221995 -0.0623799 0.0263347
-0.00221995 -0.0623799 0.0263347
-0.00221995 -0.0623799 0.0263347
-0.00221995 -0.0623799 0.0263347
0.00147397 -0.064845 0.0269778
0.00147397 -0.064845 0.0269778
0.00147397 -0.064845 0.0269778
0.00147397 -0.064845 0.0269778
-0.00221995 -0.0623799 0.0263347
-0.00221995 -0.0623799 0.0263347
-0.00221995 -0.0623799 0.0263347
-0.00221995 -0.0623799 0.0263347
-0.00221995 -0.0623799 0.0263347
0.00147397 -0.064845 0.0269778
0.00147397 -0.064845 0.0269778
0.00147397 -0.064845 0.0269778
0.00147397 -0.064845 0.0269778
-0.00221995 -0.0623799 0.0263347
-0.00221995 -0.0623799 0.0263347
-0.00221995 -0.0623799 0.0263347
-0.00221995 -0.0623799 0.0263347
-0.00221995 -0.0623799 0.0263347
0.00147397 -0.064845 0.0269778
0.00147397 -0.064845 0.0269778
0.00147397 -0.064845 0.0269778
0.00147397 -0.064845 0.0269778
-0.00221995 -0.0623799 0.0263347
-0.00221995 -0.0623799 0.0263347
-0.00221995 -0.0623799 0.0263347
-0.00221995 -0.0623799 0.0263347
-0.00221995 -0.0623799 0.0263347
0.00147397 -0.064845 0.0269778
0.00147397 -0.064845 0.0269778
0.00147397 -0.064845 0.0269778
0.00147397 -0.064845 0.0269778
-0.00221995 -0.0623799 0.0263347
-0.00221995 -0.0623799 0.0263347
-0.00221995 -0.0623799 0.0263347
-0.00221995 -0.0623799 0.0263347
-0.00221995 -0.0623799 0.0263347
0.00147397 -0.064845 0.0269778
0.00147397 -0.064845 0.0269778
0.00147397 -0.064845 0.0269778
0.00147397 -0.064845 0.0269778
-0.00221995 -0.0623799 0.0263347
-0.00221995 -0.0623799 0.0263347
-0.00221995 -0.0623799 0.0263347
-0.00221995 -0.0623799 0.0263347
-0.00221995 -0.0623799 0.0263347
0.00147397 -0.064845 0.0269778
0.00147397 -0.064845 0.0269778
0.00147397 -0.064845 0.0269778
0.00147397 -0.064845 0.0269778
-0.00221995 -0.0623799 0.0263347
-0.00221995 -0.0623799 0.0263347
-0.00221995 -0.0623799 0.0263347
-0.00221995 -0.0623799 0.0263347
-0.00221995 -0.0623799 0.0263347
0.00147397 -0.064845 0.0269778
0.00147397 -0.064845 0.0269778
0.00147397 -0.064845 0.0269778
0.00147397 -0.064845 0.0269778
-0.00221995 -0.0623799 0.0263347
-0.00221995 -0.0623799 0.0263347
-0.00221995 -0.0623799 0.0263347
-0.00221995 -0.0623799 0.0263347
-0.00221995 -0.0623799 0.0263347
0.00147397 -0.064845 0.0269778
0.00147397 -0.064845 0.0269778
0.00147397 -0.064845 0.0269778
0.00147397 -0.064845 0.0269778
-0.00221995 -0.0623799 0.0263347
-0.00221995 -0.0623799 0.0263347
-0.00221995 -0.0623799 0.0263347
-0.00221995 -0.0623799 0.0263347
-0.00221995 -0.0623799 0.0263347
0.00147397 -0.064845 0.0269778
0.00147397 -0.064845 0.0269778
0.00147397 -0.064845 0.0269778
0.00147397 -0.064845 0.0269778
-0.00221995 -0.0623799 0.0263347
-0.00221995 -0.0623799 0.0263347
-0.00221995 -0.0623799 0.0263347
-0.00221995 -0.0623799 0.0263347
-0.00221995 -0.0623799 0.0263347
0.00147397 -0.064845 0.0269778
0.00147397 -0.064845 0.0269778
0.00147397 -0.064845 0.0269778
0.00147397 -0.064845 0.0269778
-0.00221995 -0.0623799 0.0263347
-0.00221995 -0.0623799 0.0263347
-0.00221995 -0.0623799 0.0263347
-0.00221995 -0.0623799 0.0263347
-0.00221995 -0.0623799 0.0263347
0.00147397 -0.064845 0.0269778
0.00147397 -0.064845 0.0269778
0.00147397 -0.064845 0.0269778
0.00147397 -0.064845 0.0269778
-0.00221995 -0.0623799 0.0263347
-0.00221995 -0.0623799 0.0263347
-0.00221995 -0.0623799 0.0263347
-0.00221995 -0.0623799 0.0263347
-0.00221995 -0.0623799 0.0263347
0.00147397 -0.064845 0.0269778
0.00147397 -0.064845 0.0269778
0.00147397 -0.064845 0.0269778
0.00147397 -0.064845 0.0269778
-0.00221995 -0.0623799 0.0263347
-0.00221995 -0.0623799 0.0263347
-0.00221995 -0.0623799 0.0263347
-0.00221995 -0.0623799 0.0263347
-0.00221995 -0.0623799 0.0263347
0.00147397 -0.064845 0.0269778
0.00147397 -0.064845 0.0269778
0.00147397 -0.064845 0.0269778
0.00147397 -0.064845 0.0269778
-0.00221995 -0.0623799 0.0263347
-0.00221995 -0.0623799 0.0263347
-0.00221995 -0.0623799 0.0263347
-0.00221995 -0.0623799 0.0263347
-0.00221995 -0.0623799 0.0263347
0.00147397 -0.064845 0.0269778
0.00147397 -0.064845 0.0269778
0.00147397 -0.064845 0.0269778
0.00147397 -0.064845 0.0269778
-0.00221995 -0.0623799 0.0263347
-0.00221995 -0.0623799 0.0263347
-0.00221995 -0.0623799 0.0263347
-0.00221995 -0.0623799 0.0263347
-0.00221995 -0.0623799 0.0263347
0.00147397 -0.064845 0.0269778
0.00147397 -0.064845 0.0269778
0.00147397 -0.064845 0.0269778
0.00147397 -0.064845 0.0269778
-0.00221995 -0.0623799 0.0263347
-0.00221995 -0.0623799 0.0263347
-0.00221995 -0.0623799 0.0263347
-0.00221995 -0.0623799 0.0263347
-0.00221995 -0.0623799 0.0263347
0.000236599 -0.200216 0.0361544
0.000236599 -0.200216 0.0361544
0.000236599 -0.200216 0.0361544
0.000236599 -0.200216 0.0361544
0.00023902 -0.197608 0.0359947
0.00023902 -0.197608 0.0359947
0.00023902 -0.197608 0.0359947
0.00023902 -0.197608 0.0359947
0.00023902 -0.197608 0.0359947
0.000236599 -0.200216 0.0361544
0.000236599 -0.200216 0.0361544
0.000236599 -0.200216 0.0361544
0.000236599 -0.200216 0.0361544
0.00023902 -0.197608 0.0359947
0.00023902 -0.197608 0.0359947
0.00023902 -0.197608 0.0359947
0.00023902 -0.197608 0.0359947
0.00023902 -0.197608 0.0359947
0.000236599 -0.200216 0.0361544
0.000236599 -0.200216 0.0361544
0.000236599 -0.200216 0.0361544
0.000236599 -0.200216 0.0361544
0.00023902 -0.197608 0.0359947
0.00023902 -0.197608 0.0359947
0.00023902 -0.197608 0.0359947
0.00023902 -0.197608 0.0359947
0.00023902 -0.197608 0.0359947
0.000236599 -0.200216 0.0361544
0.000236599 -0.200216 0.0361544
0.000236599 -0.200216 0.0361544
0.000236599 -0.200216 0.0361544
0.00023902 -0.197608 0.0359947
0.00023902 -0.197608 0.0359947
0.00023902 -0.197608 0.0359947
0.00023902 -0.197608 0.0359947
0.00023902 -0.197608 0.0359947
0.000236599 -0.200216 0.0361544
0.000236599 -0.200216 0.0361544
0.000236599 -0.200216 0.0361544
0.000236599 -0.200216 0.0361544
0.00023902 -0.197608 0.0359947
0.00023902 -0.197608 0.0359947
0.00023902 -0.197608 0.0359947
0.00023902 -0.197608 0.0359947
0.00023902 -0.197608 0.0359947
0.000236599 -0.200216 0.0361544
0.000236599 -0.200216 0.0361544
0.000236599 -0.200216 0.0361544
0.000236599 -0.200216 0.0361544
0.00023902 -0.197608 0.0359947
0.00023902 -0.197608 0.0359947
0.00023902 -0.197608 0.0359947
0.00023902 -0.197608 0.0359947
0.00023902 -0.197608 0.0359947
0.000236599 -0.200216 0.0361544
0.000236599 -0.200216 0.0361544
0.000236599 -0.200216 0.0361544
0.000236599 -0.200216 0.0361544
0.00023902 -0.197608 0.0359947
0.00023902 -0.197608 0.0359947
0.00023902 -0.197608 0.0359947
0.00023902 -0.197608 0.0359947
0.00023902 -0.197608 0.0359947
0.000236599 -0.200216 0.0361544
0.000236599 -0.200216 0.0361544
0.000236599 -0.200216 0.0361544
0.000236599 -0.200216 0.0361544
0.00023902 -0.197608 0.0359947
0.00023902 -0.197608 0.0359947
0.00023902 -0.197608 0.0359947
0.00023902 -0.197608 0.0359947
0.00023902 -0.197608 0.0359947
0.000236599 -0.200216 0.0361544
0.000236599 -0.200216 0.0361544
0.000236599 -0.200216 0.0361544
0.000236599 -0.200216 0.0361544
0.00023902 -0.197608 0.0359947
0.00023902 -0.197608 0.0359947
0.00023902 -0.197608 0.0359947
0.00023902 -0.197608 0.0359947
0.00023902 -0.197608 0.0359947
0.000236599 -0.200216 0.0361544
0.000236599 -0.200216 0.0361544
0.000236599 -0.200216 0.0361544
0.000236599 -0.200216 0.0361544
0.00023902 -0.197608 0.0359947
0.00023902 -0.197608 0.0359947
0.00023902 -0.197608 0.0359947
0.00023902 -0.197608 0.0359947
0.00023902 -0.197608 0.0359947
0.00427768 -6.26054E-13 -4.88123E-12
0.00427768 -6.26054E-13 -4.88123E-12
0.00427768 -6.26054E-13 -4.88123E-12
0.00427768 -6.26054E-13 -4.88123E-12
0.00427768 -6.26054E-13 -4.88123E-12
-6.05525E-13 -1.8371E-12 -4.9714E-12
-6.05525E-13 -1.8371E-12 -4.9714E-12
-6.05525E-13 -1.8371E-12 -4.9714E-12
-6.05525E-13 -1.8371E-12 -4.9714E-12
0.00427768 -6.26054E-13 -4.88123E-12
0.00427768 -6.26054E-13 -4.88123E-12
0.00427768 -6.26054E-13 -4.88123E-12
0.00427768 -6.26054E-13 -4.88123E-12
0.00427768 -6.26054E-13 -4.88123E-12
-6.05525E-13 -1.8371E-12 -4.9714E-12
-6.05525E-13 -1.8371E-12 -4.9714E-12
-6.05525E-13 -1.8371E-12 -4.9714E-12
-6.05525E-13 -1.8371E-12 -4.9714E-12
0.00427768 -6.26054E-13 -4.88123E-12
0.00427768 -6.26054E-13 -4.88123E-12
0.00427768 -6.26054E-13 -4.88123E-12
0.00427768 -6.26054E-13 -4.88123E-12
0.00427768 -6.26054E-13 -4.88123E-12
-6.05525E-13 -1.8371E-12 -4.9714E-12
-6.05525E-13 -1.8371E-12 -4.9714E-12
-6.05525E-13 -1.8371E-12 -4.9714E-12
-6.05525E-13 -1.8371E-12 -4.9714E-12
0.00427768 -6.26054E-13 -4.88123E-12
0.00427768 -6.26054E-13 -4.88123E-12
0.00427768 -6.26054E-13 -4.88123E-12
0.00427768 -6.26054E-13 -4.88123E-12
0.00427768 -6.26054E-13 -4.88123E-12
-6.05525E-13 -1.8371E-12 -4.9714E-12
-6.05525E-13 -1.8371E-12 -4.9714E-12
-6.05525E-13 -1.8371E-12 -4.9714E-12
-6.05525E-13 -1.8371E-12 -4.9714E-12
0.00427768 -6.26054E-13 -4.88123E-12
0.00427768 -6.26054E-13 -4.88123E-12
0.00427768 -6.26054E-13 -4.88123E-12
0.00427768 -6.26054E-13 -4.88123E-12
0.00427768 -6.26054E-13 -4.88123E-12
-6.05525E-13 -1.8371E-12 -4.9714E-12
-6.05525E-13 -1.8371E-12 -4.9714E-12
-6.05525E-13 -1.8371E-12 -4.9714E-12
-6.05525E-13 -1.8371E-12 -4.9714E-12
0.00427768 -6.26054E-13 -4.88123E-12
0.00427768 -6.26054E-13 -4.88123E-12
0.00427768 -6.26054E-13 -4.88123E-12
0.00427768 -6.26054E-13 -4.88123E-12
0.00427768 -6.26054E-13 -4.88123E-12
-6.05525E-13 -1.8371E-12 -4.9714E-12
-6.05525E-13 -1.8371E-12 -4.9714E-12
-6.05525E-13 -1.8371E-12 -4.9714E-12
-6.05525E-13 -1.8371E-12 -4.9714E-12
0.00427768 -6.26054E-13 -4.88123E-12
0.00427768 -6.26054E-13 -4.88123E-12
0.00427768 -6.26054E-13 -4.88123E-12
0.00427768 -6.26054E-13 -4.88123E-12
0.00427768 -6.26054E-13 -4.88123E-12
-6.05525E-13 -1.8371E-12 -4.9714E-12
-6.05525E-13 -1.8371E-12 -4.9714E-12
-6.05525E-13 -1.8371E-12 -4.9714E-12
-6.05525E-13 -1.8371E-12 -4.9714E-12
0.00427768 -6.26054E-13 -4.88123E-12
0.00427768 -6.26054E-13 -4.88123E-12
0.00427768 -6.26054E-13 -4.88123E-12
0.00427768 -6.26054E-13 -4.88123E-12
0.00427768 -6.26054E-13 -4.88123E-12
-6.05525E-13 -1.8371E-12 -4.9714E-12
-6.05525E-13 -1.8371E-12 -4.9714E-12
-6.05525E-13 -1.8371E-12 -4.9714E-12
-6.05525E-13 -1.8371E-12 -4.9714E-12
0.00427768 -6.26054E-13 -4.88123E-12
0.00427768 -6.26054E-13 -4.88123E-12
0.00427768 -6.26054E-13 -4.88123E-12
0.00427768 -6.26054E-13 -4.88123E-12
0.00427768 -6.26054E-13 -4.88123E-12
-6.05525E-13 -1.8371E-12 -4.9714E-12
-6.05525E-13 -1.8371E-12 -4.9714E-12
-6.05525E-13 -1.8371E-12 -4.9714E-12
-6.05525E-13 -1.8371E-12 -4.9714E-12
0.00427768 -6.26054E-13 -4.88123E-12
0.00427768 -6.26054E-13 -4.88123E-12
0.00427768 -6.26054E-13 -4.88123E-12
0.00427768 -6.26054E-13 -4.88123E-12
0.00427768 -6.26054E-13 -4.88123E-12
-6.05525E-13 -1.8371E-12 -4.9714E-12
-6.05525E-13 -1.8371E-12 -4.9714E-12
-6.05525E-13 -1.8371E-12 -4.9714E-12
-6.05525E-13 -1.8371E-12 -4.9714E-12
0.00427768 -6.26054E-13 -4.88123E-12
0.00427768 -6.26054E-13 -4.88123E-12
0.00427768 -6.26054E-13 -4.88123E-12
0.00427768 -6.26054E-13 -4.88123E-12
0.00427768 -6.26054E-13 -4.88123E-12
-6.05525E-13 -1.8371E-12 -4.9714E-12
-6.05525E-13 -1.8371E-12 -4.9714E-12
-6.05525E-13 -1.8371E-12 -4.9714E-12
-6.05525E-13 -1.8371E-12 -4.9714E-12
0.00427768 -6.26054E-13 -4.88123E-12
0.00427768 -6.26054E-13 -4.88123E-12
0.00427768 -6.26054E-13 -4.88123E-12
0.00427768 -6.26054E-13 -4.88123E-12
0.00427768 -6.26054E-13 -4.88123E-12
-6.05525E-13 -1.8371E-12 -4.9714E-12
-6.05525E-13 -1.8371E-12 -4.9714E-12
-6.05525E-13 -1.8371E-12 -4.9714E-12
-6.05525E-13 -1.8371E-12 -4.9714E-12
0.00427768 -6.26054E-13 -4.88123E-12
0.00427768 -6.26054E-13 -4.88123E-12
0.00427768 -6.26054E-13 -4.88123E-12
0.00427768 -6.26054E-13 -4.88123E-12
0.00427768 -6.26054E-13 -4.88123E-12
-6.05525E-13 -1.8371E-12 -4.9714E-12
-6.05525E-13 -1.8371E-12 -4.9714E-12
-6.05525E-13 -1.8371E-12 -4.9714E-12
-6.05525E-13 -1.8371E-12 -4.9714E-12
0.00427768 -6.26054E-13 -4.88123E-12
0.00427768 -6.26054E-13 -4.88123E-12
0.00427768 -6.26054E-13 -4.88123E-12
0.00427768 -6.26054E-13 -4.88123E-12
0.00427768 -6.26054E-13 -4.88123E-12
-6.05525E-13 -1.8371E-12 -4.9714E-12
-6.05525E-13 -1.8371E-12 -4.9714E-12
-6.05525E-13 -1.8371E-12 -4.9714E-12
-6.05525E-13 -1.8371E-12 -4.9714E-12
0.00427768 -6.26054E-13 -4.88123E-12
0.00427768 -6.26054E-13 -4.88123E-12
0.00427768 -6.26054E-13 -4.88123E-12
0.00427768 -6.26054E-13 -4.88123E-12
0.00427768 -6.26054E-13 -4.88123E-12
-6.05525E-13 -1.8371E-12 -4.9714E-12
-6.05525E-13 -1.8371E-12 -4.9714E-12
-6.05525E-13 -1.8371E-12 -4.9714E-12
-6.05525E-13 -1.8371E-12 -4.9714E-12
0.00427768 -6.26054E-13 -4.88123E-12
0.00427768 -6.26054E-13 -4.88123E-12
0.00427768 -6.26054E-13 -4.88123E-12
0.00427768 -6.26054E-13 -4.88123E-12
0.00427768 -6.26054E-13 -4.88123E-12
-6.05525E-13 -1.8371E-12 -4.9714E-12
-6.05525E-13 -1.8371E-12 -4.9714E-12
-6.05525E-13 -1.8371E-12 -4.9714E-12
-6.05525E-13 -1.8371E-12 -4.9714E-12
0.00427768 -6.26054E-13 -4.88123E-12
0.00427768 -6.26054E-13 -4.88123E-12
0.00427768 -6.26054E-13 -4.88123E-12
0.00427768 -6.26054E-13 -4.88123E-12
0.00427768 -6.26054E-13 -4.88123E-12
-6.05525E-13 -1.8371E-12 -4.9714E-12
-6.05525E-13 -1.8371E-12 -4.9714E-12
-6.05525E-13 -1.8371E-12 -4.9714E-12
-6.05525E-13 -1.8371E-12 -4.9714E-12
0.00427768 -6.26054E-13 -4.88123E-12
0.00427768 -6.26054E-13 -4.88123E-12
0.00427768 -6.26054E-13 -4.88123E-12
0.00427768 -6.26054E-13 -4.88123E-12
0.00427768 -6.26054E-13 -4.88123E-12
-6.05525E-13 -1.8371E-12 -4.9714E-12
-6.05525E-13 -1.8371E-12 -4.9714E-12
-6.05525E-13 -1.8371E-12 -4.9714E-12
-6.05525E-13 -1.8371E-12 -4.9714E-12
0.00427768 -6.26054E-13 -4.88123E-12
0.00427768 -6.26054E-13 -4.88123E-12
0.00427768 -6.26054E-13 -4.88123E-12
0.00427768 -6.26054E-13 -4.88123E-12
0.00427768 -6.26054E-13 -4.88123E-12
-6.05525E-13 -1.8371E-12 -4.9714E-12
-6.05525E-13 -1.8371E-12 -4.9714E-12
-6.05525E-13 -1.8371E-12 -4.9714E-12
-6.05525E-13 -1.8371E-12 -4.9714E-12
0.00427768 -6.26054E-13 -4.88123E-12
0.00427768 -6.26054E-13 -4.88123E-12
0.00427768 -6.26054E-13 -4.88123E-12
0.00427768 -6.26054E-13 -4.88123E-12
0.00427768 -6.26054E-13 -4.88123E-12
-6.05525E-13 -1.8371E-12 -4.9714E-12
-6.05525E-13 -1.8371E-12 -4.9714E-12
-6.05525E-13 -1.8371E-12 -4.9714E-12
-6.05525E-13 -1.8371E-12 -4.9714E-12
0.00427768 -6.26054E-13 -4.88123E-12
0.00427768 -6.26054E-13 -4.88123E-12
0.00427768 -6.26054E-13 -4.88123E-12
0.00427768 -6.26054E-13 -4.88123E-12
0.00427768 -6.26054E-13 -4.88123E-12
-6.05525E-13 -1.8371E-12 -4.9714E-12
-6.05525E-13 -1.8371E-12 -4.9714E-12
-6.05525E-13 -1.8371E-12 -4.9714E-12
-6.05525E-13 -1.8371E-12 -4.9714E-12
0.00427768 -6.26054E-13 -4.88123E-12
0.00427768 -6.26054E-13 -4.88123E-12
0.00427768 -6.26054E-13 -4.88123E-12
0.00427768 -6.26054E-13 -4.88123E-12
0.00427768 -6.26054E-13 -4.88123E-12
-6.05525E-13 -1.8371E-12 -4.9714E-12
-6.05525E-13 -1.8371E-12 -4.9714E-12
-6.05525E-13 -1.8371E-12 -4.9714E-12
-6.05525E-13 -1.8371E-12 -4.9714E-12
0.00427768 -6.26054E-13 -4.88123E-12
0.00427768 -6.26054E-13 -4.88123E-12
0.00427768 -6.26054E-13 -4.88123E-12
0.00427768 -6.26054E-13 -4.88123E-12
0.00427768 -6.26054E-13 -4.88123E-12
-6.05525E-13 -1.8371E-12 -4.9714E-12
-6.05525E-13 -1.8371E-12 -4.9714E-12
-6.05525E-13 -1.8371E-12 -4.9714E-12
-6.05525E-13 -1.8371E-12 -4.9714E-12
0.00427768 -6.26054E-13 -4.88123E-12
0.00427768 -6.26054E-13 -4.88123E-12
0.00427768 -6.26054E-13 -4.88123E-12
0.00427768 -6.26054E-13 -4.88123E-12
0.00427768 -6.26054E-13 -4.88123E-12
-6.05525E-13 -1.8371E-12 -4.9714E-12
-6.05525E-13 -1.8371E-12 -4.9714E-12
-6.05525E-13 -1.8371E-12 -4.9714E-12
-6.05525E-13 -1.8371E-12 -4.9714E-12
0.00427768 -6.26054E-13 -4.88123E-12
0.00427768 -6.26054E-13 -4.88123E-12
0.00427768 -6.26054E-13 -4.88123E-12
0.00427768 -6.26054E-13 -4.88123E-12
0.00427768 -6.26054E-13 -4.88123E-12
-6.05525E-13 -1.8371E-12 -4.9714E-12
-6.05525E-13 -1.8371E-12 -4.9714E-12
-6.05525E-13 -1.8371E-12 -4.9714E-12
-6.05525E-13 -1.8371E-12 -4.9714E-12
0.00427768 -6.26054E-13 -4.88123E-12
0.00427768 -6.26054E-13 -4.88123E-12
0.00427768 -6.26054E-13 -4.88123E-12
0.00427768 -6.26054E-13 -4.88123E-12
0.00427768 -6.26054E-13 -4.88123E-12
-6.05525E-13 -1.8371E-12 -4.9714E-12
-6.05525E-13 -1.8371E-12 -4.9714E-12
-6.05525E-13 -1.8371E-12 -4.9714E-12
-6.05525E-13 -1.8371E-12 -4.9714E-12
0.00427768 -6.26054E-13 -4.88123E-12
0.00427768 -6.26054E-13 -4.88123E-12
0.00427768 -6.26054E-13 -4.88123E-12
0.00427768 -6.26054E-13 -4.88123E-12
0.00427768 -6.26054E-13 -4.88123E-12
-6.05525E-13 -1.8371E-12 -4.9714E-12
-6.05525E-13 -1.8371E-12 -4.9714E-12
-6.05525E-13 -1.8371E-12 -4.9714E-12
-6.05525E-13 -1.8371E-12 -4.9714E-12
0.00427768 -6.26054E-13 -4.88123E-12
0.00427768 -6.26054E-13 -4.88123E-12
0.00427768 -6.26054E-13 -4.88123E-12
0.00427768 -6.26054E-13 -4.88123E-12
0.00427768 -6.26054E-13 -4.88123E-12
-6.05525E-13 -1.8371E-12 -4.9714E-12
-6.05525E-13 -1.8371E-12 -4.9714E-12
-6.05525E-13 -1.8371E-12 -4.9714E-12
-6.05525E-13 -1.8371E-12 -4.9714E-12
0.00427768 -6.26054E-13 -4.88123E-12
0.00427768 -6.26054E-13 -4.88123E-12
0.00427768 -6.26054E-13 -4.88123E-12
0.00427768 -6.26054E-13 -4.88123E-12
0.00427768 -6.26054E-13 -4.88123E-12
-6.05525E-13 -1.8371E-12 -4.9714E-12
-6.05525E-13 -1.8371E-12 -4.9714E-12
-6.05525E-13 -1.8371E-12 -4.9714E-12
-6.05525E-13 -1.8371E-12 -4.9714E-12
0.00427768 -6.26054E-13 -4.88123E-12
0.00427768 -6.26054E-13 -4.88123E-12
0.00427768 -6.26054E-13 -4.88123E-12
0.00427768 -6.26054E-13 -4.88123E-12
0.00427768 -6.26054E-13 -4.88123E-12
-6.05525E-13 -1.8371E-12 -4.9714E-12
-6.05525E-13 -1.8371E-12 -4.9714E-12
-6.05525E-13 -1.8371E-12 -4.9714E-12
-6.05525E-13 -1.8371E-12 -4.9714E-12
0.00427768 -6.26054E-13 -4.88123E-12
0.00427768 -6.26054E-13 -4.88123E-12
0.00427768 -6.26054E-13 -4.88123E-12
0.00427768 -6.26054E-13 -4.88123E-12
0.00427768 -6.26054E-13 -4.88123E-12
-6.05525E-13 -1.8371E-12 -4.9714E-12
-6.05525E-13 -1.8371E-12 -4.9714E-12
-6.05525E-13 -1.8371E-12 -4.9714E-12
-6.05525E-13 -1.8371E-12 -4.9714E-12
0.00427768 -6.26054E-13 -4.88123E-12
0.00427768 -6.26054E-13 -4.88123E-12
0.00427768 -6.26054E-13 -4.88123E-12
0.00427768 -6.26054E-13 -4.88123E-12
0.00427768 -6.26054E-13 -4.88123E-12
-6.05525E-13 -1.8371E-12 -4.9714E-12
-6.05525E-13 -1.8371E-12 -4.9714E-12
-6.05525E-13 -1.8371E-12 -4.9714E-12
-6.05525E-13 -1.8371E-12 -4.9714E-12
0.00427768 -6.26054E-13 -4.88123E-12
0.00427768 -6.26054E-13 -4.88123E-12
0.00427768 -6.26054E-13 -4.88123E-12
0.00427768 -6.26054E-13 -4.88123E-12
0.00427768 -6.26054E-13 -4.88123E-12
-6.05525E-13 -1.8371E-12 -4.9714E-12
-6.05525E-13 -1.8371E-12 -4.9714E-12
-6.05525E-13 -1.8371E-12 -4.9714E-12
-6.05525E-13 -1.8371E-12 -4.9714E-12
0.00427768 -6.26054E-13 -4.88123E-12
0.00427768 -6.26054E-13 -4.88123E-12
0.00427768 -6.26054E-13 -4.88123E-12
0.00427768 -6.26054E-13 -4.88123E-12
0.00427768 -6.26054E-13 -4.88123E-12
-6.05525E-13 -1.8371E-12 -4.9714E-12
-6.05525E-13 -1.8371E-12 -4.9714E-12
-6.05525E-13 -1.8371E-12 -4.9714E-12
-6.05525E-13 -1.8371E-12 -4.9714E-12
0.00427768 -6.26054E-13 -4.88123E-12
0.00427768 -6.26054E-13 -4.88123E-12
0.00427768 -6.26054E-13 -4.88123E-12
0.00427768 -6.26054E-13 -4.88123E-12
0.00427768 -6.26054E-13 -4.88123E-12
-6.05525E-13 -1.8371E-12 -4.9714E-12
-6.05525E-13 -1.8371E-12 -4.9714E-12
-6.05525E-13 -1.8371E-12 -4.9714E-12
-6.05525E-13 -1.8371E-12 -4.9714E-12
0.00427768 -6.26054E-13 -4.88123E-12
0.00427768 -6.26054E-13 -4.88123E-12
0.00427768 -6.26054E-13 -4.88123E-12
0.00427768 -6.26054E-13 -4.88123E-12
0.00427768 -6.26054E-13 -4.88123E-12
-6.05525E-13 -1.8371E-12 -4.9714E-12
-6.05525E-13 -1.8371E-12 -4.9714E-12
-6.05525E-13 -1.8371E-12 -4.9714E-12
-6.05525E-13 -1.8371E-12 -4.9714E-12
-0.00298721 -0.000241187 4.88123E-12
-0.00298721 -0.000241187 4.88123E-12
-0.00298721 -0.000241187 4.88123E-12
-0.00298721 -0.000241187 4.88123E-12
-0.00298721 -0.000241187 4.88123E-12
6.05525E-13 -0.003235 4.9714E-12
6.05525E-13 -0.003235 4.9714E-12
6.05525E-13 -0.003235 4.9714E-12
6.05525E-13 -0.003235 4.9714E-12
-0.00298721 -0.000241187 4.88123E-12
-0.00298721 -0.000241187 4.88123E-12
-0.00298721 -0.000241187 4.88123E-12
-0.00298721 -0.000241187 4.88123E-12
-0.00298721 -0.000241187 4.88123E-12
6.05525E-13 -0.003235 4.9714E-12
6.05525E-13 -0.003235 4.9714E-12
6.05525E-13 -0.003235 4.9714E-12
6.05525E-13 -0.003235 4.9714E-12
-0.00298721 -0.000241187 4.88123E-12
-0.00298721 -0.000241187 4.88123E-12
-0.00298721 -0.000241187 4.88123E-12
-0.00298721 -0.000241187 4.88123E-12
-0.00298721 -0.000241187 4.88123E-12
6.05525E-13 -0.003235 4.9714E-12
6.05525E-13 -0.003235 4.9714E-12
6.05525E-13 -0.003235 4.9714E-12
6.05525E-13 -0.003235 4.9714E-12
-0.00298721 -0.000241187 4.88123E-12
-0.00298721 -0.000241187 4.88123E-12
-0.00298721 -0.000241187 4.88123E-12
-0.00298721 -0.000241187 4.88123E-12
-0.00298721 -0.000241187 4.88123E-12
6.05525E-13 -0.003235 4.9714E-12
6.05525E-13 -0.003235 4.9714E-12
6.05525E-13 -0.003235 4.9714E-12
6.05525E-13 -0.003235 4.9714E-12
-0.00298721 -0.000241187 4.88123E-12
-0.00298721 -0.000241187 4.88123E-12
-0.00298721 -0.000241187 4.88123E-12
-0.00298721 -0.000241187 4.88123E-12
-0.00298721 -0.000241187 4.88123E-12
6.05525E-13 -0.003235 4.9714E-12
6.05525E-13 -0.003235 4.9714E-12
6.05525E-13 -0.003235 4.9714E-12
6.05525E-13 -0.003235 4.9714E-12
-0.00298721 -0.000241187 4.88123E-12
-0.00298721 -0.000241187 4.88123E-12
-0.00298721 -0.000241187 4.88123E-12
-0.00298721 -0.000241187 4.88123E-12
-0.00298721 -0.000241187 4.88123E-12
6.05525E-13 -0.003235 4.9714E-12
6.05525E-13 -0.003235 4.9714E-12
6.05525E-13 -0.003235 4.9714E-12
6.05525E-13 -0.003235 4.9714E-12
-0.00298721 -0.000241187 4.88123E-12
-0.00298721 -0.000241187 4.88123E-12
-0.00298721 -0.000241187 4.88123E-12
-0.00298721 -0.000241187 4.88123E-12
-0.00298721 -0.000241187 4.88123E-12
6.05525E-13 -0.003235 4.9714E-12
6.05525E-13 -0.003235 4.9714E-12
6.05525E-13 -0.003235 4.9714E-12
6.05525E-13 -0.003235 4.9714E-12
-0.00298721 -0.000241187 4.88123E-12
-0.00298721 -0.000241187 4.88123E-12
-0.00298721 -0.000241187 4.88123E-12
-0.00298721 -0.000241187 4.88123E-12
-0.00298721 -0.000241187 4.88123E-12
6.05525E-13 -0.003235 4.9714E-12
6.05525E-13 -0.003235 4.9714E-12
6.05525E-13 -0.003235 4.9714E-12
6.05525E-13 -0.003235 4.9714E-12
-0.00298721 -0.000241187 4.88123E-12
-0.00298721 -0.000241187 4.88123E-12
-0.00298721 -0.000241187 4.88123E-12
-0.00298721 -0.000241187 4.88123E-12
-0.00298721 -0.000241187 4.88123E-12
6.05525E-13 -0.003235 4.9714E-12
6.05525E-13 -0.003235 4.9714E-12
6.05525E-13 -0.003235 4.9714E-12
6.05525E-13 -0.003235 4.9714E-12
-0.00298721 -0.000241187 4.88123E-12
-0.00298721 -0.000241187 4.88123E-12
-0.00298721 -0.000241187 4.88123E-12
-0.00298721 -0.000241187 4.88123E-12
-0.00298721 -0.000241187 4.88123E-12
6.05525E-13 -0.003235 4.9714E-12
6.05525E-13 -0.003235 4.9714E-12
6.05525E-13 -0.003235 4.9714E-12
6.05525E-13 -0.003235 4.9714E-12
-0.00298721 -0.000241187 4.88123E-12
-0.00298721 -0.000241187 4.88123E-12
-0.00298721 -0.000241187 4.88123E-12
-0.00298721 -0.000241187 4.88123E-12
-0.00298721 -0.000241187 4.88123E-12
6.05525E-13 -0.003235 4.9714E-12
6.05525E-13 -0.003235 4.9714E-12
6.05525E-13 -0.003235 4.9714E-12
6.05525E-13 -0.003235 4.9714E-12
-0.00298721 -0.000241187 4.88123E-12
-0.00298721 -0.000241187 4.88123E-12
-0.00298721 -0.000241187 4.88123E-12
-0.00298721 -0.000241187 4.88123E-12
-0.00298721 -0.000241187 4.88123E-12
6.05525E-13 -0.003235 4.9714E-12
6.05525E-13 -0.003235 4.9714E-12
6.05525E-13 -0.003235 4.9714E-12
6.05525E-13 -0.003235 4.9714E-12
-0.00298721 -0.000241187 4.88123E-12
-0.00298721 -0.000241187 4.88123E-12
-0.00298721 -0.000241187 4.88123E-12
-0.00298721 -0.000241187 4.88123E-12
-0.00298721 -0.000241187 4.88123E-12
6.05525E-13 -0.003235 4.9714E-12
6.05525E-13 -0.003235 4.9714E-12
6.05525E-13 -0.003235 4.9714E-12
6.05525E-13 -0.003235 4.9714E-12
-0.00298721 -0.000241187 4.88123E-12
-0.00298721 -0.000241187 4.88123E-12
-0.00298721 -0.000241187 4.88123E-12
-0.00298721 -0.000241187 4.88123E-12
-0.00298721 -0.000241187 4.88123E-12
6.05525E-13 -0.003235 4.9714E-12
6.05525E-13 -0.003235 4.9714E-12
6.05525E-13 -0.003235 4.9714E-12
6.05525E-13 -0.003235 4.9714E-12
-0.00298721 -0.000241187 4.88123E-12
-0.00298721 -0.000241187 4.88123E-12
-0.00298721 -0.000241187 4.88123E-12
-0.00298721 -0.000241187 4.88123E-12
-0.00298721 -0.000241187 4.88123E-12
6.05525E-13 -0.003235 4.9714E-12
6.05525E-13 -0.003235 4.9714E-12
6.05525E-13 -0.003235 4.9714E-12
6.05525E-13 -0.003235 4.9714E-12
-0.00298721 -0.000241187 4.88123E-12
-0.00298721 -0.000241187 4.88123E-12
-0.00298721 -0.000241187 4.88123E-12
-0.00298721 -0.000241187 4.88123E-12
-0.00298721 -0.000241187 4.88123E-12
6.05525E-13 -0.003235 4.9714E-12
6.05525E-13 -0.003235 4.9714E-12
6.05525E-13 -0.003235 4.9714E-12
6.05525E-13 -0.003235 4.9714E-12
-0.00298721 -0.000241187 4.88123E-12
-0.00298721 -0.000241187 4.88123E-12
-0.00298721 -0.000241187 4.88123E-12
-0.00298721 -0.000241187 4.88123E-12
-0.00298721 -0.000241187 4.88123E-12
6.05525E-13 -0.003235 4.9714E-12
6.05525E-13 -0.003235 4.9714E-12
6.05525E-13 -0.003235 4.9714E-12
6.05525E-13 -0.003235 4.9714E-12
-0.00298721 -0.000241187 4.88123E-12
-0.00298721 -0.000241187 4.88123E-12
-0.00298721 -0.000241187 4.88123E-12
-0.00298721 -0.000241187 4.88123E-12
-0.00298721 -0.000241187 4.88123E-12
6.05525E-13 -0.003235 4.9714E-12
6.05525E-13 -0.003235 4.9714E-12
6.05525E-13 -0.003235 4.9714E-12
6.05525E-13 -0.003235 4.9714E-12
-0.00298721 -0.000241187 4.88123E-12
-0.00298721 -0.000241187 4.88123E-12
-0.00298721 -0.000241187 4.88123E-12
-0.00298721 -0.000241187 4.88123E-12
-0.00298721 -0.000241187 4.88123E-12
6.05525E-13 -0.003235 4.9714E-12
6.05525E-13 -0.003235 4.9714E-12
6.05525E-13 -0.003235 4.9714E-12
6.05525E-13 -0.003235 4.9714E-12
-0.00298721 -0.000241187 4.88123E-12
-0.00298721 -0.000241187 4.88123E-12
-0.00298721 -0.000241187 4.88123E-12
-0.00298721 -0.000241187 4.88123E-12
-0.00298721 -0.000241187 4.88123E-12
6.05525E-13 -0.003235 4.9714E-12
6.05525E-13 -0.003235 4.9714E-12
6.05525E-13 -0.003235 4.9714E-12
6.05525E-13 -0.003235 4.9714E-12
-0.00298721 -0.000241187 4.88123E-12
-0.00298721 -0.000241187 4.88123E-12
-0.00298721 -0.000241187 4.88123E-12
-0.00298721 -0.000241187 4.88123E-12
-0.00298721 -0.000241187 4.88123E-12
6.05525E-13 -0.003235 4.9714E-12
6.05525E-13 -0.003235 4.9714E-12
6.05525E-13 -0.003235 4.9714E-12
6.05525E-13 -0.003235 4.9714E-12
-0.00298721 -0.000241187 4.88123E-12
-0.00298721 -0.000241187 4.88123E-12
-0.00298721 -0.000241187 4.88123E-12
-0.00298721 -0.000241187 4.88123E-12
-0.00298721 -0.000241187 4.88123E-12
6.05525E-13 -0.003235 4.9714E-12
6.05525E-13 -0.003235 4.9714E-12
6.05525E-13 -0.003235 4.9714E-12
6.05525E-13 -0.003235 4.9714E-12
-0.00298721 -0.000241187 4.88123E-12
-0.00298721 -0.000241187 4.88123E-12
-0.00298721 -0.000241187 4.88123E-12
-0.00298721 -0.000241187 4.88123E-12
-0.00298721 -0.000241187 4.88123E-12
6.05525E-13 -0.003235 4.9714E-12
6.05525E-13 -0.003235 4.9714E-12
6.05525E-13 -0.003235 4.9714E-12
6.05525E-13 -0.003235 4.9714E-12
-0.00298721 -0.000241187 4.88123E-12
-0.00298721 -0.000241187 4.88123E-12
-0.00298721 -0.000241187 4.88123E-12
-0.00298721 -0.000241187 4.88123E-12
-0.00298721 -0.000241187 4.88123E-12
6.05525E-13 -0.003235 4.9714E-12
6.05525E-13 -0.003235 4.9714E-12
6.05525E-13 -0.003235 4.9714E-12
6.05525E-13 -0.003235 4.9714E-12
-0.00298721 -0.000241187 4.88123E-12
-0.00298721 -0.000241187 4.88123E-12
-0.00298721 -0.000241187 4.88123E-12
-0.00298721 -0.000241187 4.88123E-12
-0.00298721 -0.000241187 4.88123E-12
6.05525E-13 -0.003235 4.9714E-12
6.05525E-13 -0.003235 4.9714E-12
6.05525E-13 -0.003235 4.9714E-12
6.05525E-13 -0.003235 4.9714E-12
-0.00298721 -0.000241187 4.88123E-12
-0.00298721 -0.000241187 4.88123E-12
-0.00298721 -0.000241187 4.88123E-12
-0.00298721 -0.000241187 4.88123E-12
-0.00298721 -0.000241187 4.88123E-12
6.05525E-13 -0.003235 4.9714E-12
6.05525E-13 -0.003235 4.9714E-12
6.05525E-13 -0.003235 4.9714E-12
6.05525E-13 -0.003235 4.9714E-12
-0.00298721 -0.000241187 4.88123E-12
-0.00298721 -0.000241187 4.88123E-12
-0.00298721 -0.000241187 4.88123E-12
-0.00298721 -0.000241187 4.88123E-12
-0.00298721 -0.000241187 4.88123E-12
6.05525E-13 -0.003235 4.9714E-12
6.05525E-13 -0.003235 4.9714E-12
6.05525E-13 -0.003235 4.9714E-12
6.05525E-13 -0.003235 4.9714E-12
-0.00298721 -0.000241187 4.88123E-12
-0.00298721 -0.000241187 4.88123E-12
-0.00298721 -0.000241187 4.88123E-12
-0.00298721 -0.000241187 4.88123E-12
-0.00298721 -0.000241187 4.88123E-12
6.05525E-13 -0.003235 4.9714E-12
6.05525E-13 -0.003235 4.9714E-12
6.05525E-13 -0.003235 4.9714E-12
6.05525E-13 -0.003235 4.9714E-12
-0.00298721 -0.000241187 4.88123E-12
-0.00298721 -0.000241187 4.88123E-12
-0.00298721 -0.000241187 4.88123E-12
-0.00298721 -0.000241187 4.88123E-12
-0.00298721 -0.000241187 4.88123E-12
6.05525E-13 -0.003235 4.9714E-12
6.05525E-13 -0.003235 4.9714E-12
6.05525E-13 -0.003235 4.9714E-12
6.05525E-13 -0.003235 4.9714E-12
-0.00298721 -0.000241187 4.88123E-12
-0.00298721 -0.000241187 4.88123E-12
-0.00298721 -0.000241187 4.88123E-12
-0.00298721 -0.000241187 4.88123E-12
-0.00298721 -0.000241187 4.88123E-12
6.05525E-13 -0.003235 4.9714E-12
6.05525E-13 -0.003235 4.9714E-12
6.05525E-13 -0.003235 4.9714E-12
6.05525E-13 -0.003235 4.9714E-12
-0.00298721 -0.000241187 4.88123E-12
-0.00298721 -0.000241187 4.88123E-12
-0.00298721 -0.000241187 4.88123E-12
-0.00298721 -0.000241187 4.88123E-12
-0.00298721 -0.000241187 4.88123E-12
6.05525E-13 -0.003235 4.9714E-12
6.05525E-13 -0.003235 4.9714E-12
6.05525E-13 -0.003235 4.9714E-12
6.05525E-13 -0.003235 4.9714E-12
-0.00298721 -0.000241187 4.88123E-12
-0.00298721 -0.000241187 4.88123E-12
-0.00298721 -0.000241187 4.88123E-12
-0.00298721 -0.000241187 4.88123E-12
-0.00298721 -0.000241187 4.88123E-12
6.05525E-13 -0.003235 4.9714E-12
6.05525E-13 -0.003235 4.9714E-12
6.05525E-13 -0.003235 4.9714E-12
6.05525E-13 -0.003235 4.9714E-12
-0.00298721 -0.000241187 4.88123E-12
-0.00298721 -0.000241187 4.88123E-12
-0.00298721 -0.000241187 4.88123E-12
-0.00298721 -0.000241187 4.88123E-12
-0.00298721 -0.000241187 4.88123E-12
6.05525E-13 -0.003235 4.9714E-12
6.05525E-13 -0.003235 4.9714E-12
6.05525E-13 -0.003235 4.9714E-12
6.05525E-13 -0.003235 4.9714E-12
-0.00298721 -0.000241187 4.88123E-12
-0.00298721 -0.000241187 4.88123E-12
-0.00298721 -0.000241187 4.88123E-12
-0.00298721 -0.000241187 4.88123E-12
-0.00298721 -0.000241187 4.88123E-12
6.05525E-13 -0.003235 4.9714E-12
6.05525E-13 -0.003235 4.9714E-12
6.05525E-13 -0.003235 4.9714E-12
6.05525E-13 -0.003235 4.9714E-12
-0.00298721 -0.000241187 4.88123E-12
-0.00298721 -0.000241187 4.88123E-12
-0.00298721 -0.000241187 4.88123E-12
-0.00298721 -0.000241187 4.88123E-12
-0.00298721 -0.000241187 4.88123E-12
6.05525E-13 -0.003235 4.9714E-12
6.05525E-13 -0.003235 4.9714E-12
6.05525E-13 -0.003235 4.9714E-12
6.05525E-13 -0.003235 4.9714E-12
-0.00298721 -0.000241187 4.88123E-12
-0.00298721 -0.000241187 4.88123E-12
-0.00298721 -0.000241187 4.88123E-12
-0.00298721 -0.000241187 4.88123E-12
-0.00298721 -0.000241187 4.88123E-12
6.05525E-13 -0.003235 4.9714E-12
6.05525E-13 -0.003235 4.9714E-12
6.05525E-13 -0.003235 4.9714E-12
6.05525E-13 -0.003235 4.9714E-12
-0.00298721 -0.000241187 4.88123E-12
-0.00298721 -0.000241187 4.88123E-12
-0.00298721 -0.000241187 4.88123E-12
-0.00298721 -0.000241187 4.88123E-12
-0.00298721 -0.000241187 4.88123E-12
6.05525E-13 -0.003235 4.9714E-12
6.05525E-13 -0.003235 4.9714E-12
6.05525E-13 -0.003235 4.9714E-12
6.05525E-13 -0.003235 4.9714E-12
-0.00298721 -0.000241187 4.88123E-12
-0.00298721 -0.000241187 4.88123E-12
-0.00298721 -0.000241187 4.88123E-12
-0.00298721 -0.000241187 4.88123E-12
-0.00298721 -0.000241187 4.88123E-12
6.05525E-13 -0.003235 4.9714E-12
6.05525E-13 -0.003235 4.9714E-12
6.05525E-13 -0.003235 4.9714E-12
6.05525E-13 -0.003235 4.9714E-12
-0.00298721 -0.000241187 4.88123E-12
-0.00298721 -0.000241187 4.88123E-12
-0.00298721 -0.000241187 4.88123E-12
-0.00298721 -0.000241187 4.88123E-12
-0.00298721 -0.000241187 4.88123E-12
6.05525E-13 -0.003235 4.9714E-12
6.05525E-13 -0.003235 4.9714E-12
6.05525E-13 -0.003235 4.9714E-12
6.05525E-13 -0.003235 4.9714E-12
-0.00298721 -0.000241187 4.88123E-12
-0.00298721 -0.000241187 4.88123E-12
-0.00298721 -0.000241187 4.88123E-12
-0.00298721 -0.000241187 4.88123E-12
-0.00298721 -0.000241187 4.88123E-12
6.05525E-13 -0.003235 4.9714E-12
6.05525E-13 -0.003235 4.9714E-12
6.05525E-13 -0.003235 4.9714E-12
6.05525E-13 -0.003235 4.9714E-12
-0.00298721 -0.000241187 4.88123E-12
-0.00298721 -0.000241187 4.88123E-12
-0.00298721 -0.000241187 4.88123E-12
-0.00298721 -0.000241187 4.88123E-12
-0.00298721 -0.000241187 4.88123E-12
6.05525E-13 -0.003235 4.9714E-12
6.05525E-13 -0.003235 4.9714E-12
6.05525E-13 -0.003235 4.9714E-12
6.05525E-13 -0.003235 4.9714E-12
-0.00298721 -0.000241187 4.88123E-12
-0.00298721 -0.000241187 4.88123E-12
-0.00298721 -0.000241187 4.88123E-12
-0.00298721 -0.000241187 4.88123E-12
-0.00298721 -0.000241187 4.88123E-12
6.05525E-13 -0.003235 4.9714E-12
6.05525E-13 -0.003235 4.9714E-12
6.05525E-13 -0.003235 4.9714E-12
6.05525E-13 -0.003235 4.9714E-12
-0.00298721 -0.000241187 4.88123E-12
-0.00298721 -0.000241187 4.88123E-12
-0.00298721 -0.000241187 4.88123E-12
-0.00298721 -0.000241187 4.88123E-12
-0.00298721 -0.000241187 4.88123E-12
6.05525E-13 -0.003235 4.9714E-12
6.05525E-13 -0.003235 4.9714E-12
6.05525E-13 -0.003235 4.9714E-12
6.05525E-13 -0.003235 4.9714E-12
-0.00298721 -0.000241187 4.88123E-12
-0.00298721 -0.000241187 4.88123E-12
-0.00298721 -0.000241187 4.88123E-12
-0.00298721 -0.000241187 4.88123E-12
-0.00298721 -0.000241187 4.88123E-12
6.05525E-13 -0.003235 4.9714E-12
6.05525E-13 -0.003235 4.9714E-12
6.05525E-13 -0.003235 4.9714E-12
6.05525E-13 -0.003235 4.9714E-12
-0.00298721 -0.000241187 4.88123E-12
-0.00298721 -0.000241187 4.88123E-12
-0.00298721 -0.000241187 4.88123E-12
-0.00298721 -0.000241187 4.88123E-12
-0.00298721 -0.000241187 4.88123E-12
6.05525E-13 -0.003235 4.9714E-12
6.05525E-13 -0.003235 4.9714E-12
6.05525E-13 -0.003235 4.9714E-12
6.05525E-13 -0.003235 4.9714E-12
</DataArray>
</PointData>
<CellData Tensors="stress" >
<DataArray type="Float64" Name="Stress" NumberOfComponents="6" format="ascii" >
-20.122 -69.957 -364.09 58.031 52.721 1.5786
-20.122 -69.957 -364.09 58.031 52.721 1.5786
-20.122 -69.957 -364.09 58.031 52.721 1.5786
-20.122 -69.957 -364.09 58.031 52.721 1.5786
-20.122 -69.957 -364.09 58.031 52.721 1.5786
-28.379 -85.643 -375 -37.094 54.978 -5.961
-28.379 -85.643 -375 -37.094 54.978 -5.961
-28.379 -85.643 -375 -37.094 54.978 -5.961
-28.379 -85.643 -375 -37.094 54.978 -5.961
-28.379 -85.643 -375 -37.094 54.978 -5.961
-20.122 -69.957 -364.09 58.031 52.721 1.5786
-20.122 -69.957 -364.09 58.031 52.721 1.5786
-20.122 -69.957 -364.09 58.031 52.721 1.5786
-20.122 -69.957 -364.09 58.031 52.721 1.5786
-20.122 -69.957 -364.09 58.031 52.721 1.5786
-28.379 -85.643 -375 -37.094 54.978 -5.961
-28.379 -85.643 -375 -37.094 54.978 -5.961
-28.379 -85.643 -375 -37.094 54.978 -5.961
-28.379 -85.643 -375 -37.094 54.978 -5.961
-28.379 -85.643 -375 -37.094 54.978 -5.961
-20.122 -69.957 -364.09 58.031 52.721 1.5786
-20.122 -69.957 -364.09 58.031 52.721 1.5786
-20.122 -69.957 -364.09 58.031 52.721 1.5786
-20.122 -69.957 -364.09 58.031 52.721 1.5786
-20.122 -69.957 -364.09 58.031 52.721 1.5786
-28.379 -85.643 -375 -37.094 54.978 -5.961
-28.379 -85.643 -375 -37.094 54.978 -5.961
-28.379 -85.643 -375 -37.094 54.978 -5.961
-28.379 -85.643 -375 -37.094 54.978 -5.961
-28.379 -85.643 -375 -37.094 54.978 -5.961
-20.122 -69.957 -364.09 58.031 52.721 1.5786
-20.122 -69.957 -364.09 58.031 52.721 1.5786
-20.122 -69.957 -364.09 58.031 52.721 1.5786
-20.122 -69.957 -364.09 58.031 52.721 1.5786
-20.122 -69.957 -364.09 58.031 52.721 1.5786
-28.379 -85.643 -375 -37.094 54.978 -5.961
-28.379 -85.643 -375 -37.094 54.978 -5.961
-28.379 -85.643 -375 -37.094 54.978 -5.961
-28.379 -85.643 -375 -37.094 54.978 -5.961
-28.379 -85.643 -375 -37.094 54.978 -5.961
-20.122 -69.957 -364.09 58.031 52.721 1.5786
-20.122 -69.957 -364.09 58.031 52.721 1.5786
-20.122 -69.957 -364.09 58.031 52.721 1.5786
-20.122 -69.957 -364.09 58.031 52.721 1.5786
-20.122 -69.957 -364.09 58.031 52.721 1.5786
-28.379 -85.643 -375 -37.094 54.978 -5.961
-28.379 -85.643 -375 -37.094 54.978 -5.961
-28.379 -85.643 -375 -37.094 54.978 -5.961
-28.379 -85.643 -375 -37.094 54.978 -5.961
-28.379 -85.643 -375 -37.094 54.978 -5.961
-20.122 -69.957 -364.09 58.031 52.721 1.5786
-20.122 -69.957 -364.09 58.031 52.721 1.5786
-20.122 -69.957 -364.09 58.031 52.721 1.5786
-20.122 -69.957 -364.09 58.031 52.721 1.5786
-20.122 -69.957 -364.09 58.031 52.721 1.5786
-28.379 -85.643 -375 -37.094 54.978 -5.961
-28.379 -85.643 -375 -37.094 54.978 -5.961
-28.379 -85.643 -375 -37.094 54.978 -5.961
-28.379 -85.643 -375 -37.094 54.978 -5.961
-28.379 -85.643 -375 -37.094 54.978 -5.961
-20.122 -69.957 -364.09 58.031 52.721 1.5786
-20.122 -69.957 -364.09 58.031 52.721 1.5786
-20.122 -69.957 -364.09 58.031 52.721 1.5786
-20.122 -69.957 -364.09 58.031 52.721 1.5786
-20.122 -69.957 -364.09 58.031 52.721 1.5786
-28.379 -85.643 -375 -37.094 54.978 -5.961
-28.379 -85.643 -375 -37.094 54.978 -5.961
-28.379 -85.643 -375 -37.094 54.978 -5.961
-28.379 -85.643 -375 -37.094 54.978 -5.961
-28.379 -85.643 -375 -37.094 54.978 -5.961
-20.122 -69.957 -364.09 58.031 52.721 1.5786
-20.122 -69.957 -364.09 58.031 52.721 1.5786
-20.122 -69.957 -364.09 58.031 52.721 1.5786
-20.122 -69.957 -364.09 58.031 52.721 1.5786
-20.122 -69.957 -364.09 58.031 52.721 1.5786
-28.379 -85.643 -375 -37.094 54.978 -5.961
-28.379 -85.643 -375 -37.094 54.978 -5.961
-28.379 -85.643 -375 -37.094 54.978 -5.961
-28.379 -85.643 -375 -37.094 54.978 -5.961
-28.379 -85.643 -375 -37.094 54.978 -5.961
-20.122 -69.957 -364.09 58.031 52.721 1.5786
-20.122 -69.957 -364.09 58.031 52.721 1.5786
-20.122 -69.957 -364.09 58.031 52.721 1.5786
-20.122 -69.957 -364.09 58.031 52.721 1.5786
-20.122 -69.957 -364.09 58.031 52.721 1.5786
-28.379 -85.643 -375 -37.094 54.978 -5.961
-28.379 -85.643 -375 -37.094 54.978 -5.961
-28.379 -85.643 -375 -37.094 54.978 -5.961
-28.379 -85.643 -375 -37.094 54.978 -5.961
-28.379 -85.643 -375 -37.094 54.978 -5.961
-20.122 -69.957 -364.09 58.031 52.721 1.5786
-20.122 -69.957 -364.09 58.031 52.721 1.5786
-20.122 -69.957 -364.09 58.031 52.721 1.5786
-20.122 -69.957 -364.09 58.031 52.721 1.5786
-20.122 -69.957 -364.09 58.031 52.721 1.5786
-28.379 -85.643 -375 -37.094 54.978 -5.961
-28.379 -85.643 -375 -37.094 54.978 -5.961
-28.379 -85.643 -375 -37.094 54.978 -5.961
-28.379 -85.643 -375 -37.094 54.978 -5.961
-28.379 -85.643 -375 -37.094 54.978 -5.961
-20.122 -69.957 -364.09 58.031 52.721 1.5786
-20.122 -69.957 -364.09 58.031 52.721 1.5786
-20.122 -69.957 -364.09 58.031 52.721 1.5786
-20.122 -69.957 -364.09 58.031 52.721 1.5786
-20.122 -69.957 -364.09 58.031 52.721 1.5786
-28.379 -85.643 -375 -37.094 54.978 -5.961
-28.379 -85.643 -375 -37.094 54.978 -5.961
-28.379 -85.643 -375 -37.094 54.978 -5.961
-28.379 -85.643 -375 -37.094 54.978 -5.961
-28.379 -85.643 -375 -37.094 54.978 -5.961
-20.122 -69.957 -364.09 58.031 52.721 1.5786
-20.122 -69.957 -364.09 58.031 52.721 1.5786
-20.122 -69.957 -364.09 58.031 52.721 1.5786
-20.122 -69.957 -364.09 58.031 52.721 1.5786
-20.122 -69.957 -364.09 58.031 52.721 1.5786
-28.379 -85.643 -375 -37.094 54.978 -5.961
-28.379 -85.643 -375 -37.094 54.978 -5.961
-28.379 -85.643 -375 -37.094 54.978 -5.961
-28.379 -85.643 -375 -37.094 54.978 -5.961
-28.379 -85.643 -375 -37.094 54.978 -5.961
-20.122 -69.957 -364.09 58.031 52.721 1.5786
-20.122 -69.957 -364.09 58.031 52.721 1.5786
-20.122 -69.957 -364.09 58.031 52.721 1.5786
-20.122 -69.957 -364.09 58.031 52.721 1.5786
-20.122 -69.957 -364.09 58.031 52.721 1.5786
-28.379 -85.643 -375 -37.094 54.978 -5.961
-28.379 -85.643 -375 -37.094 54.978 -5.961
-28.379 -85.643 -375 -37.094 54.978 -5.961
-28.379 -85.643 -375 -37.094 54.978 -5.961
-28.379 -85.643 -375 -37.094 54.978 -5.961
-20.122 -69.957 -364.09 58.031 52.721 1.5786
-20.122 -69.957 -364.09 58.031 52.721 1.5786
-20.122 -69.957 -364.09 58.031 52.721 1.5786
-20.122 -69.957 -364.09 58.031 52.721 1.5786
-20.122 -69.957 -364.09 58.031 52.721 1.5786
-28.379 -85.643 -375 -37.094 54.978 -5.961
-28.379 -85.643 -375 -37.094 54.978 -5.961
-28.379 -85.643 -375 -37.094 54.978 -5.961
-28.379 -85.643 -375 -37.094 54.978 -5.961
-28.379 -85.643 -375 -37.094 54.978 -5.961
-20.122 -69.957 -364.09 58.031 52.721 1.5786
-20.122 -69.957 -364.09 58.031 52.721 1.5786
-20.122 -69.957 -364.09 58.031 52.721 1.5786
-20.122 -69.957 -364.09 58.031 52.721 1.5786
-20.122 -69.957 -364.09 58.031 52.721 1.5786
-28.379 -85.643 -375 -37.094 54.978 -5.961
-28.379 -85.643 -375 -37.094 54.978 -5.961
-28.379 -85.643 -375 -37.094 54.978 -5.961
-28.379 -85.643 -375 -37.094 54.978 -5.961
-28.379 -85.643 -375 -37.094 54.978 -5.961
-20.122 -69.957 -364.09 58.031 52.721 1.5786
-20.122 -69.957 -364.09 58.031 52.721 1.5786
-20.122 -69.957 -364.09 58.031 52.721 1.5786
-20.122 -69.957 -364.09 58.031 52.721 1.5786
-20.122 -69.957 -364.09 58.031 52.721 1.5786
-28.379 -85.643 -375 -37.094 54.978 -5.961
-28.379 -85.643 -375 -37.094 54.978 -5.961
-28.379 -85.643 -375 -37.094 54.978 -5.961
-28.379 -85.643 -375 -37.094 54.978 -5.961
-28.379 -85.643 -375 -37.094 54.978 -5.961
-20.122 -69.957 -364.09 58.031 52.721 1.5786
-20.122 -69.957 -364.09 58.031 52.721 1.5786
-20.122 -69.957 -364.09 58.031 52.721 1.5786
-20.122 -69.957 -364.09 58.031 52.721 1.5786
-20.122 -69.957 -364.09 58.031 52.721 1.5786
-28.379 -85.643 -375 -37.094 54.978 -5.961
-28.379 -85.643 -375 -37.094 54.978 -5.961
-28.379 -85.643 -375 -37.094 54.978 -5.961
-28.379 -85.643 -375 -37.094 54.978 -5.961
-28.379 -85.643 -375 -37.094 54.978 -5.961
-20.122 -69.957 -364.09 58.031 52.721 1.5786
-20.122 -69.957 -364.09 58.031 52.721 1.5786
-20.122 -69.957 -364.09 58.031 52.721 1.5786
-20.122 -69.957 -364.09 58.031 52.721 1.5786
-20.122 -69.957 -364.09 58.031 52.721 1.5786
-28.379 -85.643 -375 -37.094 54.978 -5.961
-28.379 -85.643 -375 -37.094 54.978 -5.961
-28.379 -85.643 -375 -37.094 54.978 -5.961
-28.379 -85.643 -375 -37.094 54.978 -5.961
-28.379 -85.643 -375 -37.094 54.978 -5.961
-20.122 -69.957 -364.09 58.031 52.721 1.5786
-20.122 -69.957 -364.09 58.031 52.721 1.5786
-20.122 -69.957 -364.09 58.031 52.721 1.5786
-20.122 -69.957 -364.09 58.031 52.721 1.5786
-20.122 -69.957 -364.09 58.031 52.721 1.5786
-28.379 -85.643 -375 -37.094 54.978 -5.961
-28.379 -85.643 -375 -37.094 54.978 -5.961
-28.379 -85.643 -375 -37.094 54.978 -5.961
-28.379 -85.643 -375 -37.094 54.978 -5.961
-28.379 -85.643 -375 -37.094 54.978 -5.961
-20.122 -69.957 -364.09 58.031 52.721 1.5786
-20.122 -69.957 -364.09 58.031 52.721 1.5786
-20.122 -69.957 -364.09 58.031 52.721 1.5786
-20.122 -69.957 -364.09 58.031 52.721 1.5786
-20.122 -69.957 -364.09 58.031 52.721 1.5786
-28.379 -85.643 -375 -37.094 54.978 -5.961
-28.379 -85.643 -375 -37.094 54.978 -5.961
-28.379 -85.643 -375 -37.094 54.978 -5.961
-28.379 -85.643 -375 -37.094 54.978 -5.961
-28.379 -85.643 -375 -37.094 54.978 -5.961
-20.387 -119.09 -196.57 13.815 71.055 2.1841
-20.387 -119.09 -196.57 13.815 71.055 2.1841
-20.387 -119.09 -196.57 13.815 71.055 2.1841
-20.387 -119.09 -196.57 13.815 71.055 2.1841
-20.387 -119.09 -196.57 13.815 71.055 2.1841
-19.324 -114.56 -197.76 -23.448 69.281 -2.7092
-19.324 -114.56 -197.76 -23.448 69.281 -2.7092
-19.324 -114.56 -197.76 -23.448 69.281 -2.7092
-19.324 -114.56 -197.76 -23.448 69.281 -2.7092
-19.324 -114.56 -197.76 -23.448 69.281 -2.7092
-20.387 -119.09 -196.57 13.815 71.055 2.1841
-20.387 -119.09 -196.57 13.815 71.055 2.1841
-20.387 -119.09 -196.57 13.815 71.055 2.1841
-20.387 -119.09 -196.57 13.815 71.055 2.1841
-20.387 -119.09 -196.57 13.815 71.055 2.1841
-19.324 -114.56 -197.76 -23.448 69.281 -2.7092
-19.324 -114.56 -197.76 -23.448 69.281 -2.7092
-19.324 -114.56 -197.76 -23.448 69.281 -2.7092
-19.324 -114.56 -197.76 -23.448 69.281 -2.7092
-19.324 -114.56 -197.76 -23.448 69.281 -2.7092
-20.387 -119.09 -196.57 13.815 71.055 2.1841
-20.387 -119.09 -196.57 13.815 71.055 2.1841
-20.387 -119.09 -196.57 13.815 71.055 2.1841
-20.387 -119.09 -196.57 13.815 71.055 2.1841
-20.387 -119.09 -196.57 13.815 71.055 2.1841
-19.324 -114.56 -197.76 -23.448 69.281 -2.7092
-19.324 -114.56 -197.76 -23.448 69.281 -2.7092
-19.324 -114.56 -197.76 -23.448 69.281 -2.7092
-19.324 -114.56 -197.76 -23.448 69.281 -2.7092
-19.324 -114.56 -197.76 -23.448 69.281 -2.7092
-20.387 -119.09 -196.57 13.815 71.055 2.1841
-20.387 -119.09 -196.57 13.815 71.055 2.1841
-20.387 -119.09 -196.57 13.815 71.055 2.1841
-20.387 -119.09 -196.57 13.815 71.055 2.1841
-20.387 -119.09 -196.57 13.815 71.055 2.1841
-19.324 -114.56 -197.76 -23.448 69.281 -2.7092
-19.324 -114.56 -197.76 -23.448 69.281 -2.7092
-19.324 -114.56 -197.76 -23.448 69.281 -2.7092
-19.324 -114.56 -197.76 -23.448 69.281 -2.7092
-19.324 -114.56 -197.76 -23.448 69.281 -2.7092
-20.387 -119.09 -196.57 13.815 71.055 2.1841
-20.387 -119.09 -196.57 13.815 71.055 2.1841
-20.387 -119.09 -196.57 13.815 71.055 2.1841
-20.387 -119.09 -196.57 13.815 71.055 2.1841
-20.387 -119.09 -196.57 13.815 71.055 2.1841
-19.324 -114.56 -197.76 -23.448 69.281 -2.7092
-19.324 -114.56 -197.76 -23.448 69.281 -2.7092
-19.324 -114.56 -197.76 -23.448 69.281 -2.7092
-19.324 -114.56 -197.76 -23.448 69.281 -2.7092
-19.324 -114.56 -197.76 -23.448 69.281 -2.7092
-20.387 -119.09 -196.57 13.815 71.055 2.1841
-20.387 -119.09 -196.57 13.815 71.055 2.1841
-20.387 -119.09 -196.57 13.815 71.055 2.1841
-20.387 -119.09 -196.57 13.815 71.055 2.1841
-20.387 -119.09 -196.57 13.815 71.055 2.1841
-19.324 -114.56 -197.76 -23.448 69.281 -2.7092
-19.324 -114.56 -197.76 -23.448 69.281 -2.7092
-19.324 -114.56 -197.76 -23.448 69.281 -2.7092
-19.324 -114.56 -197.76 -23.448 69.281 -2.7092
-19.324 -114.56 -197.76 -23.448 69.281 -2.7092
-20.387 -119.09 -196.57 13.815 71.055 2.1841
-20.387 -119.09 -196.57 13.815 71.055 2.1841
-20.387 -119.09 -196.57 13.815 71.055 2.1841
-20.387 -119.09 -196.57 13.815 71.055 2.1841
-20.387 -119.09 -196.57 13.815 71.055 2.1841
-19.324 -114.56 -197.76 -23.448 69.281 -2.7092
-19.324 -114.56 -197.76 -23.448 69.281 -2.7092
-19.324 -114.56 -197.76 -23.448 69.281 -2.7092
-19.324 -114.56 -197.76 -23.448 69.281 -2.7092
-19.324 -114.56 -197.76 -23.448 69.281 -2.7092
-20.387 -119.09 -196.57 13.815 71.055 2.1841
-20.387 -119.09 -196.57 13.815 71.055 2.1841
-20.387 -119.09 -196.57 13.815 71.055 2.1841
-20.387 -119.09 -196.57 13.815 71.055 2.1841
-20.387 -119.09 -196.57 13.815 71.055 2.1841
-19.324 -114.56 -197.76 -23.448 69.281 -2.7092
-19.324 -114.56 -197.76 -23.448 69.281 -2.7092
-19.324 -114.56 -197.76 -23.448 69.281 -2.7092
-19.324 -114.56 -197.76 -23.448 69.281 -2.7092
-19.324 -114.56 -197.76 -23.448 69.281 -2.7092
-20.387 -119.09 -196.57 13.815 71.055 2.1841
-20.387 -119.09 -196.57 13.815 71.055 2.1841
-20.387 -119.09 -196.57 13.815 71.055 2.1841
-20.387 -119.09 -196.57 13.815 71.055 2.1841
-20.387 -119.09 -196.57 13.815 71.055 2.1841
-19.324 -114.56 -197.76 -23.448 69.281 -2.7092
-19.324 -114.56 -197.76 -23.448 69.281 -2.7092
-19.324 -114.56 -197.76 -23.448 69.281 -2.7092
-19.324 -114.56 -197.76 -23.448 69.281 -2.7092
-19.324 -114.56 -197.76 -23.448 69.281 -2.7092
-20.387 -119.09 -196.57 13.815 71.055 2.1841
-20.387 -119.09 -196.57 13.815 71.055 2.1841
-20.387 -119.09 -196.57 13.815 71.055 2.1841
-20.387 -119.09 -196.57 13.815 71.055 2.1841
-20.387 -119.09 -196.57 13.815 71.055 2.1841
-19.324 -114.56 -197.76 -23.448 69.281 -2.7092
-19.324 -114.56 -197.76 -23.448 69.281 -2.7092
-19.324 -114.56 -197.76 -23.448 69.281 -2.7092
-19.324 -114.56 -197.76 -23.448 69.281 -2.7092
-19.324 -114.56 -197.76 -23.448 69.281 -2.7092
-20.122 -69.957 -364.09 58.031 52.721 1.5786
-20.122 -69.957 -364.09 58.031 52.721 1.5786
-20.122 -69.957 -364.09 58.031 52.721 1.5786
-20.122 -69.957 -364.09 58.031 52.721 1.5786
-20.122 -69.957 -364.09 58.031 52.721 1.5786
-28.379 -85.643 -375 -37.094 54.978 -5.961
-28.379 -85.643 -375 -37.094 54.978 -5.961
-28.379 -85.643 -375 -37.094 54.978 -5.961
-28.379 -85.643 -375 -37.094 54.978 -5.961
-28.379 -85.643 -375 -37.094 54.978 -5.961
-20.122 -69.957 -364.09 58.031 52.721 1.5786
-20.122 -69.957 -364.09 58.031 52.721 1.5786
-20.122 -69.957 -364.09 58.031 52.721 1.5786
-20.122 -69.957 -364.09 58.031 52.721 1.5786
-20.122 -69.957 -364.09 58.031 52.721 1.5786
-28.379 -85.643 -375 -37.094 54.978 -5.961
-28.379 -85.643 -375 -37.094 54.978 -5.961
-28.379 -85.643 -375 -37.094 54.978 -5.961
-28.379 -85.643 -375 -37.094 54.978 -5.961
-28.379 -85.643 -375 -37.094 54.978 -5.961
-20.122 -69.957 -364.09 58.031 52.721 1.5786
-20.122 -69.957 -364.09 58.031 52.721 1.5786
-20.122 -69.957 -364.09 58.031 52.721 1.5786
-20.122 -69.957 -364.09 58.031 52.721 1.5786
-20.122 -69.957 -364.09 58.031 52.721 1.5786
-28.379 -85.643 -375 -37.094 54.978 -5.961
-28.379 -85.643 -375 -37.094 54.978 -5.961
-28.379 -85.643 -375 -37.094 54.978 -5.961
-28.379 -85.643 -375 -37.094 54.978 -5.961
-28.379 -85.643 -375 -37.094 54.978 -5.961
-20.122 -69.957 -364.09 58.031 52.721 1.5786
-20.122 -69.957 -364.09 58.031 52.721 1.5786
-20.122 -69.957 -364.09 58.031 52.721 1.5786
-20.122 -69.957 -364.09 58.031 52.721 1.5786
-20.122 -69.957 -364.09 58.031 52.721 1.5786
-28.379 -85.643 -375 -37.094 54.978 -5.961
-28.379 -85.643 -375 -37.094 54.978 -5.961
-28.379 -85.643 -375 -37.094 54.978 -5.961
-28.379 -85.643 -375 -37.094 54.978 -5.961
-28.379 -85.643 -375 -37.094 54.978 -5.961
-20.122 -69.957 -364.09 58.031 52.721 1.5786
-20.122 -69.957 -364.09 58.031 52.721 1.5786
-20.122 -69.957 -364.09 58.031 52.721 1.5786
-20.122 -69.957 -364.09 58.031 52.721 1.5786
-20.122 -69.957 -364.09 58.031 52.721 1.5786
-28.379 -85.643 -375 -37.094 54.978 -5.961
-28.379 -85.643 -375 -37.094 54.978 -5.961
-28.379 -85.643 -375 -37.094 54.978 -5.961
-28.379 -85.643 -375 -37.094 54.978 -5.961
-28.379 -85.643 -375 -37.094 54.978 -5.961
-20.122 -69.957 -364.09 58.031 52.721 1.5786
-20.122 -69.957 -364.09 58.031 52.721 1.5786
-20.122 -69.957 -364.09 58.031 52.721 1.5786
-20.122 -69.957 -364.09 58.031 52.721 1.5786
-20.122 -69.957 -364.09 58.031 52.721 1.5786
-28.379 -85.643 -375 -37.094 54.978 -5.961
-28.379 -85.643 -375 -37.094 54.978 -5.961
-28.379 -85.643 -375 -37.094 54.978 -5.961
-28.379 -85.643 -375 -37.094 54.978 -5.961
-28.379 -85.643 -375 -37.094 54.978 -5.961
-20.122 -69.957 -364.09 58.031 52.721 1.5786
-20.122 -69.957 -364.09 58.031 52.721 1.5786
-20.122 -69.957 -364.09 58.031 52.721 1.5786
-20.122 -69.957 -364.09 58.031 52.721 1.5786
-20.122 -69.957 -364.09 58.031 52.721 1.5786
-28.379 -85.643 -375 -37.094 54.978 -5.961
-28.379 -85.643 -375 -37.094 54.978 -5.961
-28.379 -85.643 -375 -37.094 54.978 -5.961
-28.379 -85.643 -375 -37.094 54.978 -5.961
-28.379 -85.643 -375 -37.094 54.978 -5.961
-20.122 -69.957 -364.09 58.031 52.721 1.5786
-20.122 -69.957 -364.09 58.031 52.721 1.5786
-20.122 -69.957 -364.09 58.031 52.721 1.5786
-20.122 -69.957 -364.09 58.031 52.721 1.5786
-20.122 -69.957 -364.09 58.031 52.721 1.5786
-28.379 -85.643 -375 -37.094 54.978 -5.961
-28.379 -85.643 -375 -37.094 54.978 -5.961
-28.379 -85.643 -375 -37.094 54.978 -5.961
-28.379 -85.643 -375 -37.094 54.978 -5.961
-28.379 -85.643 -375 -37.094 54.978 -5.961
-20.122 -69.957 -364.09 58.031 52.721 1.5786
-20.122 -69.957 -364.09 58.031 52.721 1.5786
-20.122 -69.957 -364.09 58.031 52.721 1.5786
-20.122 -69.957 -364.09 58.031 52.721 1.5786
-20.122 -69.957 -364.09 58.031 52.721 1.5786
-28.379 -85.643 -375 -37.094 54.978 -5.961
-28.379 -85.643 -375 -37.094 54.978 -5.961
-28.379 -85.643 -375 -37.094 54.978 -5.961
-28.379 -85.643 -375 -37.094 54.978 -5.961
-28.379 -85.643 -375 -37.094 54.978 -5.961
-20.122 -69.957 -364.09 58.031 52.721 1.5786
-20.122 -69.957 -364.09 58.031 52.721 1.5786
-20.122 -69.957 -364.09 58.031 52.721 1.5786
-20.122 -69.957 -364.09 58.031 52.721 1.5786
-20.122 -69.957 -364.09 58.031 52.721 1.5786
-28.379 -85.643 -375 -37.094 54.978 -5.961
-28.379 -85.643 -375 -37.094 54.978 -5.961
-28.379 -85.643 -375 -37.094 54.978 -5.961
-28.379 -85.643 -375 -37.094 54.978 -5.961
-28.379 -85.643 -375 -37.094 54.978 -5.961
-20.122 -69.957 -364.09 58.031 52.721 1.5786
-20.122 -69.957 -364.09 58.031 52.721 1.5786
-20.122 -69.957 -364.09 58.031 52.721 1.5786
-20.122 -69.957 -364.09 58.031 52.721 1.5786
-20.122 -69.957 -364.09 58.031 52.721 1.5786
-28.379 -85.643 -375 -37.094 54.978 -5.961
-28.379 -85.643 -375 -37.094 54.978 -5.961
-28.379 -85.643 -375 -37.094 54.978 -5.961
-28.379 -85.643 -375 -37.094 54.978 -5.961
-28.379 -85.643 -375 -37.094 54.978 -5.961
-20.122 -69.957 -364.09 58.031 52.721 1.5786
-20.122 -69.957 -364.09 58.031 52.721 1.5786
-20.122 -69.957 -364.09 58.031 52.721 1.5786
-20.122 -69.957 -364.09 58.031 52.721 1.5786
-20.122 -69.957 -364.09 58.031 52.721 1.5786
-28.379 -85.643 -375 -37.094 54.978 -5.961
-28.379 -85.643 -375 -37.094 54.978 -5.961
-28.379 -85.643 -375 -37.094 54.978 -5.961
-28.379 -85.643 -375 -37.094 54.978 -5.961
-28.379 -85.643 -375 -37.094 54.978 -5.961
-20.122 -69.957 -364.09 58.031 52.721 1.5786
-20.122 -69.957 -364.09 58.031 52.721 1.5786
-20.122 -69.957 -364.09 58.031 52.721 1.5786
-20.122 -69.957 -364.09 58.031 52.721 1.5786
-20.122 -69.957 -364.09 58.031 52.721 1.5786
-28.379 -85.643 -375 -37.094 54.978 -5.961
-28.379 -85.643 -375 -37.094 54.978 -5.961
-28.379 -85.643 -375 -37.094 54.978 -5.961
-28.379 -85.643 -375 -37.094 54.978 -5.961
-28.379 -85.643 -375 -37.094 54.978 -5.961
-20.122 -69.957 -364.09 58.031 52.721 1.5786
-20.122 -69.957 -364.09 58.031 52.721 1.5786
-20.122 -69.957 -364.09 58.031 52.721 1.5786
-20.122 -69.957 -364.09 58.031 52.721 1.5786
-20.122 -69.957 -364.09 58.031 52.721 1.5786
-28.379 -85.643 -375 -37.094 54.978 -5.961
-28.379 -85.643 -375 -37.094 54.978 -5.961
-28.379 -85.643 -375 -37.094 54.978 -5.961
-28.379 -85.643 -375 -37.094 54.978 -5.961
-28.379 -85.643 -375 -37.094 54.978 -5.961
-20.122 -69.957 -364.09 58.031 52.721 1.5786
-20.122 -69.957 -364.09 58.031 52.721 1.5786
-20.122 -69.957 -364.09 58.031 52.721 1.5786
-20.122 -69.957 -364.09 58.031 52.721 1.5786
-20.122 -69.957 -364.09 58.031 52.721 1.5786
-28.379 -85.643 -375 -37.094 54.978 -5.961
-28.379 -85.643 -375 -37.094 54.978 -5.961
-28.379 -85.643 -375 -37.094 54.978 -5.961
-28.379 -85.643 -375 -37.094 54.978 -5.961
-28.379 -85.643 -375 -37.094 54.978 -5.961
-20.122 -69.957 -364.09 58.031 52.721 1.5786
-20.122 -69.957 -364.09 58.031 52.721 1.5786
-20.122 -69.957 -364.09 58.031 52.721 1.5786
-20.122 -69.957 -364.09 58.031 52.721 1.5786
-20.122 -69.957 -364.09 58.031 52.721 1.5786
-28.379 -85.643 -375 -37.094 54.978 -5.961
-28.379 -85.643 -375 -37.094 54.978 -5.961
-28.379 -85.643 -375 -37.094 54.978 -5.961
-28.379 -85.643 -375 -37.094 54.978 -5.961
-28.379 -85.643 -375 -37.094 54.978 -5.961
-20.122 -69.957 -364.09 58.031 52.721 1.5786
-20.122 -69.957 -364.09 58.031 52.721 1.5786
-20.122 -69.957 -364.09 58.031 52.721 1.5786
-20.122 -69.957 -364.09 58.031 52.721 1.5786
-20.122 -69.957 -364.09 58.031 52.721 1.5786
-28.379 -85.643 -375 -37.094 54.978 -5.961
-28.379 -85.643 -375 -37.094 54.978 -5.961
-28.379 -85.643 -375 -37.094 54.978 -5.961
-28.379 -85.643 -375 -37.094 54.978 -5.961
-28.379 -85.643 -375 -37.094 54.978 -5.961
-20.122 -69.957 -364.09 58.031 52.721 1.5786
-20.122 -69.957 -364.09 58.031 52.721 1.5786
-20.122 -69.957 -364.09 58.031 52.721 1.5786
-20.122 -69.957 -364.09 58.031 52.721 1.5786
-20.122 -69.957 -364.09 58.031 52.721 1.5786
-28.379 -85.643 -375 -37.094 54.978 -5.961
-28.379 -85.643 -375 -37.094 54.978 -5.961
-28.379 -85.643 -375 -37.094 54.978 -5.961
-28.379 -85.643 -375 -37.094 54.978 -5.961
-28.379 -85.643 -375 -37.094 54.978 -5.961
-20.122 -69.957 -364.09 58.031 52.721 1.5786
-20.122 -69.957 -364.09 58.031 52.721 1.5786
-20.122 -69.957 -364.09 58.031 52.721 1.5786
-20.122 -69.957 -364.09 58.031 52.721 1.5786
-20.122 -69.957 -364.09 58.031 52.721 1.5786
-28.379 -85.643 -375 -37.094 54.978 -5.961
-28.379 -85.643 -375 -37.094 54.978 -5.961
-28.379 -85.643 -375 -37.094 54.978 -5.961
-28.379 -85.643 -375 -37.094 54.978 -5.961
-28.379 -85.643 -375 -37.094 54.978 -5.961
-20.122 -69.957 -364.09 58.031 52.721 1.5786
-20.122 -69.957 -364.09 58.031 52.721 1.5786
-20.122 -69.957 -364.09 58.031 52.721 1.5786
-20.122 -69.957 -364.09 58.031 52.721 1.5786
-20.122 -69.957 -364.09 58.031 52.721 1.5786
-28.379 -85.643 -375 -37.094 54.978 -5.961
-28.379 -85.643 -375 -37.094 54.978 -5.961
-28.379 -85.643 -375 -37.094 54.978 -5.961
-28.379 -85.643 -375 -37.094 54.978 -5.961
-28.379 -85.643 -375 -37.094 54.978 -5.961
-20.387 -119.09 -196.57 13.815 71.055 2.1841
-20.387 -119.09 -196.57 13.815 71.055 2.1841
-20.387 -119.09 -196.57 13.815 71.055 2.1841
-20.387 -119.09 -196.57 13.815 71.055 2.1841
-20.387 -119.09 -196.57 13.815 71.055 2.1841
-19.324 -114.56 -197.76 -23.448 69.281 -2.7092
-19.324 -114.56 -197.76 -23.448 69.281 -2.7092
-19.324 -114.56 -197.76 -23.448 69.281 -2.7092
-19.324 -114.56 -197.76 -23.448 69.281 -2.7092
-19.324 -114.56 -197.76 -23.448 69.281 -2.7092
-20.387 -119.09 -196.57 13.815 71.055 2.1841
-20.387 -119.09 -196.57 13.815 71.055 2.1841
-20.387 -119.09 -196.57 13.815 71.055 2.1841
-20.387 -119.09 -196.57 13.815 71.055 2.1841
-20.387 -119.09 -196.57 13.815 71.055 2.1841
-19.324 -114.56 -197.76 -23.448 69.281 -2.7092
-19.324 -114.56 -197.76 -23.448 69.281 -2.7092
-19.324 -114.56 -197.76 -23.448 69.281 -2.7092
-19.324 -114.56 -197.76 -23.448 69.281 -2.7092
-19.324 -114.56 -197.76 -23.448 69.281 -2.7092
-20.387 -119.09 -196.57 13.815 71.055 2.1841
-20.387 -119.09 -196.57 13.815 71.055 2.1841
-20.387 -119.09 -196.57 13.815 71.055 2.1841
-20.387 -119.09 -196.57 13.815 71.055 2.1841
-20.387 -119.09 -196.57 13.815 71.055 2.1841
-19.324 -114.56 -197.76 -23.448 69.281 -2.7092
-19.324 -114.56 -197.76 -23.448 69.281 -2.7092
-19.324 -114.56 -197.76 -23.448 69.281 -2.7092
-19.324 -114.56 -197.76 -23.448 69.281 -2.7092
-19.324 -114.56 -197.76 -23.448 69.281 -2.7092
-20.387 -119.09 -196.57 13.815 71.055 2.1841
-20.387 -119.09 -196.57 13.815 71.055 2.1841
-20.387 -119.09 -196.57 13.815 71.055 2.1841
-20.387 -119.09 -196.57 13.815 71.055 2.1841
-20.387 -119.09 -196.57 13.815 71.055 2.1841
-19.324 -114.56 -197.76 -23.448 69.281 -2.7092
-19.324 -114.56 -197.76 -23.448 69.281 -2.7092
-19.324 -114.56 -197.76 -23.448 69.281 -2.7092
-19.324 -114.56 -197.76 -23.448 69.281 -2.7092
-19.324 -114.56 -197.76 -23.448 69.281 -2.7092
-20.387 -119.09 -196.57 13.815 71.055 2.1841
-20.387 -119.09 -196.57 13.815 71.055 2.1841
-20.387 -119.09 -196.57 13.815 71.055 2.1841
-20.387 -119.09 -196.57 13.815 71.055 2.1841
-20.387 -119.09 -196.57 13.815 71.055 2.1841
-19.324 -114.56 -197.76 -23.448 69.281 -2.7092
-19.324 -114.56 -197.76 -23.448 69.281 -2.7092
-19.324 -114.56 -197.76 -23.448 69.281 -2.7092
-19.324 -114.56 -197.76 -23.448 69.281 -2.7092
-19.324 -114.56 -197.76 -23.448 69.281 -2.7092
-20.387 -119.09 -196.57 13.815 71.055 2.1841
-20.387 -119.09 -196.57 13.815 71.055 2.1841
-20.387 -119.09 -196.57 13.815 71.055 2.1841
-20.387 -119.09 -196.57 13.815 71.055 2.1841
-20.387 -119.09 -196.57 13.815 71.055 2.1841
-19.324 -114.56 -197.76 -23.448 69.281 -2.7092
-19.324 -114.56 -197.76 -23.448 69.281 -2.7092
-19.324 -114.56 -197.76 -23.448 69.281 -2.7092
-19.324 -114.56 -197.76 -23.448 69.281 -2.7092
-19.324 -114.56 -197.76 -23.448 69.281 -2.7092
-20.387 -119.09 -196.57 13.815 71.055 2.1841
-20.387 -119.09 -196.57 13.815 71.055 2.1841
-20.387 -119.09 -196.57 13.815 71.055 2.1841
-20.387 -119.09 -196.57 13.815 71.055 2.1841
-20.387 -119.09 -196.57 13.815 71.055 2.1841
-19.324 -114.56 -197.76 -23.448 69.281 -2.7092
-19.324 -114.56 -197.76 -23.448 69.281 -2.7092
-19.324 -114.56 -197.76 -23.448 69.281 -2.7092
-19.324 -114.56 -197.76 -23.448 69.281 -2.7092
-19.324 -114.56 -197.76 -23.448 69.281 -2.7092
-20.387 -119.09 -196.57 13.815 71.055 2.1841
-20.387 -119.09 -196.57 13.815 71.055 2.1841
-20.387 -119.09 -196.57 13.815 71.055 2.1841
-20.387 -119.09 -196.57 13.815 71.055 2.1841
-20.387 -119.09 -196.57 13.815 71.055 2.1841
-19.324 -114.56 -197.76 -23.448 69.281 -2.7092
-19.324 -114.56 -197.76 -23.448 69.281 -2.7092
-19.324 -114.56 -197.76 -23.448 69.281 -2.7092
-19.324 -114.56 -197.76 -23.448 69.281 -2.7092
-19.324 -114.56 -197.76 -23.448 69.281 -2.7092
-20.387 -119.09 -196.57 13.815 71.055 2.1841
-20.387 -119.09 -196.57 13.815 71.055 2.1841
-20.387 -119.09 -196.57 13.815 71.055 2.1841
-20.387 -119.09 -196.57 13.815 71.055 2.1841
-20.387 -119.09 -196.57 13.815 71.055 2.1841
-19.324 -114.56 -197.76 -23.448 69.281 -2.7092
-19.324 -114.56 -197.76 -23.448 69.281 -2.7092
-19.324 -114.56 -197.76 -23.448 69.281 -2.7092
-19.324 -114.56 -197.76 -23.448 69.281 -2.7092
-19.324 -114.56 -197.76 -23.448 69.281 -2.7092
-20.387 -119.09 -196.57 13.815 71.055 2.1841
-20.387 -119.09 -196.57 13.815 71.055 2.1841
-20.387 -119.09 -196.57 13.815 71.055 2.1841
-20.387 -119.09 -196.57 13.815 71.055 2.1841
-20.387 -119.09 -196.57 13.815 71.055 2.1841
-19.324 -114.56 -197.76 -23.448 69.281 -2.7092
-19.324 -114.56 -197.76 -23.448 69.281 -2.7092
-19.324 -114.56 -197.76 -23.448 69.281 -2.7092
-19.324 -114.56 -197.76 -23.448 69.281 -2.7092
-19.324 -114.56 -197.76 -23.448 69.281 -2.7092
-20.122 -69.957 -364.09 58.031 52.721 1.5786
-20.122 -69.957 -364.09 58.031 52.721 1.5786
-20.122 -69.957 -364.09 58.031 52.721 1.5786
-20.122 -69.957 -364.09 58.031 52.721 1.5786
-20.122 -69.957 -364.09 58.031 52.721 1.5786
-28.379 -85.643 -375 -37.094 54.978 -5.961
-28.379 -85.643 -375 -37.094 54.978 -5.961
-28.379 -85.643 -375 -37.094 54.978 -5.961
-28.379 -85.643 -375 -37.094 54.978 -5.961
-28.379 -85.643 -375 -37.094 54.978 -5.961
-20.122 -69.957 -364.09 58.031 52.721 1.5786
-20.122 -69.957 -364.09 58.031 52.721 1.5786
-20.122 -69.957 -364.09 58.031 52.721 1.5786
-20.122 -69.957 -364.09 58.031 52.721 1.5786
-20.122 -69.957 -364.09 58.031 52.721 1.5786
-28.379 -85.643 -375 -37.094 54.978 -5.961
-28.379 -85.643 -375 -37.094 54.978 -5.961
-28.379 -85.643 -375 -37.094 54.978 -5.961
-28.379 -85.643 -375 -37.094 54.978 -5.961
-28.379 -85.643 -375 -37.094 54.978 -5.961
-20.122 -69.957 -364.09 58.031 52.721 1.5786
-20.122 -69.957 -364.09 58.031 52.721 1.5786
-20.122 -69.957 -364.09 58.031 52.721 1.5786
-20.122 -69.957 -364.09 58.031 52.721 1.5786
-20.122 -69.957 -364.09 58.031 52.721 1.5786
-28.379 -85.643 -375 -37.094 54.978 -5.961
-28.379 -85.643 -375 -37.094 54.978 -5.961
-28.379 -85.643 -375 -37.094 54.978 -5.961
-28.379 -85.643 -375 -37.094 54.978 -5.961
-28.379 -85.643 -375 -37.094 54.978 -5.961
-20.122 -69.957 -364.09 58.031 52.721 1.5786
-20.122 -69.957 -364.09 58.031 52.721 1.5786
-20.122 -69.957 -364.09 58.031 52.721 1.5786
-20.122 -69.957 -364.09 58.031 52.721 1.5786
-20.122 -69.957 -364.09 58.031 52.721 1.5786
-28.379 -85.643 -375 -37.094 54.978 -5.961
-28.379 -85.643 -375 -37.094 54.978 -5.961
-28.379 -85.643 -375 -37.094 54.978 -5.961
-28.379 -85.643 -375 -37.094 54.978 -5.961
-28.379 -85.643 -375 -37.094 54.978 -5.961
-20.122 -69.957 -364.09 58.031 52.721 1.5786
-20.122 -69.957 -364.09 58.031 52.721 1.5786
-20.122 -69.957 -364.09 58.031 52.721 1.5786
-20.122 -69.957 -364.09 58.031 52.721 1.5786
-20.122 -69.957 -364.09 58.031 52.721 1.5786
-28.379 -85.643 -375 -37.094 54.978 -5.961
-28.379 -85.643 -375 -37.094 54.978 -5.961
-28.379 -85.643 -375 -37.094 54.978 -5.961
-28.379 -85.643 -375 -37.094 54.978 -5.961
-28.379 -85.643 -375 -37.094 54.978 -5.961
-20.122 -69.957 -364.09 58.031 52.721 1.5786
-20.122 -69.957 -364.09 58.031 52.721 1.5786
-20.122 -69.957 -364.09 58.031 52.721 1.5786
-20.122 -69.957 -364.09 58.031 52.721 1.5786
-20.122 -69.957 -364.09 58.031 52.721 1.5786
-28.379 -85.643 -375 -37.094 54.978 -5.961
-28.379 -85.643 -375 -37.094 54.978 -5.961
-28.379 -85.643 -375 -37.094 54.978 -5.961
-28.379 -85.643 -375 -37.094 54.978 -5.961
-28.379 -85.643 -375 -37.094 54.978 -5.961
-20.122 -69.957 -364.09 58.031 52.721 1.5786
-20.122 -69.957 -364.09 58.031 52.721 1.5786
-20.122 -69.957 -364.09 58.031 52.721 1.5786
-20.122 -69.957 -364.09 58.031 52.721 1.5786
-20.122 -69.957 -364.09 58.031 52.721 1.5786
-28.379 -85.643 -375 -37.094 54.978 -5.961
-28.379 -85.643 -375 -37.094 54.978 -5.961
-28.379 -85.643 -375 -37.094 54.978 -5.961
-28.379 -85.643 -375 -37.094 54.978 -5.961
-28.379 -85.643 -375 -37.094 54.978 -5.961
-20.122 -69.957 -364.09 58.031 52.721 1.5786
-20.122 -69.957 -364.09 58.031 52.721 1.5786
-20.122 -69.957 -364.09 58.031 52.721 1.5786
-20.122 -69.957 -364.09 58.031 52.721 1.5786
-20.122 -69.957 -364.09 58.031 52.721 1.5786
-28.379 -85.643 -375 -37.094 54.978 -5.961
-28.379 -85.643 -375 -37.094 54.978 -5.961
-28.379 -85.643 -375 -37.094 54.978 -5.961
-28.379 -85.643 -375 -37.094 54.978 -5.961
-28.379 -85.643 -375 -37.094 54.978 -5.961
-20.122 -69.957 -364.09 58.031 52.721 1.5786
-20.122 -69.957 -364.09 58.031 52.721 1.5786
-20.122 -69.957 -364.09 58.031 52.721 1.5786
-20.122 -69.957 -364.09 58.031 52.721 1.5786
-20.122 -69.957 -364.09 58.031 52.721 1.5786
-28.379 -85.643 -375 -37.094 54.978 -5.961
-28.379 -85.643 -375 -37.094 54.978 -5.961
-28.379 -85.643 -375 -37.094 54.978 -5.961
-28.379 -85.643 -375 -37.094 54.978 -5.961
-28.379 -85.643 -375 -37.094 54.978 -5.961
-20.122 -69.957 -364.09 58.031 52.721 1.5786
-20.122 -69.957 -364.09 58.031 52.721 1.5786
-20.122 -69.957 -364.09 58.031 52.721 1.5786
-20.122 -69.957 -364.09 58.031 52.721 1.5786
-20.122 -69.957 -364.09 58.031 52.721 1.5786
-28.379 -85.643 -375 -37.094 54.978 -5.961
-28.379 -85.643 -375 -37.094 54.978 -5.961
-28.379 -85.643 -375 -37.094 54.978 -5.961
-28.379 -85.643 -375 -37.094 54.978 -5.961
-28.379 -85.643 -375 -37.094 54.978 -5.961
-20.122 -69.957 -364.09 58.031 52.721 1.5786
-20.122 -69.957 -364.09 58.031 52.721 1.5786
-20.122 -69.957 -364.09 58.031 52.721 1.5786
-20.122 -69.957 -364.09 58.031 52.721 1.5786
-20.122 -69.957 -364.09 58.031 52.721 1.5786
-28.379 -85.643 -375 -37.094 54.978 -5.961
-28.379 -85.643 -375 -37.094 54.978 -5.961
-28.379 -85.643 -375 -37.094 54.978 -5.961
-28.379 -85.643 -375 -37.094 54.978 -5.961
-28.379 -85.643 -375 -37.094 54.978 -5.961
-20.122 -69.957 -364.09 58.031 52.721 1.5786
-20.122 -69.957 -364.09 58.031 52.721 1.5786
-20.122 -69.957 -364.09 58.031 52.721 1.5786
-20.122 -69.957 -364.09 58.031 52.721 1.5786
-20.122 -69.957 -364.09 58.031 52.721 1.5786
-28.379 -85.643 -375 -37.094 54.978 -5.961
-28.379 -85.643 -375 -37.094 54.978 -5.961
-28.379 -85.643 -375 -37.094 54.978 -5.961
-28.379 -85.643 -375 -37.094 54.978 -5.961
-28.379 -85.643 -375 -37.094 54.978 -5.961
-20.122 -69.957 -364.09 58.031 52.721 1.5786
-20.122 -69.957 -364.09 58.031 52.721 1.5786
-20.122 -69.957 -364.09 58.031 52.721 1.5786
-20.122 -69.957 -364.09 58.031 52.721 1.5786
-20.122 -69.957 -364.09 58.031 52.721 1.5786
-28.379 -85.643 -375 -37.094 54.978 -5.961
-28.379 -85.643 -375 -37.094 54.978 -5.961
-28.379 -85.643 -375 -37.094 54.978 -5.961
-28.379 -85.643 -375 -37.094 54.978 -5.961
-28.379 -85.643 -375 -37.094 54.978 -5.961
-20.122 -69.957 -364.09 58.031 52.721 1.5786
-20.122 -69.957 -364.09 58.031 52.721 1.5786
-20.122 -69.957 -364.09 58.031 52.721 1.5786
-20.122 -69.957 -364.09 58.031 52.721 1.5786
-20.122 -69.957 -364.09 58.031 52.721 1.5786
-28.379 -85.643 -375 -37.094 54.978 -5.961
-28.379 -85.643 -375 -37.094 54.978 -5.961
-28.379 -85.643 -375 -37.094 54.978 -5.961
-28.379 -85.643 -375 -37.094 54.978 -5.961
-28.379 -85.643 -375 -37.094 54.978 -5.961
-20.122 -69.957 -364.09 58.031 52.721 1.5786
-20.122 -69.957 -364.09 58.031 52.721 1.5786
-20.122 -69.957 -364.09 58.031 52.721 1.5786
-20.122 -69.957 -364.09 58.031 52.721 1.5786
-20.122 -69.957 -364.09 58.031 52.721 1.5786
-28.379 -85.643 -375 -37.094 54.978 -5.961
-28.379 -85.643 -375 -37.094 54.978 -5.961
-28.379 -85.643 -375 -37.094 54.978 -5.961
-28.379 -85.643 -375 -37.094 54.978 -5.961
-28.379 -85.643 -375 -37.094 54.978 -5.961
-20.122 -69.957 -364.09 58.031 52.721 1.5786
-20.122 -69.957 -364.09 58.031 52.721 1.5786
-20.122 -69.957 -364.09 58.031 52.721 1.5786
-20.122 -69.957 -364.09 58.031 52.721 1.5786
-20.122 -69.957 -364.09 58.031 52.721 1.5786
-28.379 -85.643 -375 -37.094 54.978 -5.961
-28.379 -85.643 -375 -37.094 54.978 -5.961
-28.379 -85.643 -375 -37.094 54.978 -5.961
-28.379 -85.643 -375 -37.094 54.978 -5.961
-28.379 -85.643 -375 -37.094 54.978 -5.961
-20.122 -69.957 -364.09 58.031 52.721 1.5786
-20.122 -69.957 -364.09 58.031 52.721 1.5786
-20.122 -69.957 -364.09 58.031 52.721 1.5786
-20.122 -69.957 -364.09 58.031 52.721 1.5786
-20.122 -69.957 -364.09 58.031 52.721 1.5786
-28.379 -85.643 -375 -37.094 54.978 -5.961
-28.379 -85.643 -375 -37.094 54.978 -5.961
-28.379 -85.643 -375 -37.094 54.978 -5.961
-28.379 -85.643 -375 -37.094 54.978 -5.961
-28.379 -85.643 -375 -37.094 54.978 -5.961
-20.122 -69.957 -364.09 58.031 52.721 1.5786
-20.122 -69.957 -364.09 58.031 52.721 1.5786
-20.122 -69.957 -364.09 58.031 52.721 1.5786
-20.122 -69.957 -364.09 58.031 52.721 1.5786
-20.122 -69.957 -364.09 58.031 52.721 1.5786
-28.379 -85.643 -375 -37.094 54.978 -5.961
-28.379 -85.643 -375 -37.094 54.978 -5.961
-28.379 -85.643 -375 -37.094 54.978 -5.961
-28.379 -85.643 -375 -37.094 54.978 -5.961
-28.379 -85.643 -375 -37.094 54.978 -5.961
-20.122 -69.957 -364.09 58.031 52.721 1.5786
-20.122 -69.957 -364.09 58.031 52.721 1.5786
-20.122 -69.957 -364.09 58.031 52.721 1.5786
-20.122 -69.957 -364.09 58.031 52.721 1.5786
-20.122 -69.957 -364.09 58.031 52.721 1.5786
-28.379 -85.643 -375 -37.094 54.978 -5.961
-28.379 -85.643 -375 -37.094 54.978 -5.961
-28.379 -85.643 -375 -37.094 54.978 -5.961
-28.379 -85.643 -375 -37.094 54.978 -5.961
-28.379 -85.643 -375 -37.094 54.978 -5.961
-20.122 -69.957 -364.09 58.031 52.721 1.5786
-20.122 -69.957 -364.09 58.031 52.721 1.5786
-20.122 -69.957 -364.09 58.031 52.721 1.5786
-20.122 -69.957 -364.09 58.031 52.721 1.5786
-20.122 -69.957 -364.09 58.031 52.721 1.5786
-28.379 -85.643 -375 -37.094 54.978 -5.961
-28.379 -85.643 -375 -37.094 54.978 -5.961
-28.379 -85.643 -375 -37.094 54.978 -5.961
-28.379 -85.643 -375 -37.094 54.978 -5.961
-28.379 -85.643 -375 -37.094 54.978 -5.961
-20.387 -119.09 -196.57 13.815 71.055 2.1841
-20.387 -119.09 -196.57 13.815 71.055 2.1841
-20.387 -119.09 -196.57 13.815 71.055 2.1841
-20.387 -119.09 -196.57 13.815 71.055 2.1841
-20.387 -119.09 -196.57 13.815 71.055 2.1841
-19.324 -114.56 -197.76 -23.448 69.281 -2.7092
-19.324 -114.56 -197.76 -23.448 69.281 -2.7092
-19.324 -114.56 -197.76 -23.448 69.281 -2.7092
-19.324 -114.56 -197.76 -23.448 69.281 -2.7092
-19.324 -114.56 -197.76 -23.448 69.281 -2.7092
-20.387 -119.09 -196.57 13.815 71.055 2.1841
-20.387 -119.09 -196.57 13.815 71.055 2.1841
-20.387 -119.09 -196.57 13.815 71.055 2.1841
-20.387 -119.09 -196.57 13.815 71.055 2.1841
-20.387 -119.09 -196.57 13.815 71.055 2.1841
-19.324 -114.56 -197.76 -23.448 69.281 -2.7092
-19.324 -114.56 -197.76 -23.448 69.281 -2.7092
-19.324 -114.56 -197.76 -23.448 69.281 -2.7092
-19.324 -114.56 -197.76 -23.448 69.281 -2.7092
-19.324 -114.56 -197.76 -23.448 69.281 -2.7092
-20.387 -119.09 -196.57 13.815 71.055 2.1841
-20.387 -119.09 -196.57 13.815 71.055 2.1841
-20.387 -119.09 -196.57 13.815 71.055 2.1841
-20.387 -119.09 -196.57 13.815 71.055 2.1841
-20.387 -119.09 -196.57 13.815 71.055 2.1841
-19.324 -114.56 -197.76 -23.448 69.281 -2.7092
-19.324 -114.56 -197.76 -23.448 69.281 -2.7092
-19.324 -114.56 -197.76 -23.448 69.281 -2.7092
-19.324 -114.56 -197.76 -23.448 69.281 -2.7092
-19.324 -114.56 -197.76 -23.448 69.281 -2.7092
-20.387 -119.09 -196.57 13.815 71.055 2.1841
-20.387 -119.09 -196.57 13.815 71.055 2.1841
-20.387 -119.09 -196.57 13.815 71.055 2.1841
-20.387 -119.09 -196.57 13.815 71.055 2.1841
-20.387 -119.09 -196.57 13.815 71.055 2.1841
-19.324 -114.56 -197.76 -23.448 69.281 -2.7092
-19.324 -114.56 -197.76 -23.448 69.281 -2.7092
-19.324 -114.56 -197.76 -23.448 69.281 -2.7092
-19.324 -114.56 -197.76 -23.448 69.281 -2.7092
-19.324 -114.56 -197.76 -23.448 69.281 -2.7092
-20.387 -119.09 -196.57 13.815 71.055 2.1841
-20.387 -119.09 -196.57 13.815 71.055 2.1841
-20.387 -119.09 -196.57 13.815 71.055 2.1841
-20.387 -119.09 -196.57 13.815 71.055 2.1841
-20.387 -119.09 -196.57 13.815 71.055 2.1841
-19.324 -114.56 -197.76 -23.448 69.281 -2.7092
-19.324 -114.56 -197.76 -23.448 69.281 -2.7092
-19.324 -114.56 -197.76 -23.448 69.281 -2.7092
-19.324 -114.56 -197.76 -23.448 69.281 -2.7092
-19.324 -114.56 -197.76 -23.448 69.281 -2.7092
-20.387 -119.09 -196.57 13.815 71.055 2.1841
-20.387 -119.09 -196.57 13.815 71.055 2.1841
-20.387 -119.09 -196.57 13.815 71.055 2.1841
-20.387 -119.09 -196.57 13.815 71.055 2.1841
-20.387 -119.09 -196.57 13.815 71.055 2.1841
-19.324 -114.56 -197.76 -23.448 69.281 -2.7092
-19.324 -114.56 -197.76 -23.448 69.281 -2.7092
-19.324 -114.56 -197.76 -23.448 69.281 -2.7092
-19.324 -114.56 -197.76 -23.448 69.281 -2.7092
-19.324 -114.56 -197.76 -23.448 69.281 -2.7092
-20.387 -119.09 -196.57 13.815 71.055 2.1841
-20.387 -119.09 -196.57 13.815 71.055 2.1841
-20.387 -119.09 -196.57 13.815 71.055 2.1841
-20.387 -119.09 -196.57 13.815 71.055 2.1841
-20.387 -119.09 -196.57 13.815 71.055 2.1841
-19.324 -114.56 -197.76 -23.448 69.281 -2.7092
-19.324 -114.56 -197.76 -23.448 69.281 -2.7092
-19.324 -114.56 -197.76 -23.448 69.281 -2.7092
-19.324 -114.56 -197.76 -23.448 69.281 -2.7092
-19.324 -114.56 -197.76 -23.448 69.281 -2.7092
-20.387 -119.09 -196.57 13.815 71.055 2.1841
-20.387 -119.09 -196.57 13.815 71.055 2.1841
-20.387 -119.09 -196.57 13.815 71.055 2.1841
-20.387 -119.09 -196.57 13.815 71.055 2.1841
-20.387 -119.09 -196.57 13.815 71.055 2.1841
-19.324 -114.56 -197.76 -23.448 69.281 -2.7092
-19.324 -114.56 -197.76 -23.448 69.281 -2.7092
-19.324 -114.56 -197.76 -23.448 69.281 -2.7092
-19.324 -114.56 -197.76 -23.448 69.281 -2.7092
-19.324 -114.56 -197.76 -23.448 69.281 -2.7092
-20.387 -119.09 -196.57 13.815 71.055 2.1841
-20.387 -119.09 -196.57 13.815 71.055 2.1841
-20.387 -119.09 -196.57 13.815 71.055 2.1841
-20.387 -119.09 -196.57 13.815 71.055 2.1841
-20.387 -119.09 -196.57 13.815 71.055 2.1841
-19.324 -114.56 -197.76 -23.448 69.281 -2.7092
-19.324 -114.56 -197.76 -23.448 69.281 -2.7092
-19.324 -114.56 -197.76 -23.448 69.281 -2.7092
-19.324 -114.56 -197.76 -23.448 69.281 -2.7092
-19.324 -114.56 -197.76 -23.448 69.281 -2.7092
-20.387 -119.09 -196.57 13.815 71.055 2.1841
-20.387 -119.09 -196.57 13.815 71.055 2.1841
-20.387 -119.09 -196.57 13.815 71.055 2.1841
-20.387 -119.09 -196.57 13.815 71.055 2.1841
-20.387 -119.09 -196.57 13.815 71.055 2.1841
-19.324 -114.56 -197.76 -23.448 69.281 -2.7092
-19.324 -114.56 -197.76 -23.448 69.281 -2.7092
-19.324 -114.56 -197.76 -23.448 69.281 -2.7092
-19.324 -114.56 -197.76 -23.448 69.281 -2.7092
-19.324 -114.56 -197.76 -23.448 69.281 -2.7092
-20.122 -69.957 -364.09 58.031 52.721 1.5786
-20.122 -69.957 -364.09 58.031 52.721 1.5786
-20.122 -69.957 -364.09 58.031 52.721 1.5786
-20.122 -69.957 -364.09 58.031 52.721 1.5786
-20.122 -69.957 -364.09 58.031 52.721 1.5786
-28.379 -85.643 -375 -37.094 54.978 -5.961
-28.379 -85.643 -375 -37.094 54.978 -5.961
-28.379 -85.643 -375 -37.094 54.978 -5.961
-28.379 -85.643 -375 -37.094 54.978 -5.961
-28.379 -85.643 -375 -37.094 54.978 -5.961
-20.122 -69.957 -364.09 58.031 52.721 1.5786
-20.122 -69.957 -364.09 58.031 52.721 1.5786
-20.122 -69.957 -364.09 58.031 52.721 1.5786
-20.122 -69.957 -364.09 58.031 52.721 1.5786
-20.122 -69.957 -364.09 58.031 52.721 1.5786
-28.379 -85.643 -375 -37.094 54.978 -5.961
-28.379 -85.643 -375 -37.094 54.978 -5.961
-28.379 -85.643 -375 -37.094 54.978 -5.961
-28.379 -85.643 -375 -37.094 54.978 -5.961
-28.379 -85.643 -375 -37.094 54.978 -5.961
-20.122 -69.957 -364.09 58.031 52.721 1.5786
-20.122 -69.957 -364.09 58.031 52.721 1.5786
-20.122 -69.957 -364.09 58.031 52.721 1.5786
-20.122 -69.957 -364.09 58.031 52.721 1.5786
-20.122 -69.957 -364.09 58.031 52.721 1.5786
-28.379 -85.643 -375 -37.094 54.978 -5.961
-28.379 -85.643 -375 -37.094 54.978 -5.961
-28.379 -85.643 -375 -37.094 54.978 -5.961
-28.379 -85.643 -375 -37.094 54.978 -5.961
-28.379 -85.643 -375 -37.094 54.978 -5.961
-20.122 -69.957 -364.09 58.031 52.721 1.5786
-20.122 -69.957 -364.09 58.031 52.721 1.5786
-20.122 -69.957 -364.09 58.031 52.721 1.5786
-20.122 -69.957 -364.09 58.031 52.721 1.5786
-20.122 -69.957 -364.09 58.031 52.721 1.5786
-28.379 -85.643 -375 -37.094 54.978 -5.961
-28.379 -85.643 -375 -37.094 54.978 -5.961
-28.379 -85.643 -375 -37.094 54.978 -5.961
-28.379 -85.643 -375 -37.094 54.978 -5.961
-28.379 -85.643 -375 -37.094 54.978 -5.961
-20.122 -69.957 -364.09 58.031 52.721 1.5786
-20.122 -69.957 -364.09 58.031 52.721 1.5786
-20.122 -69.957 -364.09 58.031 52.721 1.5786
-20.122 -69.957 -364.09 58.031 52.721 1.5786
-20.122 -69.957 -364.09 58.031 52.721 1.5786
-28.379 -85.643 -375 -37.094 54.978 -5.961
-28.379 -85.643 -375 -37.094 54.978 -5.961
-28.379 -85.643 -375 -37.094 54.978 -5.961
-28.379 -85.643 -375 -37.094 54.978 -5.961
-28.379 -85.643 -375 -37.094 54.978 -5.961
-20.122 -69.957 -364.09 58.031 52.721 1.5786
-20.122 -69.957 -364.09 58.031 52.721 1.5786
-20.122 -69.957 -364.09 58.031 52.721 1.5786
-20.122 -69.957 -364.09 58.031 52.721 1.5786
-20.122 -69.957 -364.09 58.031 52.721 1.5786
-28.379 -85.643 -375 -37.094 54.978 -5.961
-28.379 -85.643 -375 -37.094 54.978 -5.961
-28.379 -85.643 -375 -37.094 54.978 -5.961
-28.379 -85.643 -375 -37.094 54.978 -5.961
-28.379 -85.643 -375 -37.094 54.978 -5.961
-20.122 -69.957 -364.09 58.031 52.721 1.5786
-20.122 -69.957 -364.09 58.031 52.721 1.5786
-20.122 -69.957 -364.09 58.031 52.721 1.5786
-20.122 -69.957 -364.09 58.031 52.721 1.5786
-20.122 -69.957 -364.09 58.031 52.721 1.5786
-28.379 -85.643 -375 -37.094 54.978 -5.961
-28.379 -85.643 -375 -37.094 54.978 -5.961
-28.379 -85.643 -375 -37.094 54.978 -5.961
-28.379 -85.643 -375 -37.094 54.978 -5.961
-28.379 -85.643 -375 -37.094 54.978 -5.961
-20.122 -69.957 -364.09 58.031 52.721 1.5786
-20.122 -69.957 -364.09 58.031 52.721 1.5786
-20.122 -69.957 -364.09 58.031 52.721 1.5786
-20.122 -69.957 -364.09 58.031 52.721 1.5786
-20.122 -69.957 -364.09 58.031 52.721 1.5786
-28.379 -85.643 -375 -37.094 54.978 -5.961
-28.379 -85.643 -375 -37.094 54.978 -5.961
-28.379 -85.643 -375 -37.094 54.978 -5.961
-28.379 -85.643 -375 -37.094 54.978 -5.961
-28.379 -85.643 -375 -37.094 54.978 -5.961
-20.122 -69.957 -364.09 58.031 52.721 1.5786
-20.122 -69.957 -364.09 58.031 52.721 1.5786
-20.122 -69.957 -364.09 58.031 52.721 1.5786
-20.122 -69.957 -364.09 58.031 52.721 1.5786
-20.122 -69.957 -364.09 58.031 52.721 1.5786
-28.379 -85.643 -375 -37.094 54.978 -5.961
-28.379 -85.643 -375 -37.094 54.978 -5.961
-28.379 -85.643 -375 -37.094 54.978 -5.961
-28.379 -85.643 -375 -37.094 54.978 -5.961
-28.379 -85.643 -375 -37.094 54.978 -5.961
-20.122 -69.957 -364.09 58.031 52.721 1.5786
-20.122 -69.957 -364.09 58.031 52.721 1.5786
-20.122 -69.957 -364.09 58.031 52.721 1.5786
-20.122 -69.957 -364.09 58.031 52.721 1.5786
-20.122 -69.957 -364.09 58.031 52.721 1.5786
-28.379 -85.643 -375 -37.094 54.978 -5.961
-28.379 -85.643 -375 -37.094 54.978 -5.961
-28.379 -85.643 -375 -37.094 54.978 -5.961
-28.379 -85.643 -375 -37.094 54.978 -5.961
-28.379 -85.643 -375 -37.094 54.978 -5.961
-20.122 -69.957 -364.09 58.031 52.721 1.5786
-20.122 -69.957 -364.09 58.031 52.721 1.5786
-20.122 -69.957 -364.09 58.031 52.721 1.5786
-20.122 -69.957 -364.09 58.031 52.721 1.5786
-20.122 -69.957 -364.09 58.031 52.721 1.5786
-28.379 -85.643 -375 -37.094 54.978 -5.961
-28.379 -85.643 -375 -37.094 54.978 -5.961
-28.379 -85.643 -375 -37.094 54.978 -5.961
-28.379 -85.643 -375 -37.094 54.978 -5.961
-28.379 -85.643 -375 -37.094 54.978 -5.961
-20.122 -69.957 -364.09 58.031 52.721 1.5786
-20.122 -69.957 -364.09 58.031 52.721 1.5786
-20.122 -69.957 -364.09 58.031 52.721 1.5786
-20.122 -69.957 -364.09 58.031 52.721 1.5786
-20.122 -69.957 -364.09 58.031 52.721 1.5786
-28.379 -85.643 -375 -37.094 54.978 -5.961
-28.379 -85.643 -375 -37.094 54.978 -5.961
-28.379 -85.643 -375 -37.094 54.978 -5.961
-28.379 -85.643 -375 -37.094 54.978 -5.961
-28.379 -85.643 -375 -37.094 54.978 -5.961
-20.122 -69.957 -364.09 58.031 52.721 1.5786
-20.122 -69.957 -364.09 58.031 52.721 1.5786
-20.122 -69.957 -364.09 58.031 52.721 1.5786
-20.122 -69.957 -364.09 58.031 52.721 1.5786
-20.122 -69.957 -364.09 58.031 52.721 1.5786
-28.379 -85.643 -375 -37.094 54.978 -5.961
-28.379 -85.643 -375 -37.094 54.978 -5.961
-28.379 -85.643 -375 -37.094 54.978 -5.961
-28.379 -85.643 -375 -37.094 54.978 -5.961
-28.379 -85.643 -375 -37.094 54.978 -5.961
-20.122 -69.957 -364.09 58.031 52.721 1.5786
-20.122 -69.957 -364.09 58.031 52.721 1.5786
-20.122 -69.957 -364.09 58.031 52.721 1.5786
-20.122 -69.957 -364.09 58.031 52.721 1.5786
-20.122 -69.957 -364.09 58.031 52.721 1.5786
-28.379 -85.643 -375 -37.094 54.978 -5.961
-28.379 -85.643 -375 -37.094 54.978 -5.961
-28.379 -85.643 -375 -37.094 54.978 -5.961
-28.379 -85.643 -375 -37.094 54.978 -5.961
-28.379 -85.643 -375 -37.094 54.978 -5.961
-20.122 -69.957 -364.09 58.031 52.721 1.5786
-20.122 -69.957 -364.09 58.031 52.721 1.5786
-20.122 -69.957 -364.09 58.031 52.721 1.5786
-20.122 -69.957 -364.09 58.031 52.721 1.5786
-20.122 -69.957 -364.09 58.031 52.721 1.5786
-28.379 -85.643 -375 -37.094 54.978 -5.961
-28.379 -85.643 -375 -37.094 54.978 -5.961
-28.379 -85.643 -375 -37.094 54.978 -5.961
-28.379 -85.643 -375 -37.094 54.978 -5.961
-28.379 -85.643 -375 -37.094 54.978 -5.961
-20.122 -69.957 -364.09 58.031 52.721 1.5786
-20.122 -69.957 -364.09 58.031 52.721 1.5786
-20.122 -69.957 -364.09 58.031 52.721 1.5786
-20.122 -69.957 -364.09 58.031 52.721 1.5786
-20.122 -69.957 -364.09 58.031 52.721 1.5786
-28.379 -85.643 -375 -37.094 54.978 -5.961
-28.379 -85.643 -375 -37.094 54.978 -5.961
-28.379 -85.643 -375 -37.094 54.978 -5.961
-28.379 -85.643 -375 -37.094 54.978 -5.961
-28.379 -85.643 -375 -37.094 54.978 -5.961
-20.122 -69.957 -364.09 58.031 52.721 1.5786
-20.122 -69.957 -364.09 58.031 52.721 1.5786
-20.122 -69.957 -364.09 58.031 52.721 1.5786
-20.122 -69.957 -364.09 58.031 52.721 1.5786
-20.122 -69.957 -364.09 58.031 52.721 1.5786
-28.379 -85.643 -375 -37.094 54.978 -5.961
-28.379 -85.643 -375 -37.094 54.978 -5.961
-28.379 -85.643 -375 -37.094 54.978 -5.961
-28.379 -85.643 -375 -37.094 54.978 -5.961
-28.379 -85.643 -375 -37.094 54.978 -5.961
-20.122 -69.957 -364.09 58.031 52.721 1.5786
-20.122 -69.957 -364.09 58.031 52.721 1.5786
-20.122 -69.957 -364.09 58.031 52.721 1.5786
-20.122 -69.957 -364.09 58.031 52.721 1.5786
-20.122 -69.957 -364.09 58.031 52.721 1.5786
-28.379 -85.643 -375 -37.094 54.978 -5.961
-28.379 -85.643 -375 -37.094 54.978 -5.961
-28.379 -85.643 -375 -37.094 54.978 -5.961
-28.379 -85.643 -375 -37.094 54.978 -5.961
-28.379 -85.643 -375 -37.094 54.978 -5.961
-20.122 -69.957 -364.09 58.031 52.721 1.5786
-20.122 -69.957 -364.09 58.031 52.721 1.5786
-20.122 -69.957 -364.09 58.031 52.721 1.5786
-20.122 -69.957 -364.09 58.031 52.721 1.5786
-20.122 -69.957 -364.09 58.031 52.721 1.5786
-28.379 -85.643 -375 -37.094 54.978 -5.961
-28.379 -85.643 -375 -37.094 54.978 -5.961
-28.379 -85.643 -375 -37.094 54.978 -5.961
-28.379 -85.643 -375 -37.094 54.978 -5.961
-28.379 -85.643 -375 -37.094 54.978 -5.961
-20.122 -69.957 -364.09 58.031 52.721 1.5786
-20.122 -69.957 -364.09 58.031 52.721 1.5786
-20.122 -69.957 -364.09 58.031 52.721 1.5786
-20.122 -69.957 -364.09 58.031 52.721 1.5786
-20.122 -69.957 -364.09 58.031 52.721 1.5786
-28.379 -85.643 -375 -37.094 54.978 -5.961
-28.379 -85.643 -375 -37.094 54.978 -5.961
-28.379 -85.643 -375 -37.094 54.978 -5.961
-28.379 -85.643 -375 -37.094 54.978 -5.961
-28.379 -85.643 -375 -37.094 54.978 -5.961
-20.387 -119.09 -196.57 13.815 71.055 2.1841
-20.387 -119.09 -196.57 13.815 71.055 2.1841
-20.387 -119.09 -196.57 13.815 71.055 2.1841
-20.387 -119.09 -196.57 13.815 71.055 2.1841
-20.387 -119.09 -196.57 13.815 71.055 2.1841
-19.324 -114.56 -197.76 -23.448 69.281 -2.7092
-19.324 -114.56 -197.76 -23.448 69.281 -2.7092
-19.324 -114.56 -197.76 -23.448 69.281 -2.7092
-19.324 -114.56 -197.76 -23.448 69.281 -2.7092
-19.324 -114.56 -197.76 -23.448 69.281 -2.7092
-20.387 -119.09 -196.57 13.815 71.055 2.1841
-20.387 -119.09 -196.57 13.815 71.055 2.1841
-20.387 -119.09 -196.57 13.815 71.055 2.1841
-20.387 -119.09 -196.57 13.815 71.055 2.1841
-20.387 -119.09 -196.57 13.815 71.055 2.1841
-19.324 -114.56 -197.76 -23.448 69.281 -2.7092
-19.324 -114.56 -197.76 -23.448 69.281 -2.7092
-19.324 -114.56 -197.76 -23.448 69.281 -2.7092
-19.324 -114.56 -197.76 -23.448 69.281 -2.7092
-19.324 -114.56 -197.76 -23.448 69.281 -2.7092
-20.387 -119.09 -196.57 13.815 71.055 2.1841
-20.387 -119.09 -196.57 13.815 71.055 2.1841
-20.387 -119.09 -196.57 13.815 71.055 2.1841
-20.387 -119.09 -196.57 13.815 71.055 2.1841
-20.387 -119.09 -196.57 13.815 71.055 2.1841
-19.324 -114.56 -197.76 -23.448 69.281 -2.7092
-19.324 -114.56 -197.76 -23.448 69.281 -2.7092
-19.324 -114.56 -197.76 -23.448 69.281 -2.7092
-19.324 -114.56 -197.76 -23.448 69.281 -2.7092
-19.324 -114.56 -197.76 -23.448 69.281 -2.7092
-20.387 -119.09 -196.57 13.815 71.055 2.1841
-20.387 -119.09 -196.57 13.815 71.055 2.1841
-20.387 -119.09 -196.57 13.815 71.055 2.1841
-20.387 -119.09 -196.57 13.815 71.055 2.1841
-20.387 -119.09 -196.57 13.815 71.055 2.1841
-19.324 -114.56 -197.76 -23.448 69.281 -2.7092
-19.324 -114.56 -197.76 -23.448 69.281 -2.7092
-19.324 -114.56 -197.76 -23.448 69.281 -2.7092
-19.324 -114.56 -197.76 -23.448 69.281 -2.7092
-19.324 -114.56 -197.76 -23.448 69.281 -2.7092
-20.387 -119.09 -196.57 13.815 71.055 2.1841
-20.387 -119.09 -196.57 13.815 71.055 2.1841
-20.387 -119.09 -196.57 13.815 71.055 2.1841
-20.387 -119.09 -196.57 13.815 71.055 2.1841
-20.387 -119.09 -196.57 13.815 71.055 2.1841
-19.324 -114.56 -197.76 -23.448 69.281 -2.7092
-19.324 -114.56 -197.76 -23.448 69.281 -2.7092
-19.324 -114.56 -197.76 -23.448 69.281 -2.7092
-19.324 -114.56 -197.76 -23.448 69.281 -2.7092
-19.324 -114.56 -197.76 -23.448 69.281 -2.7092
-20.387 -119.09 -196.57 13.815 71.055 2.1841
-20.387 -119.09 -196.57 13.815 71.055 2.1841
-20.387 -119.09 -196.57 13.815 71.055 2.1841
-20.387 -119.09 -196.57 13.815 71.055 2.1841
-20.387 -119.09 -196.57 13.815 71.055 2.1841
-19.324 -114.56 -197.76 -23.448 69.281 -2.7092
-19.324 -114.56 -197.76 -23.448 69.281 -2.7092
-19.324 -114.56 -197.76 -23.448 69.281 -2.7092
-19.324 -114.56 -197.76 -23.448 69.281 -2.7092
-19.324 -114.56 -197.76 -23.448 69.281 -2.7092
-20.387 -119.09 -196.57 13.815 71.055 2.1841
-20.387 -119.09 -196.57 13.815 71.055 2.1841
-20.387 -119.09 -196.57 13.815 71.055 2.1841
-20.387 -119.09 -196.57 13.815 71.055 2.1841
-20.387 -119.09 -196.57 13.815 71.055 2.1841
-19.324 -114.56 -197.76 -23.448 69.281 -2.7092
-19.324 -114.56 -197.76 -23.448 69.281 -2.7092
-19.324 -114.56 -197.76 -23.448 69.281 -2.7092
-19.324 -114.56 -197.76 -23.448 69.281 -2.7092
-19.324 -114.56 -197.76 -23.448 69.281 -2.7092
-20.387 -119.09 -196.57 13.815 71.055 2.1841
-20.387 -119.09 -196.57 13.815 71.055 2.1841
-20.387 -119.09 -196.57 13.815 71.055 2.1841
-20.387 -119.09 -196.57 13.815 71.055 2.1841
-20.387 -119.09 -196.57 13.815 71.055 2.1841
-19.324 -114.56 -197.76 -23.448 69.281 -2.7092
-19.324 -114.56 -197.76 -23.448 69.281 -2.7092
-19.324 -114.56 -197.76 -23.448 69.281 -2.7092
-19.324 -114.56 -197.76 -23.448 69.281 -2.7092
-19.324 -114.56 -197.76 -23.448 69.281 -2.7092
-20.387 -119.09 -196.57 13.815 71.055 2.1841
-20.387 -119.09 -196.57 13.815 71.055 2.1841
-20.387 -119.09 -196.57 13.815 71.055 2.1841
-20.387 -119.09 -196.57 13.815 71.055 2.1841
-20.387 -119.09 -196.57 13.815 71.055 2.1841
-19.324 -114.56 -197.76 -23.448 69.281 -2.7092
-19.324 -114.56 -197.76 -23.448 69.281 -2.7092
-19.324 -114.56 -197.76 -23.448 69.281 -2.7092
-19.324 -114.56 -197.76 -23.448 69.281 -2.7092
-19.324 -114.56 -197.76 -23.448 69.281 -2.7092
-20.387 -119.09 -196.57 13.815 71.055 2.1841
-20.387 -119.09 -196.57 13.815 71.055 2.1841
-20.387 -119.09 -196.57 13.815 71.055 2.1841
-20.387 -119.09 -196.57 13.815 71.055 2.1841
-20.387 -119.09 -196.57 13.815 71.055 2.1841
-19.324 -114.56 -197.76 -23.448 69.281 -2.7092
-19.324 -114.56 -197.76 -23.448 69.281 -2.7092
-19.324 -114.56 -197.76 -23.448 69.281 -2.7092
-19.324 -114.56 -197.76 -23.448 69.281 -2.7092
-19.324 -114.56 -197.76 -23.448 69.281 -2.7092
-20.122 -69.957 -364.09 58.031 52.721 1.5786
-20.122 -69.957 -364.09 58.031 52.721 1.5786
-20.122 -69.957 -364.09 58.031 52.721 1.5786
-20.122 -69.957 -364.09 58.031 52.721 1.5786
-20.122 -69.957 -364.09 58.031 52.721 1.5786
-28.379 -85.643 -375 -37.094 54.978 -5.961
-28.379 -85.643 -375 -37.094 54.978 -5.961
-28.379 -85.643 -375 -37.094 54.978 -5.961
-28.379 -85.643 -375 -37.094 54.978 -5.961
-28.379 -85.643 -375 -37.094 54.978 -5.961
-20.122 -69.957 -364.09 58.031 52.721 1.5786
-20.122 -69.957 -364.09 58.031 52.721 1.5786
-20.122 -69.957 -364.09 58.031 52.721 1.5786
-20.122 -69.957 -364.09 58.031 52.721 1.5786
-20.122 -69.957 -364.09 58.031 52.721 1.5786
-28.379 -85.643 -375 -37.094 54.978 -5.961
-28.379 -85.643 -375 -37.094 54.978 -5.961
-28.379 -85.643 -375 -37.094 54.978 -5.961
-28.379 -85.643 -375 -37.094 54.978 -5.961
-28.379 -85.643 -375 -37.094 54.978 -5.961
-20.122 -69.957 -364.09 58.031 52.721 1.5786
-20.122 -69.957 -364.09 58.031 52.721 1.5786
-20.122 -69.957 -364.09 58.031 52.721 1.5786
-20.122 -69.957 -364.09 58.031 52.721 1.5786
-20.122 -69.957 -364.09 58.031 52.721 1.5786
-28.379 -85.643 -375 -37.094 54.978 -5.961
-28.379 -85.643 -375 -37.094 54.978 -5.961
-28.379 -85.643 -375 -37.094 54.978 -5.961
-28.379 -85.643 -375 -37.094 54.978 -5.961
-28.379 -85.643 -375 -37.094 54.978 -5.961
-20.122 -69.957 -364.09 58.031 52.721 1.5786
-20.122 -69.957 -364.09 58.031 52.721 1.5786
-20.122 -69.957 -364.09 58.031 52.721 1.5786
-20.122 -69.957 -364.09 58.031 52.721 1.5786
-20.122 -69.957 -364.09 58.031 52.721 1.5786
-28.379 -85.643 -375 -37.094 54.978 -5.961
-28.379 -85.643 -375 -37.094 54.978 -5.961
-28.379 -85.643 -375 -37.094 54.978 -5.961
-28.379 -85.643 -375 -37.094 54.978 -5.961
-28.379 -85.643 -375 -37.094 54.978 -5.961
-20.122 -69.957 -364.09 58.031 52.721 1.5786
-20.122 -69.957 -364.09 58.031 52.721 1.5786
-20.122 -69.957 -364.09 58.031 52.721 1.5786
-20.122 -69.957 -364.09 58.031 52.721 1.5786
-20.122 -69.957 -364.09 58.031 52.721 1.5786
-28.379 -85.643 -375 -37.094 54.978 -5.961
-28.379 -85.643 -375 -37.094 54.978 -5.961
-28.379 -85.643 -375 -37.094 54.978 -5.961
-28.379 -85.643 -375 -37.094 54.978 -5.961
-28.379 -85.643 -375 -37.094 54.978 -5.961
-20.122 -69.957 -364.09 58.031 52.721 1.5786
-20.122 -69.957 -364.09 58.031 52.721 1.5786
-20.122 -69.957 -364.09 58.031 52.721 1.5786
-20.122 -69.957 -364.09 58.031 52.721 1.5786
-20.122 -69.957 -364.09 58.031 52.721 1.5786
-28.379 -85.643 -375 -37.094 54.978 -5.961
-28.379 -85.643 -375 -37.094 54.978 -5.961
-28.379 -85.643 -375 -37.094 54.978 -5.961
-28.379 -85.643 -375 -37.094 54.978 -5.961
-28.379 -85.643 -375 -37.094 54.978 -5.961
-20.122 -69.957 -364.09 58.031 52.721 1.5786
-20.122 -69.957 -364.09 58.031 52.721 1.5786
-20.122 -69.957 -364.09 58.031 52.721 1.5786
-20.122 -69.957 -364.09 58.031 52.721 1.5786
-20.122 -69.957 -364.09 58.031 52.721 1.5786
-28.379 -85.643 -375 -37.094 54.978 -5.961
-28.379 -85.643 -375 -37.094 54.978 -5.961
-28.379 -85.643 -375 -37.094 54.978 -5.961
-28.379 -85.643 -375 -37.094 54.978 -5.961
-28.379 -85.643 -375 -37.094 54.978 -5.961
-20.122 -69.957 -364.09 58.031 52.721 1.5786
-20.122 -69.957 -364.09 58.031 52.721 1.5786
-20.122 -69.957 -364.09 58.031 52.721 1.5786
-20.122 -69.957 -364.09 58.031 52.721 1.5786
-20.122 -69.957 -364.09 58.031 52.721 1.5786
-28.379 -85.643 -375 -37.094 54.978 -5.961
-28.379 -85.643 -375 -37.094 54.978 -5.961
-28.379 -85.643 -375 -37.094 54.978 -5.961
-28.379 -85.643 -375 -37.094 54.978 -5.961
-28.379 -85.643 -375 -37.094 54.978 -5.961
-20.122 -69.957 -364.09 58.031 52.721 1.5786
-20.122 -69.957 -364.09 58.031 52.721 1.5786
-20.122 -69.957 -364.09 58.031 52.721 1.5786
-20.122 -69.957 -364.09 58.031 52.721 1.5786
-20.122 -69.957 -364.09 58.031 52.721 1.5786
-28.379 -85.643 -375 -37.094 54.978 -5.961
-28.379 -85.643 -375 -37.094 54.978 -5.961
-28.379 -85.643 -375 -37.094 54.978 -5.961
-28.379 -85.643 -375 -37.094 54.978 -5.961
-28.379 -85.643 -375 -37.094 54.978 -5.961
-20.122 -69.957 -364.09 58.031 52.721 1.5786
-20.122 -69.957 -364.09 58.031 52.721 1.5786
-20.122 -69.957 -364.09 58.031 52.721 1.5786
-20.122 -69.957 -364.09 58.031 52.721 1.5786
-20.122 -69.957 -364.09 58.031 52.721 1.5786
-28.379 -85.643 -375 -37.094 54.978 -5.961
-28.379 -85.643 -375 -37.094 54.978 -5.961
-28.379 -85.643 -375 -37.094 54.978 -5.961
-28.379 -85.643 -375 -37.094 54.978 -5.961
-28.379 -85.643 -375 -37.094 54.978 -5.961
-20.122 -69.957 -364.09 58.031 52.721 1.5786
-20.122 -69.957 -364.09 58.031 52.721 1.5786
-20.122 -69.957 -364.09 58.031 52.721 1.5786
-20.122 -69.957 -364.09 58.031 52.721 1.5786
-20.122 -69.957 -364.09 58.031 52.721 1.5786
-28.379 -85.643 -375 -37.094 54.978 -5.961
-28.379 -85.643 -375 -37.094 54.978 -5.961
-28.379 -85.643 -375 -37.094 54.978 -5.961
-28.379 -85.643 -375 -37.094 54.978 -5.961
-28.379 -85.643 -375 -37.094 54.978 -5.961
-20.122 -69.957 -364.09 58.031 52.721 1.5786
-20.122 -69.957 -364.09 58.031 52.721 1.5786
-20.122 -69.957 -364.09 58.031 52.721 1.5786
-20.122 -69.957 -364.09 58.031 52.721 1.5786
-20.122 -69.957 -364.09 58.031 52.721 1.5786
-28.379 -85.643 -375 -37.094 54.978 -5.961
-28.379 -85.643 -375 -37.094 54.978 -5.961
-28.379 -85.643 -375 -37.094 54.978 -5.961
-28.379 -85.643 -375 -37.094 54.978 -5.961
-28.379 -85.643 -375 -37.094 54.978 -5.961
-20.122 -69.957 -364.09 58.031 52.721 1.5786
-20.122 -69.957 -364.09 58.031 52.721 1.5786
-20.122 -69.957 -364.09 58.031 52.721 1.5786
-20.122 -69.957 -364.09 58.031 52.721 1.5786
-20.122 -69.957 -364.09 58.031 52.721 1.5786
-28.379 -85.643 -375 -37.094 54.978 -5.961
-28.379 -85.643 -375 -37.094 54.978 -5.961
-28.379 -85.643 -375 -37.094 54.978 -5.961
-28.379 -85.643 -375 -37.094 54.978 -5.961
-28.379 -85.643 -375 -37.094 54.978 -5.961
-20.122 -69.957 -364.09 58.031 52.721 1.5786
-20.122 -69.957 -364.09 58.031 52.721 1.5786
-20.122 -69.957 -364.09 58.031 52.721 1.5786
-20.122 -69.957 -364.09 58.031 52.721 1.5786
-20.122 -69.957 -364.09 58.031 52.721 1.5786
-28.379 -85.643 -375 -37.094 54.978 -5.961
-28.379 -85.643 -375 -37.094 54.978 -5.961
-28.379 -85.643 -375 -37.094 54.978 -5.961
-28.379 -85.643 -375 -37.094 54.978 -5.961
-28.379 -85.643 -375 -37.094 54.978 -5.961
-20.122 -69.957 -364.09 58.031 52.721 1.5786
-20.122 -69.957 -364.09 58.031 52.721 1.5786
-20.122 -69.957 -364.09 58.031 52.721 1.5786
-20.122 -69.957 -364.09 58.031 52.721 1.5786
-20.122 -69.957 -364.09 58.031 52.721 1.5786
-28.379 -85.643 -375 -37.094 54.978 -5.961
-28.379 -85.643 -375 -37.094 54.978 -5.961
-28.379 -85.643 -375 -37.094 54.978 -5.961
-28.379 -85.643 -375 -37.094 54.978 -5.961
-28.379 -85.643 -375 -37.094 54.978 -5.961
-20.122 -69.957 -364.09 58.031 52.721 1.5786
-20.122 -69.957 -364.09 58.031 52.721 1.5786
-20.122 -69.957 -364.09 58.031 52.721 1.5786
-20.122 -69.957 -364.09 58.031 52.721 1.5786
-20.122 -69.957 -364.09 58.031 52.721 1.5786
-28.379 -85.643 -375 -37.094 54.978 -5.961
-28.379 -85.643 -375 -37.094 54.978 -5.961
-28.379 -85.643 -375 -37.094 54.978 -5.961
-28.379 -85.643 -375 -37.094 54.978 -5.961
-28.379 -85.643 -375 -37.094 54.978 -5.961
-20.122 -69.957 -364.09 58.031 52.721 1.5786
-20.122 -69.957 -364.09 58.031 52.721 1.5786
-20.122 -69.957 -364.09 58.031 52.721 1.5786
-20.122 -69.957 -364.09 58.031 52.721 1.5786
-20.122 -69.957 -364.09 58.031 52.721 1.5786
-28.379 -85.643 -375 -37.094 54.978 -5.961
-28.379 -85.643 -375 -37.094 54.978 -5.961
-28.379 -85.643 -375 -37.094 54.978 -5.961
-28.379 -85.643 -375 -37.094 54.978 -5.961
-28.379 -85.643 -375 -37.094 54.978 -5.961
-20.122 -69.957 -364.09 58.031 52.721 1.5786
-20.122 -69.957 -364.09 58.031 52.721 1.5786
-20.122 -69.957 -364.09 58.031 52.721 1.5786
-20.122 -69.957 -364.09 58.031 52.721 1.5786
-20.122 -69.957 -364.09 58.031 52.721 1.5786
-28.379 -85.643 -375 -37.094 54.978 -5.961
-28.379 -85.643 -375 -37.094 54.978 -5.961
-28.379 -85.643 -375 -37.094 54.978 -5.961
-28.379 -85.643 -375 -37.094 54.978 -5.961
-28.379 -85.643 -375 -37.094 54.978 -5.961
-20.122 -69.957 -364.09 58.031 52.721 1.5786
-20.122 -69.957 -364.09 58.031 52.721 1.5786
-20.122 -69.957 -364.09 58.031 52.721 1.5786
-20.122 -69.957 -364.09 58.031 52.721 1.5786
-20.122 -69.957 -364.09 58.031 52.721 1.5786
-28.379 -85.643 -375 -37.094 54.978 -5.961
-28.379 -85.643 -375 -37.094 54.978 -5.961
-28.379 -85.643 -375 -37.094 54.978 -5.961
-28.379 -85.643 -375 -37.094 54.978 -5.961
-28.379 -85.643 -375 -37.094 54.978 -5.961
-20.122 -69.957 -364.09 58.031 52.721 1.5786
-20.122 -69.957 -364.09 58.031 52.721 1.5786
-20.122 -69.957 -364.09 58.031 52.721 1.5786
-20.122 -69.957 -364.09 58.031 52.721 1.5786
-20.122 -69.957 -364.09 58.031 52.721 1.5786
-28.379 -85.643 -375 -37.094 54.978 -5.961
-28.379 -85.643 -375 -37.094 54.978 -5.961
-28.379 -85.643 -375 -37.094 54.978 -5.961
-28.379 -85.643 -375 -37.094 54.978 -5.961
-28.379 -85.643 -375 -37.094 54.978 -5.961
-20.387 -119.09 -196.57 13.815 71.055 2.1841
-20.387 -119.09 -196.57 13.815 71.055 2.1841
-20.387 -119.09 -196.57 13.815 71.055 2.1841
-20.387 -119.09 -196.57 13.815 71.055 2.1841
-20.387 -119.09 -196.57 13.815 71.055 2.1841
-19.324 -114.56 -197.76 -23.448 69.281 -2.7092
-19.324 -114.56 -197.76 -23.448 69.281 -2.7092
-19.324 -114.56 -197.76 -23.448 69.281 -2.7092
-19.324 -114.56 -197.76 -23.448 69.281 -2.7092
-19.324 -114.56 -197.76 -23.448 69.281 -2.7092
-20.387 -119.09 -196.57 13.815 71.055 2.1841
-20.387 -119.09 -196.57 13.815 71.055 2.1841
-20.387 -119.09 -196.57 13.815 71.055 2.1841
-20.387 -119.09 -196.57 13.815 71.055 2.1841
-20.387 -119.09 -196.57 13.815 71.055 2.1841
-19.324 -114.56 -197.76 -23.448 69.281 -2.7092
-19.324 -114.56 -197.76 -23.448 69.281 -2.7092
-19.324 -114.56 -197.76 -23.448 69.281 -2.7092
-19.324 -114.56 -197.76 -23.448 69.281 -2.7092
-19.324 -114.56 -197.76 -23.448 69.281 -2.7092
-20.387 -119.09 -196.57 13.815 71.055 2.1841
-20.387 -119.09 -196.57 13.815 71.055 2.1841
-20.387 -119.09 -196.57 13.815 71.055 2.1841
-20.387 -119.09 -196.57 13.815 71.055 2.1841
-20.387 -119.09 -196.57 13.815 71.055 2.1841
-19.324 -114.56 -197.76 -23.448 69.281 -2.7092
-19.324 -114.56 -197.76 -23.448 69.281 -2.7092
-19.324 -114.56 -197.76 -23.448 69.281 -2.7092
-19.324 -114.56 -197.76 -23.448 69.281 -2.7092
-19.324 -114.56 -197.76 -23.448 69.281 -2.7092
-20.387 -119.09 -196.57 13.815 71.055 2.1841
-20.387 -119.09 -196.57 13.815 71.055 2.1841
-20.387 -119.09 -196.57 13.815 71.055 2.1841
-20.387 -119.09 -196.57 13.815 71.055 2.1841
-20.387 -119.09 -196.57 13.815 71.055 2.1841
-19.324 -114.56 -197.76 -23.448 69.281 -2.7092
-19.324 -114.56 -197.76 -23.448 69.281 -2.7092
-19.324 -114.56 -197.76 -23.448 69.281 -2.7092
-19.324 -114.56 -197.76 -23.448 69.281 -2.7092
-19.324 -114.56 -197.76 -23.448 69.281 -2.7092
-20.387 -119.09 -196.57 13.815 71.055 2.1841
-20.387 -119.09 -196.57 13.815 71.055 2.1841
-20.387 -119.09 -196.57 13.815 71.055 2.1841
-20.387 -119.09 -196.57 13.815 71.055 2.1841
-20.387 -119.09 -196.57 13.815 71.055 2.1841
-19.324 -114.56 -197.76 -23.448 69.281 -2.7092
-19.324 -114.56 -197.76 -23.448 69.281 -2.7092
-19.324 -114.56 -197.76 -23.448 69.281 -2.7092
-19.324 -114.56 -197.76 -23.448 69.281 -2.7092
-19.324 -114.56 -197.76 -23.448 69.281 -2.7092
-20.387 -119.09 -196.57 13.815 71.055 2.1841
-20.387 -119.09 -196.57 13.815 71.055 2.1841
-20.387 -119.09 -196.57 13.815 71.055 2.1841
-20.387 -119.09 -196.57 13.815 71.055 2.1841
-20.387 -119.09 -196.57 13.815 71.055 2.1841
-19.324 -114.56 -197.76 -23.448 69.281 -2.7092
-19.324 -114.56 -197.76 -23.448 69.281 -2.7092
-19.324 -114.56 -197.76 -23.448 69.281 -2.7092
-19.324 -114.56 -197.76 -23.448 69.281 -2.7092
-19.324 -114.56 -197.76 -23.448 69.281 -2.7092
-20.387 -119.09 -196.57 13.815 71.055 2.1841
-20.387 -119.09 -196.57 13.815 71.055 2.1841
-20.387 -119.09 -196.57 13.815 71.055 2.1841
-20.387 -119.09 -196.57 13.815 71.055 2.1841
-20.387 -119.09 -196.57 13.815 71.055 2.1841
-19.324 -114.56 -197.76 -23.448 69.281 -2.7092
-19.324 -114.56 -197.76 -23.448 69.281 -2.7092
-19.324 -114.56 -197.76 -23.448 69.281 -2.7092
-19.324 -114.56 -197.76 -23.448 69.281 -2.7092
-19.324 -114.56 -197.76 -23.448 69.281 -2.7092
-20.387 -119.09 -196.57 13.815 71.055 2.1841
-20.387 -119.09 -196.57 13.815 71.055 2.1841
-20.387 -119.09 -196.57 13.815 71.055 2.1841
-20.387 -119.09 -196.57 13.815 71.055 2.1841
-20.387 -119.09 -196.57 13.815 71.055 2.1841
-19.324 -114.56 -197.76 -23.448 69.281 -2.7092
-19.324 -114.56 -197.76 -23.448 69.281 -2.7092
-19.324 -114.56 -197.76 -23.448 69.281 -2.7092
-19.324 -114.56 -197.76 -23.448 69.281 -2.7092
-19.324 -114.56 -197.76 -23.448 69.281 -2.7092
-20.387 -119.09 -196.57 13.815 71.055 2.1841
-20.387 -119.09 -196.57 13.815 71.055 2.1841
-20.387 -119.09 -196.57 13.815 71.055 2.1841
-20.387 -119.09 -196.57 13.815 71.055 2.1841
-20.387 -119.09 -196.57 13.815 71.055 2.1841
-19.324 -114.56 -197.76 -23.448 69.281 -2.7092
-19.324 -114.56 -197.76 -23.448 69.281 -2.7092
-19.324 -114.56 -197.76 -23.448 69.281 -2.7092
-19.324 -114.56 -197.76 -23.448 69.281 -2.7092
-19.324 -114.56 -197.76 -23.448 69.281 -2.7092
-20.387 -119.09 -196.57 13.815 71.055 2.1841
-20.387 -119.09 -196.57 13.815 71.055 2.1841
-20.387 -119.09 -196.57 13.815 71.055 2.1841
-20.387 -119.09 -196.57 13.815 71.055 2.1841
-20.387 -119.09 -196.57 13.815 71.055 2.1841
-19.324 -114.56 -197.76 -23.448 69.281 -2.7092
-19.324 -114.56 -197.76 -23.448 69.281 -2.7092
-19.324 -114.56 -197.76 -23.448 69.281 -2.7092
-19.324 -114.56 -197.76 -23.448 69.281 -2.7092
-19.324 -114.56 -197.76 -23.448 69.281 -2.7092
55.452 196.13 447.31 54.231 53.086 -5.4913
55.452 196.13 447.31 54.231 53.086 -5.4913
55.452 196.13 447.31 54.231 53.086 -5.4913
55.452 196.13 447.31 54.231 53.086 -5.4913
55.452 196.13 447.31 54.231 53.086 -5.4913
48.634 181.99 439.15 -41.147 49.739 0.24094
48.634 181.99 439.15 -41.147 49.739 0.24094
48.634 181.99 439.15 -41.147 49.739 0.24094
48.634 181.99 439.15 -41.147 49.739 0.24094
48.634 181.99 439.15 -41.147 49.739 0.24094
55.452 196.13 447.31 54.231 53.086 -5.4913
55.452 196.13 447.31 54.231 53.086 -5.4913
55.452 196.13 447.31 54.231 53.086 -5.4913
55.452 196.13 447.31 54.231 53.086 -5.4913
55.452 196.13 447.31 54.231 53.086 -5.4913
48.634 181.99 439.15 -41.147 49.739 0.24094
48.634 181.99 439.15 -41.147 49.739 0.24094
48.634 181.99 439.15 -41.147 49.739 0.24094
48.634 181.99 439.15 -41.147 49.739 0.24094
48.634 181.99 439.15 -41.147 49.739 0.24094
55.452 196.13 447.31 54.231 53.086 -5.4913
55.452 196.13 447.31 54.231 53.086 -5.4913
55.452 196.13 447.31 54.231 53.086 -5.4913
55.452 196.13 447.31 54.231 53.086 -5.4913
55.452 196.13 447.31 54.231 53.086 -5.4913
48.634 181.99 439.15 -41.147 49.739 0.24094
48.634 181.99 439.15 -41.147 49.739 0.24094
48.634 181.99 439.15 -41.147 49.739 0.24094
48.634 181.99 439.15 -41.147 49.739 0.24094
48.634 181.99 439.15 -41.147 49.739 0.24094
55.452 196.13 447.31 54.231 53.086 -5.4913
55.452 196.13 447.31 54.231 53.086 -5.4913
55.452 196.13 447.31 54.231 53.086 -5.4913
55.452 196.13 447.31 54.231 53.086 -5.4913
55.452 196.13 447.31 54.231 53.086 -5.4913
48.634 181.99 439.15 -41.147 49.739 0.24094
48.634 181.99 439.15 -41.147 49.739 0.24094
48.634 181.99 439.15 -41.147 49.739 0.24094
48.634 181.99 439.15 -41.147 49.739 0.24094
48.634 181.99 439.15 -41.147 49.739 0.24094
55.452 196.13 447.31 54.231 53.086 -5.4913
55.452 196.13 447.31 54.231 53.086 -5.4913
55.452 196.13 447.31 54.231 53.086 -5.4913
55.452 196.13 447.31 54.231 53.086 -5.4913
55.452 196.13 447.31 54.231 53.086 -5.4913
48.634 181.99 439.15 -41.147 49.739 0.24094
48.634 181.99 439.15 -41.147 49.739 0.24094
48.634 181.99 439.15 -41.147 49.739 0.24094
48.634 181.99 439.15 -41.147 49.739 0.24094
48.634 181.99 439.15 -41.147 49.739 0.24094
55.452 196.13 447.31 54.231 53.086 -5.4913
55.452 196.13 447.31 54.231 53.086 -5.4913
55.452 196.13 447.31 54.231 53.086 -5.4913
55.452 196.13 447.31 54.231 53.086 -5.4913
55.452 196.13 447.31 54.231 53.086 -5.4913
48.634 181.99 439.15 -41.147 49.739 0.24094
48.634 181.99 439.15 -41.147 49.739 0.24094
48.634 181.99 439.15 -41.147 49.739 0.24094
48.634 181.99 439.15 -41.147 49.739 0.24094
48.634 181.99 439.15 -41.147 49.739 0.24094
55.452 196.13 447.31 54.231 53.086 -5.4913
55.452 196.13 447.31 54.231 53.086 -5.4913
55.452 196.13 447.31 54.231 53.086 -5.4913
55.452 196.13 447.31 54.231 53.086 -5.4913
55.452 196.13 447.31 54.231 53.086 -5.4913
48.634 181.99 439.15 -41.147 49.739 0.24094
48.634 181.99 439.15 -41.147 49.739 0.24094
48.634 181.99 439.15 -41.147 49.739 0.24094
48.634 181.99 439.15 -41.147 49.739 0.24094
48.634 181.99 439.15 -41.147 49.739 0.24094
55.452 196.13 447.31 54.231 53.086 -5.4913
55.452 196.13 447.31 54.231 53.086 -5.4913
55.452 196.13 447.31 54.231 53.086 -5.4913
55.452 196.13 447.31 54.231 53.086 -5.4913
55.452 196.13 447.31 54.231 53.086 -5.4913
48.634 181.99 439.15 -41.147 49.739 0.24094
48.634 181.99 439.15 -41.147 49.739 0.24094
48.634 181.99 439.15 -41.147 49.739 0.24094
48.634 181.99 439.15 -41.147 49.739 0.24094
48.634 181.99 439.15 -41.147 49.739 0.24094
55.452 196.13 447.31 54.231 53.086 -5.4913
55.452 196.13 447.31 54.231 53.086 -5.4913
55.452 196.13 447.31 54.231 53.086 -5.4913
55.452 196.13 447.31 54.231 53.086 -5.4913
55.452 196.13 447.31 54.231 53.086 -5.4913
48.634 181.99 439.15 -41.147 49.739 0.24094
48.634 181.99 439.15 -41.147 49.739 0.24094
48.634 181.99 439.15 -41.147 49.739 0.24094
48.634 181.99 439.15 -41.147 49.739 0.24094
48.634 181.99 439.15 -41.147 49.739 0.24094
55.452 196.13 447.31 54.231 53.086 -5.4913
55.452 196.13 447.31 54.231 53.086 -5.4913
55.452 196.13 447.31 54.231 53.086 -5.4913
55.452 196.13 447.31 54.231 53.086 -5.4913
55.452 196.13 447.31 54.231 53.086 -5.4913
48.634 181.99 439.15 -41.147 49.739 0.24094
48.634 181.99 439.15 -41.147 49.739 0.24094
48.634 181.99 439.15 -41.147 49.739 0.24094
48.634 181.99 439.15 -41.147 49.739 0.24094
48.634 181.99 439.15 -41.147 49.739 0.24094
55.452 196.13 447.31 54.231 53.086 -5.4913
55.452 196.13 447.31 54.231 53.086 -5.4913
55.452 196.13 447.31 54.231 53.086 -5.4913
55.452 196.13 447.31 54.231 53.086 -5.4913
55.452 196.13 447.31 54.231 53.086 -5.4913
48.634 181.99 439.15 -41.147 49.739 0.24094
48.634 181.99 439.15 -41.147 49.739 0.24094
48.634 181.99 439.15 -41.147 49.739 0.24094
48.634 181.99 439.15 -41.147 49.739 0.24094
48.634 181.99 439.15 -41.147 49.739 0.24094
55.452 196.13 447.31 54.231 53.086 -5.4913
55.452 196.13 447.31 54.231 53.086 -5.4913
55.452 196.13 447.31 54.231 53.086 -5.4913
55.452 196.13 447.31 54.231 53.086 -5.4913
55.452 196.13 447.31 54.231 53.086 -5.4913
48.634 181.99 439.15 -41.147 49.739 0.24094
48.634 181.99 439.15 -41.147 49.739 0.24094
48.634 181.99 439.15 -41.147 49.739 0.24094
48.634 181.99 439.15 -41.147 49.739 0.24094
48.634 181.99 439.15 -41.147 49.739 0.24094
55.452 196.13 447.31 54.231 53.086 -5.4913
55.452 196.13 447.31 54.231 53.086 -5.4913
55.452 196.13 447.31 54.231 53.086 -5.4913
55.452 196.13 447.31 54.231 53.086 -5.4913
55.452 196.13 447.31 54.231 53.086 -5.4913
48.634 181.99 439.15 -41.147 49.739 0.24094
48.634 181.99 439.15 -41.147 49.739 0.24094
48.634 181.99 439.15 -41.147 49.739 0.24094
48.634 181.99 439.15 -41.147 49.739 0.24094
48.634 181.99 439.15 -41.147 49.739 0.24094
55.452 196.13 447.31 54.231 53.086 -5.4913
55.452 196.13 447.31 54.231 53.086 -5.4913
55.452 196.13 447.31 54.231 53.086 -5.4913
55.452 196.13 447.31 54.231 53.086 -5.4913
55.452 196.13 447.31 54.231 53.086 -5.4913
48.634 181.99 439.15 -41.147 49.739 0.24094
48.634 181.99 439.15 -41.147 49.739 0.24094
48.634 181.99 439.15 -41.147 49.739 0.24094
48.634 181.99 439.15 -41.147 49.739 0.24094
48.634 181.99 439.15 -41.147 49.739 0.24094
55.452 196.13 447.31 54.231 53.086 -5.4913
55.452 196.13 447.31 54.231 53.086 -5.4913
55.452 196.13 447.31 54.231 53.086 -5.4913
55.452 196.13 447.31 54.231 53.086 -5.4913
55.452 196.13 447.31 54.231 53.086 -5.4913
48.634 181.99 439.15 -41.147 49.739 0.24094
48.634 181.99 439.15 -41.147 49.739 0.24094
48.634 181.99 439.15 -41.147 49.739 0.24094
48.634 181.99 439.15 -41.147 49.739 0.24094
48.634 181.99 439.15 -41.147 49.739 0.24094
55.452 196.13 447.31 54.231 53.086 -5.4913
55.452 196.13 447.31 54.231 53.086 -5.4913
55.452 196.13 447.31 54.231 53.086 -5.4913
55.452 196.13 447.31 54.231 53.086 -5.4913
55.452 196.13 447.31 54.231 53.086 -5.4913
48.634 181.99 439.15 -41.147 49.739 0.24094
48.634 181.99 439.15 -41.147 49.739 0.24094
48.634 181.99 439.15 -41.147 49.739 0.24094
48.634 181.99 439.15 -41.147 49.739 0.24094
48.634 181.99 439.15 -41.147 49.739 0.24094
55.452 196.13 447.31 54.231 53.086 -5.4913
55.452 196.13 447.31 54.231 53.086 -5.4913
55.452 196.13 447.31 54.231 53.086 -5.4913
55.452 196.13 447.31 54.231 53.086 -5.4913
55.452 196.13 447.31 54.231 53.086 -5.4913
48.634 181.99 439.15 -41.147 49.739 0.24094
48.634 181.99 439.15 -41.147 49.739 0.24094
48.634 181.99 439.15 -41.147 49.739 0.24094
48.634 181.99 439.15 -41.147 49.739 0.24094
48.634 181.99 439.15 -41.147 49.739 0.24094
55.452 196.13 447.31 54.231 53.086 -5.4913
55.452 196.13 447.31 54.231 53.086 -5.4913
55.452 196.13 447.31 54.231 53.086 -5.4913
55.452 196.13 447.31 54.231 53.086 -5.4913
55.452 196.13 447.31 54.231 53.086 -5.4913
48.634 181.99 439.15 -41.147 49.739 0.24094
48.634 181.99 439.15 -41.147 49.739 0.24094
48.634 181.99 439.15 -41.147 49.739 0.24094
48.634 181.99 439.15 -41.147 49.739 0.24094
48.634 181.99 439.15 -41.147 49.739 0.24094
55.452 196.13 447.31 54.231 53.086 -5.4913
55.452 196.13 447.31 54.231 53.086 -5.4913
55.452 196.13 447.31 54.231 53.086 -5.4913
55.452 196.13 447.31 54.231 53.086 -5.4913
55.452 196.13 447.31 54.231 53.086 -5.4913
48.634 181.99 439.15 -41.147 49.739 0.24094
48.634 181.99 439.15 -41.147 49.739 0.24094
48.634 181.99 439.15 -41.147 49.739 0.24094
48.634 181.99 439.15 -41.147 49.739 0.24094
48.634 181.99 439.15 -41.147 49.739 0.24094
55.452 196.13 447.31 54.231 53.086 -5.4913
55.452 196.13 447.31 54.231 53.086 -5.4913
55.452 196.13 447.31 54.231 53.086 -5.4913
55.452 196.13 447.31 54.231 53.086 -5.4913
55.452 196.13 447.31 54.231 53.086 -5.4913
48.634 181.99 439.15 -41.147 49.739 0.24094
48.634 181.99 439.15 -41.147 49.739 0.24094
48.634 181.99 439.15 -41.147 49.739 0.24094
48.634 181.99 439.15 -41.147 49.739 0.24094
48.634 181.99 439.15 -41.147 49.739 0.24094
56.941 33.43 232.26 15.711 47.815 -9.21
56.941 33.43 232.26 15.711 47.815 -9.21
56.941 33.43 232.26 15.711 47.815 -9.21
56.941 33.43 232.26 15.711 47.815 -9.21
56.941 33.43 232.26 15.711 47.815 -9.21
63.176 43.046 243.15 -21.905 50.777 9.9118
63.176 43.046 243.15 -21.905 50.777 9.9118
63.176 43.046 243.15 -21.905 50.777 9.9118
63.176 43.046 243.15 -21.905 50.777 9.9118
63.176 43.046 243.15 -21.905 50.777 9.9118
56.941 33.43 232.26 15.711 47.815 -9.21
56.941 33.43 232.26 15.711 47.815 -9.21
56.941 33.43 232.26 15.711 47.815 -9.21
56.941 33.43 232.26 15.711 47.815 -9.21
56.941 33.43 232.26 15.711 47.815 -9.21
63.176 43.046 243.15 -21.905 50.777 9.9118
63.176 43.046 243.15 -21.905 50.777 9.9118
63.176 43.046 243.15 -21.905 50.777 9.9118
63.176 43.046 243.15 -21.905 50.777 9.9118
63.176 43.046 243.15 -21.905 50.777 9.9118
56.941 33.43 232.26 15.711 47.815 -9.21
56.941 33.43 232.26 15.711 47.815 -9.21
56.941 33.43 232.26 15.711 47.815 -9.21
56.941 33.43 232.26 15.711 47.815 -9.21
56.941 33.43 232.26 15.711 47.815 -9.21
63.176 43.046 243.15 -21.905 50.777 9.9118
63.176 43.046 243.15 -21.905 50.777 9.9118
63.176 43.046 243.15 -21.905 50.777 9.9118
63.176 43.046 243.15 -21.905 50.777 9.9118
63.176 43.046 243.15 -21.905 50.777 9.9118
56.941 33.43 232.26 15.711 47.815 -9.21
56.941 33.43 232.26 15.711 47.815 -9.21
56.941 33.43 232.26 15.711 47.815 -9.21
56.941 33.43 232.26 15.711 47.815 -9.21
56.941 33.43 232.26 15.711 47.815 -9.21
63.176 43.046 243.15 -21.905 50.777 9.9118
63.176 43.046 243.15 -21.905 50.777 9.9118
63.176 43.046 243.15 -21.905 50.777 9.9118
63.176 43.046 243.15 -21.905 50.777 9.9118
63.176 43.046 243.15 -21.905 50.777 9.9118
56.941 33.43 232.26 15.711 47.815 -9.21
56.941 33.43 232.26 15.711 47.815 -9.21
56.941 33.43 232.26 15.711 47.815 -9.21
56.941 33.43 232.26 15.711 47.815 -9.21
56.941 33.43 232.26 15.711 47.815 -9.21
63.176 43.046 243.15 -21.905 50.777 9.9118
63.176 43.046 243.15 -21.905 50.777 9.9118
63.176 43.046 243.15 -21.905 50.777 9.9118
63.176 43.046 243.15 -21.905 50.777 9.9118
63.176 43.046 243.15 -21.905 50.777 9.9118
56.941 33.43 232.26 15.711 47.815 -9.21
56.941 33.43 232.26 15.711 47.815 -9.21
56.941 33.43 232.26 15.711 47.815 -9.21
56.941 33.43 232.26 15.711 47.815 -9.21
56.941 33.43 232.26 15.711 47.815 -9.21
63.176 43.046 243.15 -21.905 50.777 9.9118
63.176 43.046 243.15 -21.905 50.777 9.9118
63.176 43.046 243.15 -21.905 50.777 9.9118
63.176 43.046 243.15 -21.905 50.777 9.9118
63.176 43.046 243.15 -21.905 50.777 9.9118
56.941 33.43 232.26 15.711 47.815 -9.21
56.941 33.43 232.26 15.711 47.815 -9.21
56.941 33.43 232.26 15.711 47.815 -9.21
56.941 33.43 232.26 15.711 47.815 -9.21
56.941 33.43 232.26 15.711 47.815 -9.21
63.176 43.046 243.15 -21.905 50.777 9.9118
63.176 43.046 243.15 -21.905 50.777 9.9118
63.176 43.046 243.15 -21.905 50.777 9.9118
63.176 43.046 243.15 -21.905 50.777 9.9118
63.176 43.046 243.15 -21.905 50.777 9.9118
56.941 33.43 232.26 15.711 47.815 -9.21
56.941 33.43 232.26 15.711 47.815 -9.21
56.941 33.43 232.26 15.711 47.815 -9.21
56.941 33.43 232.26 15.711 47.815 -9.21
56.941 33.43 232.26 15.711 47.815 -9.21
63.176 43.046 243.15 -21.905 50.777 9.9118
63.176 43.046 243.15 -21.905 50.777 9.9118
63.176 43.046 243.15 -21.905 50.777 9.9118
63.176 43.046 243.15 -21.905 50.777 9.9118
63.176 43.046 243.15 -21.905 50.777 9.9118
56.941 33.43 232.26 15.711 47.815 -9.21
56.941 33.43 232.26 15.711 47.815 -9.21
56.941 33.43 232.26 15.711 47.815 -9.21
56.941 33.43 232.26 15.711 47.815 -9.21
56.941 33.43 232.26 15.711 47.815 -9.21
63.176 43.046 243.15 -21.905 50.777 9.9118
63.176 43.046 243.15 -21.905 50.777 9.9118
63.176 43.046 243.15 -21.905 50.777 9.9118
63.176 43.046 243.15 -21.905 50.777 9.9118
63.176 43.046 243.15 -21.905 50.777 9.9118
56.941 33.43 232.26 15.711 47.815 -9.21
56.941 33.43 232.26 15.711 47.815 -9.21
56.941 33.43 232.26 15.711 47.815 -9.21
56.941 33.43 232.26 15.711 47.815 -9.21
56.941 33.43 232.26 15.711 47.815 -9.21
63.176 43.046 243.15 -21.905 50.777 9.9118
63.176 43.046 243.15 -21.905 50.777 9.9118
63.176 43.046 243.15 -21.905 50.777 9.9118
63.176 43.046 243.15 -21.905 50.777 9.9118
63.176 43.046 243.15 -21.905 50.777 9.9118
55.452 196.13 447.31 54.231 53.086 -5.4913
55.452 196.13 447.31 54.231 53.086 -5.4913
55.452 196.13 447.31 54.231 53.086 -5.4913
55.452 196.13 447.31 54.231 53.086 -5.4913
55.452 196.13 447.31 54.231 53.086 -5.4913
48.634 181.99 439.15 -41.147 49.739 0.24094
48.634 181.99 439.15 -41.147 49.739 0.24094
48.634 181.99 439.15 -41.147 49.739 0.24094
48.634 181.99 439.15 -41.147 49.739 0.24094
48.634 181.99 439.15 -41.147 49.739 0.24094
55.452 196.13 447.31 54.231 53.086 -5.4913
55.452 196.13 447.31 54.231 53.086 -5.4913
55.452 196.13 447.31 54.231 53.086 -5.4913
55.452 196.13 447.31 54.231 53.086 -5.4913
55.452 196.13 447.31 54.231 53.086 -5.4913
48.634 181.99 439.15 -41.147 49.739 0.24094
48.634 181.99 439.15 -41.147 49.739 0.24094
48.634 181.99 439.15 -41.147 49.739 0.24094
48.634 181.99 439.15 -41.147 49.739 0.24094
48.634 181.99 439.15 -41.147 49.739 0.24094
55.452 196.13 447.31 54.231 53.086 -5.4913
55.452 196.13 447.31 54.231 53.086 -5.4913
55.452 196.13 447.31 54.231 53.086 -5.4913
55.452 196.13 447.31 54.231 53.086 -5.4913
55.452 196.13 447.31 54.231 53.086 -5.4913
48.634 181.99 439.15 -41.147 49.739 0.24094
48.634 181.99 439.15 -41.147 49.739 0.24094
48.634 181.99 439.15 -41.147 49.739 0.24094
48.634 181.99 439.15 -41.147 49.739 0.24094
48.634 181.99 439.15 -41.147 49.739 0.24094
55.452 196.13 447.31 54.231 53.086 -5.4913
55.452 196.13 447.31 54.231 53.086 -5.4913
55.452 196.13 447.31 54.231 53.086 -5.4913
55.452 196.13 447.31 54.231 53.086 -5.4913
55.452 196.13 447.31 54.231 53.086 -5.4913
48.634 181.99 439.15 -41.147 49.739 0.24094
48.634 181.99 439.15 -41.147 49.739 0.24094
48.634 181.99 439.15 -41.147 49.739 0.24094
48.634 181.99 439.15 -41.147 49.739 0.24094
48.634 181.99 439.15 -41.147 49.739 0.24094
55.452 196.13 447.31 54.231 53.086 -5.4913
55.452 196.13 447.31 54.231 53.086 -5.4913
55.452 196.13 447.31 54.231 53.086 -5.4913
55.452 196.13 447.31 54.231 53.086 -5.4913
55.452 196.13 447.31 54.231 53.086 -5.4913
48.634 181.99 439.15 -41.147 49.739 0.24094
48.634 181.99 439.15 -41.147 49.739 0.24094
48.634 181.99 439.15 -41.147 49.739 0.24094
48.634 181.99 439.15 -41.147 49.739 0.24094
48.634 181.99 439.15 -41.147 49.739 0.24094
55.452 196.13 447.31 54.231 53.086 -5.4913
55.452 196.13 447.31 54.231 53.086 -5.4913
55.452 196.13 447.31 54.231 53.086 -5.4913
55.452 196.13 447.31 54.231 53.086 -5.4913
55.452 196.13 447.31 54.231 53.086 -5.4913
48.634 181.99 439.15 -41.147 49.739 0.24094
48.634 181.99 439.15 -41.147 49.739 0.24094
48.634 181.99 439.15 -41.147 49.739 0.24094
48.634 181.99 439.15 -41.147 49.739 0.24094
48.634 181.99 439.15 -41.147 49.739 0.24094
55.452 196.13 447.31 54.231 53.086 -5.4913
55.452 196.13 447.31 54.231 53.086 -5.4913
55.452 196.13 447.31 54.231 53.086 -5.4913
55.452 196.13 447.31 54.231 53.086 -5.4913
55.452 196.13 447.31 54.231 53.086 -5.4913
48.634 181.99 439.15 -41.147 49.739 0.24094
48.634 181.99 439.15 -41.147 49.739 0.24094
48.634 181.99 439.15 -41.147 49.739 0.24094
48.634 181.99 439.15 -41.147 49.739 0.24094
48.634 181.99 439.15 -41.147 49.739 0.24094
55.452 196.13 447.31 54.231 53.086 -5.4913
55.452 196.13 447.31 54.231 53.086 -5.4913
55.452 196.13 447.31 54.231 53.086 -5.4913
55.452 196.13 447.31 54.231 53.086 -5.4913
55.452 196.13 447.31 54.231 53.086 -5.4913
48.634 181.99 439.15 -41.147 49.739 0.24094
48.634 181.99 439.15 -41.147 49.739 0.24094
48.634 181.99 439.15 -41.147 49.739 0.24094
48.634 181.99 439.15 -41.147 49.739 0.24094
48.634 181.99 439.15 -41.147 49.739 0.24094
55.452 196.13 447.31 54.231 53.086 -5.4913
55.452 196.13 447.31 54.231 53.086 -5.4913
55.452 196.13 447.31 54.231 53.086 -5.4913
55.452 196.13 447.31 54.231 53.086 -5.4913
55.452 196.13 447.31 54.231 53.086 -5.4913
48.634 181.99 439.15 -41.147 49.739 0.24094
48.634 181.99 439.15 -41.147 49.739 0.24094
48.634 181.99 439.15 -41.147 49.739 0.24094
48.634 181.99 439.15 -41.147 49.739 0.24094
48.634 181.99 439.15 -41.147 49.739 0.24094
55.452 196.13 447.31 54.231 53.086 -5.4913
55.452 196.13 447.31 54.231 53.086 -5.4913
55.452 196.13 447.31 54.231 53.086 -5.4913
55.452 196.13 447.31 54.231 53.086 -5.4913
55.452 196.13 447.31 54.231 53.086 -5.4913
48.634 181.99 439.15 -41.147 49.739 0.24094
48.634 181.99 439.15 -41.147 49.739 0.24094
48.634 181.99 439.15 -41.147 49.739 0.24094
48.634 181.99 439.15 -41.147 49.739 0.24094
48.634 181.99 439.15 -41.147 49.739 0.24094
55.452 196.13 447.31 54.231 53.086 -5.4913
55.452 196.13 447.31 54.231 53.086 -5.4913
55.452 196.13 447.31 54.231 53.086 -5.4913
55.452 196.13 447.31 54.231 53.086 -5.4913
55.452 196.13 447.31 54.231 53.086 -5.4913
48.634 181.99 439.15 -41.147 49.739 0.24094
48.634 181.99 439.15 -41.147 49.739 0.24094
48.634 181.99 439.15 -41.147 49.739 0.24094
48.634 181.99 439.15 -41.147 49.739 0.24094
48.634 181.99 439.15 -41.147 49.739 0.24094
55.452 196.13 447.31 54.231 53.086 -5.4913
55.452 196.13 447.31 54.231 53.086 -5.4913
55.452 196.13 447.31 54.231 53.086 -5.4913
55.452 196.13 447.31 54.231 53.086 -5.4913
55.452 196.13 447.31 54.231 53.086 -5.4913
48.634 181.99 439.15 -41.147 49.739 0.24094
48.634 181.99 439.15 -41.147 49.739 0.24094
48.634 181.99 439.15 -41.147 49.739 0.24094
48.634 181.99 439.15 -41.147 49.739 0.24094
48.634 181.99 439.15 -41.147 49.739 0.24094
55.452 196.13 447.31 54.231 53.086 -5.4913
55.452 196.13 447.31 54.231 53.086 -5.4913
55.452 196.13 447.31 54.231 53.086 -5.4913
55.452 196.13 447.31 54.231 53.086 -5.4913
55.452 196.13 447.31 54.231 53.086 -5.4913
48.634 181.99 439.15 -41.147 49.739 0.24094
48.634 181.99 439.15 -41.147 49.739 0.24094
48.634 181.99 439.15 -41.147 49.739 0.24094
48.634 181.99 439.15 -41.147 49.739 0.24094
48.634 181.99 439.15 -41.147 49.739 0.24094
55.452 196.13 447.31 54.231 53.086 -5.4913
55.452 196.13 447.31 54.231 53.086 -5.4913
55.452 196.13 447.31 54.231 53.086 -5.4913
55.452 196.13 447.31 54.231 53.086 -5.4913
55.452 196.13 447.31 54.231 53.086 -5.4913
48.634 181.99 439.15 -41.147 49.739 0.24094
48.634 181.99 439.15 -41.147 49.739 0.24094
48.634 181.99 439.15 -41.147 49.739 0.24094
48.634 181.99 439.15 -41.147 49.739 0.24094
48.634 181.99 439.15 -41.147 49.739 0.24094
55.452 196.13 447.31 54.231 53.086 -5.4913
55.452 196.13 447.31 54.231 53.086 -5.4913
55.452 196.13 447.31 54.231 53.086 -5.4913
55.452 196.13 447.31 54.231 53.086 -5.4913
55.452 196.13 447.31 54.231 53.086 -5.4913
48.634 181.99 439.15 -41.147 49.739 0.24094
48.634 181.99 439.15 -41.147 49.739 0.24094
48.634 181.99 439.15 -41.147 49.739 0.24094
48.634 181.99 439.15 -41.147 49.739 0.24094
48.634 181.99 439.15 -41.147 49.739 0.24094
55.452 196.13 447.31 54.231 53.086 -5.4913
55.452 196.13 447.31 54.231 53.086 -5.4913
55.452 196.13 447.31 54.231 53.086 -5.4913
55.452 196.13 447.31 54.231 53.086 -5.4913
55.452 196.13 447.31 54.231 53.086 -5.4913
48.634 181.99 439.15 -41.147 49.739 0.24094
48.634 181.99 439.15 -41.147 49.739 0.24094
48.634 181.99 439.15 -41.147 49.739 0.24094
48.634 181.99 439.15 -41.147 49.739 0.24094
48.634 181.99 439.15 -41.147 49.739 0.24094
55.452 196.13 447.31 54.231 53.086 -5.4913
55.452 196.13 447.31 54.231 53.086 -5.4913
55.452 196.13 447.31 54.231 53.086 -5.4913
55.452 196.13 447.31 54.231 53.086 -5.4913
55.452 196.13 447.31 54.231 53.086 -5.4913
48.634 181.99 439.15 -41.147 49.739 0.24094
48.634 181.99 439.15 -41.147 49.739 0.24094
48.634 181.99 439.15 -41.147 49.739 0.24094
48.634 181.99 439.15 -41.147 49.739 0.24094
48.634 181.99 439.15 -41.147 49.739 0.24094
55.452 196.13 447.31 54.231 53.086 -5.4913
55.452 196.13 447.31 54.231 53.086 -5.4913
55.452 196.13 447.31 54.231 53.086 -5.4913
55.452 196.13 447.31 54.231 53.086 -5.4913
55.452 196.13 447.31 54.231 53.086 -5.4913
48.634 181.99 439.15 -41.147 49.739 0.24094
48.634 181.99 439.15 -41.147 49.739 0.24094
48.634 181.99 439.15 -41.147 49.739 0.24094
48.634 181.99 439.15 -41.147 49.739 0.24094
48.634 181.99 439.15 -41.147 49.739 0.24094
55.452 196.13 447.31 54.231 53.086 -5.4913
55.452 196.13 447.31 54.231 53.086 -5.4913
55.452 196.13 447.31 54.231 53.086 -5.4913
55.452 196.13 447.31 54.231 53.086 -5.4913
55.452 196.13 447.31 54.231 53.086 -5.4913
48.634 181.99 439.15 -41.147 49.739 0.24094
48.634 181.99 439.15 -41.147 49.739 0.24094
48.634 181.99 439.15 -41.147 49.739 0.24094
48.634 181.99 439.15 -41.147 49.739 0.24094
48.634 181.99 439.15 -41.147 49.739 0.24094
55.452 196.13 447.31 54.231 53.086 -5.4913
55.452 196.13 447.31 54.231 53.086 -5.4913
55.452 196.13 447.31 54.231 53.086 -5.4913
55.452 196.13 447.31 54.231 53.086 -5.4913
55.452 196.13 447.31 54.231 53.086 -5.4913
48.634 181.99 439.15 -41.147 49.739 0.24094
48.634 181.99 439.15 -41.147 49.739 0.24094
48.634 181.99 439.15 -41.147 49.739 0.24094
48.634 181.99 439.15 -41.147 49.739 0.24094
48.634 181.99 439.15 -41.147 49.739 0.24094
56.941 33.43 232.26 15.711 47.815 -9.21
56.941 33.43 232.26 15.711 47.815 -9.21
56.941 33.43 232.26 15.711 47.815 -9.21
56.941 33.43 232.26 15.711 47.815 -9.21
56.941 33.43 232.26 15.711 47.815 -9.21
63.176 43.046 243.15 -21.905 50.777 9.9118
63.176 43.046 243.15 -21.905 50.777 9.9118
63.176 43.046 243.15 -21.905 50.777 9.9118
63.176 43.046 243.15 -21.905 50.777 9.9118
63.176 43.046 243.15 -21.905 50.777 9.9118
56.941 33.43 232.26 15.711 47.815 -9.21
56.941 33.43 232.26 15.711 47.815 -9.21
56.941 33.43 232.26 15.711 47.815 -9.21
56.941 33.43 232.26 15.711 47.815 -9.21
56.941 33.43 232.26 15.711 47.815 -9.21
63.176 43.046 243.15 -21.905 50.777 9.9118
63.176 43.046 243.15 -21.905 50.777 9.9118
63.176 43.046 243.15 -21.905 50.777 9.9118
63.176 43.046 243.15 -21.905 50.777 9.9118
63.176 43.046 243.15 -21.905 50.777 9.9118
56.941 33.43 232.26 15.711 47.815 -9.21
56.941 33.43 232.26 15.711 47.815 -9.21
56.941 33.43 232.26 15.711 47.815 -9.21
56.941 33.43 232.26 15.711 47.815 -9.21
56.941 33.43 232.26 15.711 47.815 -9.21
63.176 43.046 243.15 -21.905 50.777 9.9118
63.176 43.046 243.15 -21.905 50.777 9.9118
63.176 43.046 243.15 -21.905 50.777 9.9118
63.176 43.046 243.15 -21.905 50.777 9.9118
63.176 43.046 243.15 -21.905 50.777 9.9118
56.941 33.43 232.26 15.711 47.815 -9.21
56.941 33.43 232.26 15.711 47.815 -9.21
56.941 33.43 232.26 15.711 47.815 -9.21
56.941 33.43 232.26 15.711 47.815 -9.21
56.941 33.43 232.26 15.711 47.815 -9.21
63.176 43.046 243.15 -21.905 50.777 9.9118
63.176 43.046 243.15 -21.905 50.777 9.9118
63.176 43.046 243.15 -21.905 50.777 9.9118
63.176 43.046 243.15 -21.905 50.777 9.9118
63.176 43.046 243.15 -21.905 50.777 9.9118
56.941 33.43 232.26 15.711 47.815 -9.21
56.941 33.43 232.26 15.711 47.815 -9.21
56.941 33.43 232.26 15.711 47.815 -9.21
56.941 33.43 232.26 15.711 47.815 -9.21
56.941 33.43 232.26 15.711 47.815 -9.21
63.176 43.046 243.15 -21.905 50.777 9.9118
63.176 43.046 243.15 -21.905 50.777 9.9118
63.176 43.046 243.15 -21.905 50.777 9.9118
63.176 43.046 243.15 -21.905 50.777 9.9118
63.176 43.046 243.15 -21.905 50.777 9.9118
56.941 33.43 232.26 15.711 47.815 -9.21
56.941 33.43 232.26 15.711 47.815 -9.21
56.941 33.43 232.26 15.711 47.815 -9.21
56.941 33.43 232.26 15.711 47.815 -9.21
56.941 33.43 232.26 15.711 47.815 -9.21
63.176 43.046 243.15 -21.905 50.777 9.9118
63.176 43.046 243.15 -21.905 50.777 9.9118
63.176 43.046 243.15 -21.905 50.777 9.9118
63.176 43.046 243.15 -21.905 50.777 9.9118
63.176 43.046 243.15 -21.905 50.777 9.9118
56.941 33.43 232.26 15.711 47.815 -9.21
56.941 33.43 232.26 15.711 47.815 -9.21
56.941 33.43 232.26 15.711 47.815 -9.21
56.941 33.43 232.26 15.711 47.815 -9.21
56.941 33.43 232.26 15.711 47.815 -9.21
63.176 43.046 243.15 -21.905 50.777 9.9118
63.176 43.046 243.15 -21.905 50.777 9.9118
63.176 43.046 243.15 -21.905 50.777 9.9118
63.176 43.046 243.15 -21.905 50.777 9.9118
63.176 43.046 243.15 -21.905 50.777 9.9118
56.941 33.43 232.26 15.711 47.815 -9.21
56.941 33.43 232.26 15.711 47.815 -9.21
56.941 33.43 232.26 15.711 47.815 -9.21
56.941 33.43 232.26 15.711 47.815 -9.21
56.941 33.43 232.26 15.711 47.815 -9.21
63.176 43.046 243.15 -21.905 50.777 9.9118
63.176 43.046 243.15 -21.905 50.777 9.9118
63.176 43.046 243.15 -21.905 50.777 9.9118
63.176 43.046 243.15 -21.905 50.777 9.9118
63.176 43.046 243.15 -21.905 50.777 9.9118
56.941 33.43 232.26 15.711 47.815 -9.21
56.941 33.43 232.26 15.711 47.815 -9.21
56.941 33.43 232.26 15.711 47.815 -9.21
56.941 33.43 232.26 15.711 47.815 -9.21
56.941 33.43 232.26 15.711 47.815 -9.21
63.176 43.046 243.15 -21.905 50.777 9.9118
63.176 43.046 243.15 -21.905 50.777 9.9118
63.176 43.046 243.15 -21.905 50.777 9.9118
63.176 43.046 243.15 -21.905 50.777 9.9118
63.176 43.046 243.15 -21.905 50.777 9.9118
56.941 33.43 232.26 15.711 47.815 -9.21
56.941 33.43 232.26 15.711 47.815 -9.21
56.941 33.43 232.26 15.711 47.815 -9.21
56.941 33.43 232.26 15.711 47.815 -9.21
56.941 33.43 232.26 15.711 47.815 -9.21
63.176 43.046 243.15 -21.905 50.777 9.9118
63.176 43.046 243.15 -21.905 50.777 9.9118
63.176 43.046 243.15 -21.905 50.777 9.9118
63.176 43.046 243.15 -21.905 50.777 9.9118
63.176 43.046 243.15 -21.905 50.777 9.9118
55.452 196.13 447.31 54.231 53.086 -5.4913
55.452 196.13 447.31 54.231 53.086 -5.4913
55.452 196.13 447.31 54.231 53.086 -5.4913
55.452 196.13 447.31 54.231 53.086 -5.4913
55.452 196.13 447.31 54.231 53.086 -5.4913
48.634 181.99 439.15 -41.147 49.739 0.24094
48.634 181.99 439.15 -41.147 49.739 0.24094
48.634 181.99 439.15 -41.147 49.739 0.24094
48.634 181.99 439.15 -41.147 49.739 0.24094
48.634 181.99 439.15 -41.147 49.739 0.24094
55.452 196.13 447.31 54.231 53.086 -5.4913
55.452 196.13 447.31 54.231 53.086 -5.4913
55.452 196.13 447.31 54.231 53.086 -5.4913
55.452 196.13 447.31 54.231 53.086 -5.4913
55.452 196.13 447.31 54.231 53.086 -5.4913
48.634 181.99 439.15 -41.147 49.739 0.24094
48.634 181.99 439.15 -41.147 49.739 0.24094
48.634 181.99 439.15 -41.147 49.739 0.24094
48.634 181.99 439.15 -41.147 49.739 0.24094
48.634 181.99 439.15 -41.147 49.739 0.24094
55.452 196.13 447.31 54.231 53.086 -5.4913
55.452 196.13 447.31 54.231 53.086 -5.4913
55.452 196.13 447.31 54.231 53.086 -5.4913
55.452 196.13 447.31 54.231 53.086 -5.4913
55.452 196.13 447.31 54.231 53.086 -5.4913
48.634 181.99 439.15 -41.147 49.739 0.24094
48.634 181.99 439.15 -41.147 49.739 0.24094
48.634 181.99 439.15 -41.147 49.739 0.24094
48.634 181.99 439.15 -41.147 49.739 0.24094
48.634 181.99 439.15 -41.147 49.739 0.24094
55.452 196.13 447.31 54.231 53.086 -5.4913
55.452 196.13 447.31 54.231 53.086 -5.4913
55.452 196.13 447.31 54.231 53.086 -5.4913
55.452 196.13 447.31 54.231 53.086 -5.4913
55.452 196.13 447.31 54.231 53.086 -5.4913
48.634 181.99 439.15 -41.147 49.739 0.24094
48.634 181.99 439.15 -41.147 49.739 0.24094
48.634 181.99 439.15 -41.147 49.739 0.24094
48.634 181.99 439.15 -41.147 49.739 0.24094
48.634 181.99 439.15 -41.147 49.739 0.24094
55.452 196.13 447.31 54.231 53.086 -5.4913
55.452 196.13 447.31 54.231 53.086 -5.4913
55.452 196.13 447.31 54.231 53.086 -5.4913
55.452 196.13 447.31 54.231 53.086 -5.4913
55.452 196.13 447.31 54.231 53.086 -5.4913
48.634 181.99 439.15 -41.147 49.739 0.24094
48.634 181.99 439.15 -41.147 49.739 0.24094
48.634 181.99 439.15 -41.147 49.739 0.24094
48.634 181.99 439.15 -41.147 49.739 0.24094
48.634 181.99 439.15 -41.147 49.739 0.24094
55.452 196.13 447.31 54.231 53.086 -5.4913
55.452 196.13 447.31 54.231 53.086 -5.4913
55.452 196.13 447.31 54.231 53.086 -5.4913
55.452 196.13 447.31 54.231 53.086 -5.4913
55.452 196.13 447.31 54.231 53.086 -5.4913
48.634 181.99 439.15 -41.147 49.739 0.24094
48.634 181.99 439.15 -41.147 49.739 0.24094
48.634 181.99 439.15 -41.147 49.739 0.24094
48.634 181.99 439.15 -41.147 49.739 0.24094
48.634 181.99 439.15 -41.147 49.739 0.24094
55.452 196.13 447.31 54.231 53.086 -5.4913
55.452 196.13 447.31 54.231 53.086 -5.4913
55.452 196.13 447.31 54.231 53.086 -5.4913
55.452 196.13 447.31 54.231 53.086 -5.4913
55.452 196.13 447.31 54.231 53.086 -5.4913
48.634 181.99 439.15 -41.147 49.739 0.24094
48.634 181.99 439.15 -41.147 49.739 0.24094
48.634 181.99 439.15 -41.147 49.739 0.24094
48.634 181.99 439.15 -41.147 49.739 0.24094
48.634 181.99 439.15 -41.147 49.739 0.24094
55.452 196.13 447.31 54.231 53.086 -5.4913
55.452 196.13 447.31 54.231 53.086 -5.4913
55.452 196.13 447.31 54.231 53.086 -5.4913
55.452 196.13 447.31 54.231 53.086 -5.4913
55.452 196.13 447.31 54.231 53.086 -5.4913
48.634 181.99 439.15 -41.147 49.739 0.24094
48.634 181.99 439.15 -41.147 49.739 0.24094
48.634 181.99 439.15 -41.147 49.739 0.24094
48.634 181.99 439.15 -41.147 49.739 0.24094
48.634 181.99 439.15 -41.147 49.739 0.24094
55.452 196.13 447.31 54.231 53.086 -5.4913
55.452 196.13 447.31 54.231 53.086 -5.4913
55.452 196.13 447.31 54.231 53.086 -5.4913
55.452 196.13 447.31 54.231 53.086 -5.4913
55.452 196.13 447.31 54.231 53.086 -5.4913
48.634 181.99 439.15 -41.147 49.739 0.24094
48.634 181.99 439.15 -41.147 49.739 0.24094
48.634 181.99 439.15 -41.147 49.739 0.24094
48.634 181.99 439.15 -41.147 49.739 0.24094
48.634 181.99 439.15 -41.147 49.739 0.24094
55.452 196.13 447.31 54.231 53.086 -5.4913
55.452 196.13 447.31 54.231 53.086 -5.4913
55.452 196.13 447.31 54.231 53.086 -5.4913
55.452 196.13 447.31 54.231 53.086 -5.4913
55.452 196.13 447.31 54.231 53.086 -5.4913
48.634 181.99 439.15 -41.147 49.739 0.24094
48.634 181.99 439.15 -41.147 49.739 0.24094
48.634 181.99 439.15 -41.147 49.739 0.24094
48.634 181.99 439.15 -41.147 49.739 0.24094
48.634 181.99 439.15 -41.147 49.739 0.24094
55.452 196.13 447.31 54.231 53.086 -5.4913
55.452 196.13 447.31 54.231 53.086 -5.4913
55.452 196.13 447.31 54.231 53.086 -5.4913
55.452 196.13 447.31 54.231 53.086 -5.4913
55.452 196.13 447.31 54.231 53.086 -5.4913
48.634 181.99 439.15 -41.147 49.739 0.24094
48.634 181.99 439.15 -41.147 49.739 0.24094
48.634 181.99 439.15 -41.147 49.739 0.24094
48.634 181.99 439.15 -41.147 49.739 0.24094
48.634 181.99 439.15 -41.147 49.739 0.24094
55.452 196.13 447.31 54.231 53.086 -5.4913
55.452 196.13 447.31 54.231 53.086 -5.4913
55.452 196.13 447.31 54.231 53.086 -5.4913
55.452 196.13 447.31 54.231 53.086 -5.4913
55.452 196.13 447.31 54.231 53.086 -5.4913
48.634 181.99 439.15 -41.147 49.739 0.24094
48.634 181.99 439.15 -41.147 49.739 0.24094
48.634 181.99 439.15 -41.147 49.739 0.24094
48.634 181.99 439.15 -41.147 49.739 0.24094
48.634 181.99 439.15 -41.147 49.739 0.24094
55.452 196.13 447.31 54.231 53.086 -5.4913
55.452 196.13 447.31 54.231 53.086 -5.4913
55.452 196.13 447.31 54.231 53.086 -5.4913
55.452 196.13 447.31 54.231 53.086 -5.4913
55.452 196.13 447.31 54.231 53.086 -5.4913
48.634 181.99 439.15 -41.147 49.739 0.24094
48.634 181.99 439.15 -41.147 49.739 0.24094
48.634 181.99 439.15 -41.147 49.739 0.24094
48.634 181.99 439.15 -41.147 49.739 0.24094
48.634 181.99 439.15 -41.147 49.739 0.24094
55.452 196.13 447.31 54.231 53.086 -5.4913
55.452 196.13 447.31 54.231 53.086 -5.4913
55.452 196.13 447.31 54.231 53.086 -5.4913
55.452 196.13 447.31 54.231 53.086 -5.4913
55.452 196.13 447.31 54.231 53.086 -5.4913
48.634 181.99 439.15 -41.147 49.739 0.24094
48.634 181.99 439.15 -41.147 49.739 0.24094
48.634 181.99 439.15 -41.147 49.739 0.24094
48.634 181.99 439.15 -41.147 49.739 0.24094
48.634 181.99 439.15 -41.147 49.739 0.24094
55.452 196.13 447.31 54.231 53.086 -5.4913
55.452 196.13 447.31 54.231 53.086 -5.4913
55.452 196.13 447.31 54.231 53.086 -5.4913
55.452 196.13 447.31 54.231 53.086 -5.4913
55.452 196.13 447.31 54.231 53.086 -5.4913
48.634 181.99 439.15 -41.147 49.739 0.24094
48.634 181.99 439.15 -41.147 49.739 0.24094
48.634 181.99 439.15 -41.147 49.739 0.24094
48.634 181.99 439.15 -41.147 49.739 0.24094
48.634 181.99 439.15 -41.147 49.739 0.24094
55.452 196.13 447.31 54.231 53.086 -5.4913
55.452 196.13 447.31 54.231 53.086 -5.4913
55.452 196.13 447.31 54.231 53.086 -5.4913
55.452 196.13 447.31 54.231 53.086 -5.4913
55.452 196.13 447.31 54.231 53.086 -5.4913
48.634 181.99 439.15 -41.147 49.739 0.24094
48.634 181.99 439.15 -41.147 49.739 0.24094
48.634 181.99 439.15 -41.147 49.739 0.24094
48.634 181.99 439.15 -41.147 49.739 0.24094
48.634 181.99 439.15 -41.147 49.739 0.24094
55.452 196.13 447.31 54.231 53.086 -5.4913
55.452 196.13 447.31 54.231 53.086 -5.4913
55.452 196.13 447.31 54.231 53.086 -5.4913
55.452 196.13 447.31 54.231 53.086 -5.4913
55.452 196.13 447.31 54.231 53.086 -5.4913
48.634 181.99 439.15 -41.147 49.739 0.24094
48.634 181.99 439.15 -41.147 49.739 0.24094
48.634 181.99 439.15 -41.147 49.739 0.24094
48.634 181.99 439.15 -41.147 49.739 0.24094
48.634 181.99 439.15 -41.147 49.739 0.24094
55.452 196.13 447.31 54.231 53.086 -5.4913
55.452 196.13 447.31 54.231 53.086 -5.4913
55.452 196.13 447.31 54.231 53.086 -5.4913
55.452 196.13 447.31 54.231 53.086 -5.4913
55.452 196.13 447.31 54.231 53.086 -5.4913
48.634 181.99 439.15 -41.147 49.739 0.24094
48.634 181.99 439.15 -41.147 49.739 0.24094
48.634 181.99 439.15 -41.147 49.739 0.24094
48.634 181.99 439.15 -41.147 49.739 0.24094
48.634 181.99 439.15 -41.147 49.739 0.24094
55.452 196.13 447.31 54.231 53.086 -5.4913
55.452 196.13 447.31 54.231 53.086 -5.4913
55.452 196.13 447.31 54.231 53.086 -5.4913
55.452 196.13 447.31 54.231 53.086 -5.4913
55.452 196.13 447.31 54.231 53.086 -5.4913
48.634 181.99 439.15 -41.147 49.739 0.24094
48.634 181.99 439.15 -41.147 49.739 0.24094
48.634 181.99 439.15 -41.147 49.739 0.24094
48.634 181.99 439.15 -41.147 49.739 0.24094
48.634 181.99 439.15 -41.147 49.739 0.24094
55.452 196.13 447.31 54.231 53.086 -5.4913
55.452 196.13 447.31 54.231 53.086 -5.4913
55.452 196.13 447.31 54.231 53.086 -5.4913
55.452 196.13 447.31 54.231 53.086 -5.4913
55.452 196.13 447.31 54.231 53.086 -5.4913
48.634 181.99 439.15 -41.147 49.739 0.24094
48.634 181.99 439.15 -41.147 49.739 0.24094
48.634 181.99 439.15 -41.147 49.739 0.24094
48.634 181.99 439.15 -41.147 49.739 0.24094
48.634 181.99 439.15 -41.147 49.739 0.24094
56.941 33.43 232.26 15.711 47.815 -9.21
56.941 33.43 232.26 15.711 47.815 -9.21
56.941 33.43 232.26 15.711 47.815 -9.21
56.941 33.43 232.26 15.711 47.815 -9.21
56.941 33.43 232.26 15.711 47.815 -9.21
63.176 43.046 243.15 -21.905 50.777 9.9118
63.176 43.046 243.15 -21.905 50.777 9.9118
63.176 43.046 243.15 -21.905 50.777 9.9118
63.176 43.046 243.15 -21.905 50.777 9.9118
63.176 43.046 243.15 -21.905 50.777 9.9118
56.941 33.43 232.26 15.711 47.815 -9.21
56.941 33.43 232.26 15.711 47.815 -9.21
56.941 33.43 232.26 15.711 47.815 -9.21
56.941 33.43 232.26 15.711 47.815 -9.21
56.941 33.43 232.26 15.711 47.815 -9.21
63.176 43.046 243.15 -21.905 50.777 9.9118
63.176 43.046 243.15 -21.905 50.777 9.9118
63.176 43.046 243.15 -21.905 50.777 9.9118
63.176 43.046 243.15 -21.905 50.777 9.9118
63.176 43.046 243.15 -21.905 50.777 9.9118
56.941 33.43 232.26 15.711 47.815 -9.21
56.941 33.43 232.26 15.711 47.815 -9.21
56.941 33.43 232.26 15.711 47.815 -9.21
56.941 33.43 232.26 15.711 47.815 -9.21
56.941 33.43 232.26 15.711 47.815 -9.21
63.176 43.046 243.15 -21.905 50.777 9.9118
63.176 43.046 243.15 -21.905 50.777 9.9118
63.176 43.046 243.15 -21.905 50.777 9.9118
63.176 43.046 243.15 -21.905 50.777 9.9118
63.176 43.046 243.15 -21.905 50.777 9.9118
56.941 33.43 232.26 15.711 47.815 -9.21
56.941 33.43 232.26 15.711 47.815 -9.21
56.941 33.43 232.26 15.711 47.815 -9.21
56.941 33.43 232.26 15.711 47.815 -9.21
56.941 33.43 232.26 15.711 47.815 -9.21
63.176 43.046 243.15 -21.905 50.777 9.9118
63.176 43.046 243.15 -21.905 50.777 9.9118
63.176 43.046 243.15 -21.905 50.777 9.9118
63.176 43.046 243.15 -21.905 50.777 9.9118
63.176 43.046 243.15 -21.905 50.777 9.9118
56.941 33.43 232.26 15.711 47.815 -9.21
56.941 33.43 232.26 15.711 47.815 -9.21
56.941 33.43 232.26 15.711 47.815 -9.21
56.941 33.43 232.26 15.711 47.815 -9.21
56.941 33.43 232.26 15.711 47.815 -9.21
63.176 43.046 243.15 -21.905 50.777 9.9118
63.176 43.046 243.15 -21.905 50.777 9.9118
63.176 43.046 243.15 -21.905 50.777 9.9118
63.176 43.046 243.15 -21.905 50.777 9.9118
63.176 43.046 243.15 -21.905 50.777 9.9118
56.941 33.43 232.26 15.711 47.815 -9.21
56.941 33.43 232.26 15.711 47.815 -9.21
56.941 33.43 232.26 15.711 47.815 -9.21
56.941 33.43 232.26 15.711 47.815 -9.21
56.941 33.43 232.26 15.711 47.815 -9.21
63.176 43.046 243.15 -21.905 50.777 9.9118
63.176 43.046 243.15 -21.905 50.777 9.9118
63.176 43.046 243.15 -21.905 50.777 9.9118
63.176 43.046 243.15 -21.905 50.777 9.9118
63.176 43.046 243.15 -21.905 50.777 9.9118
56.941 33.43 232.26 15.711 47.815 -9.21
56.941 33.43 232.26 15.711 47.815 -9.21
56.941 33.43 232.26 15.711 47.815 -9.21
56.941 33.43 232.26 15.711 47.815 -9.21
56.941 33.43 232.26 15.711 47.815 -9.21
63.176 43.046 243.15 -21.905 50.777 9.9118
63.176 43.046 243.15 -21.905 50.777 9.9118
63.176 43.046 243.15 -21.905 50.777 9.9118
63.176 43.046 243.15 -21.905 50.777 9.9118
63.176 43.046 243.15 -21.905 50.777 9.9118
56.941 33.43 232.26 15.711 47.815 -9.21
56.941 33.43 232.26 15.711 47.815 -9.21
56.941 33.43 232.26 15.711 47.815 -9.21
56.941 33.43 232.26 15.711 47.815 -9.21
56.941 33.43 232.26 15.711 47.815 -9.21
63.176 43.046 243.15 -21.905 50.777 9.9118
63.176 43.046 243.15 -21.905 50.777 9.9118
63.176 43.046 243.15 -21.905 50.777 9.9118
63.176 43.046 243.15 -21.905 50.777 9.9118
63.176 43.046 243.15 -21.905 50.777 9.9118
56.941 33.43 232.26 15.711 47.815 -9.21
56.941 33.43 232.26 15.711 47.815 -9.21
56.941 33.43 232.26 15.711 47.815 -9.21
56.941 33.43 232.26 15.711 47.815 -9.21
56.941 33.43 232.26 15.711 47.815 -9.21
63.176 43.046 243.15 -21.905 50.777 9.9118
63.176 43.046 243.15 -21.905 50.777 9.9118
63.176 43.046 243.15 -21.905 50.777 9.9118
63.176 43.046 243.15 -21.905 50.777 9.9118
63.176 43.046 243.15 -21.905 50.777 9.9118
56.941 33.43 232.26 15.711 47.815 -9.21
56.941 33.43 232.26 15.711 47.815 -9.21
56.941 33.43 232.26 15.711 47.815 -9.21
56.941 33.43 232.26 15.711 47.815 -9.21
56.941 33.43 232.26 15.711 47.815 -9.21
63.176 43.046 243.15 -21.905 50.777 9.9118
63.176 43.046 243.15 -21.905 50.777 9.9118
63.176 43.046 243.15 -21.905 50.777 9.9118
63.176 43.046 243.15 -21.905 50.777 9.9118
63.176 43.046 243.15 -21.905 50.777 9.9118
55.452 196.13 447.31 54.231 53.086 -5.4913
55.452 196.13 447.31 54.231 53.086 -5.4913
55.452 196.13 447.31 54.231 53.086 -5.4913
55.452 196.13 447.31 54.231 53.086 -5.4913
55.452 196.13 447.31 54.231 53.086 -5.4913
48.634 181.99 439.15 -41.147 49.739 0.24094
48.634 181.99 439.15 -41.147 49.739 0.24094
48.634 181.99 439.15 -41.147 49.739 0.24094
48.634 181.99 439.15 -41.147 49.739 0.24094
48.634 181.99 439.15 -41.147 49.739 0.24094
55.452 196.13 447.31 54.231 53.086 -5.4913
55.452 196.13 447.31 54.231 53.086 -5.4913
55.452 196.13 447.31 54.231 53.086 -5.4913
55.452 196.13 447.31 54.231 53.086 -5.4913
55.452 196.13 447.31 54.231 53.086 -5.4913
48.634 181.99 439.15 -41.147 49.739 0.24094
48.634 181.99 439.15 -41.147 49.739 0.24094
48.634 181.99 439.15 -41.147 49.739 0.24094
48.634 181.99 439.15 -41.147 49.739 0.24094
48.634 181.99 439.15 -41.147 49.739 0.24094
55.452 196.13 447.31 54.231 53.086 -5.4913
55.452 196.13 447.31 54.231 53.086 -5.4913
55.452 196.13 447.31 54.231 53.086 -5.4913
55.452 196.13 447.31 54.231 53.086 -5.4913
55.452 196.13 447.31 54.231 53.086 -5.4913
48.634 181.99 439.15 -41.147 49.739 0.24094
48.634 181.99 439.15 -41.147 49.739 0.24094
48.634 181.99 439.15 -41.147 49.739 0.24094
48.634 181.99 439.15 -41.147 49.739 0.24094
48.634 181.99 439.15 -41.147 49.739 0.24094
55.452 196.13 447.31 54.231 53.086 -5.4913
55.452 196.13 447.31 54.231 53.086 -5.4913
55.452 196.13 447.31 54.231 53.086 -5.4913
55.452 196.13 447.31 54.231 53.086 -5.4913
55.452 196.13 447.31 54.231 53.086 -5.4913
48.634 181.99 439.15 -41.147 49.739 0.24094
48.634 181.99 439.15 -41.147 49.739 0.24094
48.634 181.99 439.15 -41.147 49.739 0.24094
48.634 181.99 439.15 -41.147 49.739 0.24094
48.634 181.99 439.15 -41.147 49.739 0.24094
55.452 196.13 447.31 54.231 53.086 -5.4913
55.452 196.13 447.31 54.231 53.086 -5.4913
55.452 196.13 447.31 54.231 53.086 -5.4913
55.452 196.13 447.31 54.231 53.086 -5.4913
55.452 196.13 447.31 54.231 53.086 -5.4913
48.634 181.99 439.15 -41.147 49.739 0.24094
48.634 181.99 439.15 -41.147 49.739 0.24094
48.634 181.99 439.15 -41.147 49.739 0.24094
48.634 181.99 439.15 -41.147 49.739 0.24094
48.634 181.99 439.15 -41.147 49.739 0.24094
55.452 196.13 447.31 54.231 53.086 -5.4913
55.452 196.13 447.31 54.231 53.086 -5.4913
55.452 196.13 447.31 54.231 53.086 -5.4913
55.452 196.13 447.31 54.231 53.086 -5.4913
55.452 196.13 447.31 54.231 53.086 -5.4913
48.634 181.99 439.15 -41.147 49.739 0.24094
48.634 181.99 439.15 -41.147 49.739 0.24094
48.634 181.99 439.15 -41.147 49.739 0.24094
48.634 181.99 439.15 -41.147 49.739 0.24094
48.634 181.99 439.15 -41.147 49.739 0.24094
55.452 196.13 447.31 54.231 53.086 -5.4913
55.452 196.13 447.31 54.231 53.086 -5.4913
55.452 196.13 447.31 54.231 53.086 -5.4913
55.452 196.13 447.31 54.231 53.086 -5.4913
55.452 196.13 447.31 54.231 53.086 -5.4913
48.634 181.99 439.15 -41.147 49.739 0.24094
48.634 181.99 439.15 -41.147 49.739 0.24094
48.634 181.99 439.15 -41.147 49.739 0.24094
48.634 181.99 439.15 -41.147 49.739 0.24094
48.634 181.99 439.15 -41.147 49.739 0.24094
55.452 196.13 447.31 54.231 53.086 -5.4913
55.452 196.13 447.31 54.231 53.086 -5.4913
55.452 196.13 447.31 54.231 53.086 -5.4913
55.452 196.13 447.31 54.231 53.086 -5.4913
55.452 196.13 447.31 54.231 53.086 -5.4913
48.634 181.99 439.15 -41.147 49.739 0.24094
48.634 181.99 439.15 -41.147 49.739 0.24094
48.634 181.99 439.15 -41.147 49.739 0.24094
48.634 181.99 439.15 -41.147 49.739 0.24094
48.634 181.99 439.15 -41.147 49.739 0.24094
55.452 196.13 447.31 54.231 53.086 -5.4913
55.452 196.13 447.31 54.231 53.086 -5.4913
55.452 196.13 447.31 54.231 53.086 -5.4913
55.452 196.13 447.31 54.231 53.086 -5.4913
55.452 196.13 447.31 54.231 53.086 -5.4913
48.634 181.99 439.15 -41.147 49.739 0.24094
48.634 181.99 439.15 -41.147 49.739 0.24094
48.634 181.99 439.15 -41.147 49.739 0.24094
48.634 181.99 439.15 -41.147 49.739 0.24094
48.634 181.99 439.15 -41.147 49.739 0.24094
55.452 196.13 447.31 54.231 53.086 -5.4913
55.452 196.13 447.31 54.231 53.086 -5.4913
55.452 196.13 447.31 54.231 53.086 -5.4913
55.452 196.13 447.31 54.231 53.086 -5.4913
55.452 196.13 447.31 54.231 53.086 -5.4913
48.634 181.99 439.15 -41.147 49.739 0.24094
48.634 181.99 439.15 -41.147 49.739 0.24094
48.634 181.99 439.15 -41.147 49.739 0.24094
48.634 181.99 439.15 -41.147 49.739 0.24094
48.634 181.99 439.15 -41.147 49.739 0.24094
55.452 196.13 447.31 54.231 53.086 -5.4913
55.452 196.13 447.31 54.231 53.086 -5.4913
55.452 196.13 447.31 54.231 53.086 -5.4913
55.452 196.13 447.31 54.231 53.086 -5.4913
55.452 196.13 447.31 54.231 53.086 -5.4913
48.634 181.99 439.15 -41.147 49.739 0.24094
48.634 181.99 439.15 -41.147 49.739 0.24094
48.634 181.99 439.15 -41.147 49.739 0.24094
48.634 181.99 439.15 -41.147 49.739 0.24094
48.634 181.99 439.15 -41.147 49.739 0.24094
55.452 196.13 447.31 54.231 53.086 -5.4913
55.452 196.13 447.31 54.231 53.086 -5.4913
55.452 196.13 447.31 54.231 53.086 -5.4913
55.452 196.13 447.31 54.231 53.086 -5.4913
55.452 196.13 447.31 54.231 53.086 -5.4913
48.634 181.99 439.15 -41.147 49.739 0.24094
48.634 181.99 439.15 -41.147 49.739 0.24094
48.634 181.99 439.15 -41.147 49.739 0.24094
48.634 181.99 439.15 -41.147 49.739 0.24094
48.634 181.99 439.15 -41.147 49.739 0.24094
55.452 196.13 447.31 54.231 53.086 -5.4913
55.452 196.13 447.31 54.231 53.086 -5.4913
55.452 196.13 447.31 54.231 53.086 -5.4913
55.452 196.13 447.31 54.231 53.086 -5.4913
55.452 196.13 447.31 54.231 53.086 -5.4913
48.634 181.99 439.15 -41.147 49.739 0.24094
48.634 181.99 439.15 -41.147 49.739 0.24094
48.634 181.99 439.15 -41.147 49.739 0.24094
48.634 181.99 439.15 -41.147 49.739 0.24094
48.634 181.99 439.15 -41.147 49.739 0.24094
55.452 196.13 447.31 54.231 53.086 -5.4913
55.452 196.13 447.31 54.231 53.086 -5.4913
55.452 196.13 447.31 54.231 53.086 -5.4913
55.452 196.13 447.31 54.231 53.086 -5.4913
55.452 196.13 447.31 54.231 53.086 -5.4913
48.634 181.99 439.15 -41.147 49.739 0.24094
48.634 181.99 439.15 -41.147 49.739 0.24094
48.634 181.99 439.15 -41.147 49.739 0.24094
48.634 181.99 439.15 -41.147 49.739 0.24094
48.634 181.99 439.15 -41.147 49.739 0.24094
55.452 196.13 447.31 54.231 53.086 -5.4913
55.452 196.13 447.31 54.231 53.086 -5.4913
55.452 196.13 447.31 54.231 53.086 -5.4913
55.452 196.13 447.31 54.231 53.086 -5.4913
55.452 196.13 447.31 54.231 53.086 -5.4913
48.634 181.99 439.15 -41.147 49.739 0.24094
48.634 181.99 439.15 -41.147 49.739 0.24094
48.634 181.99 439.15 -41.147 49.739 0.24094
48.634 181.99 439.15 -41.147 49.739 0.24094
48.634 181.99 439.15 -41.147 49.739 0.24094
55.452 196.13 447.31 54.231 53.086 -5.4913
55.452 196.13 447.31 54.231 53.086 -5.4913
55.452 196.13 447.31 54.231 53.086 -5.4913
55.452 196.13 447.31 54.231 53.086 -5.4913
55.452 196.13 447.31 54.231 53.086 -5.4913
48.634 181.99 439.15 -41.147 49.739 0.24094
48.634 181.99 439.15 -41.147 49.739 0.24094
48.634 181.99 439.15 -41.147 49.739 0.24094
48.634 181.99 439.15 -41.147 49.739 0.24094
48.634 181.99 439.15 -41.147 49.739 0.24094
55.452 196.13 447.31 54.231 53.086 -5.4913
55.452 196.13 447.31 54.231 53.086 -5.4913
55.452 196.13 447.31 54.231 53.086 -5.4913
55.452 196.13 447.31 54.231 53.086 -5.4913
55.452 196.13 447.31 54.231 53.086 -5.4913
48.634 181.99 439.15 -41.147 49.739 0.24094
48.634 181.99 439.15 -41.147 49.739 0.24094
48.634 181.99 439.15 -41.147 49.739 0.24094
48.634 181.99 439.15 -41.147 49.739 0.24094
48.634 181.99 439.15 -41.147 49.739 0.24094
55.452 196.13 447.31 54.231 53.086 -5.4913
55.452 196.13 447.31 54.231 53.086 -5.4913
55.452 196.13 447.31 54.231 53.086 -5.4913
55.452 196.13 447.31 54.231 53.086 -5.4913
55.452 196.13 447.31 54.231 53.086 -5.4913
48.634 181.99 439.15 -41.147 49.739 0.24094
48.634 181.99 439.15 -41.147 49.739 0.24094
48.634 181.99 439.15 -41.147 49.739 0.24094
48.634 181.99 439.15 -41.147 49.739 0.24094
48.634 181.99 439.15 -41.147 49.739 0.24094
55.452 196.13 447.31 54.231 53.086 -5.4913
55.452 196.13 447.31 54.231 53.086 -5.4913
55.452 196.13 447.31 54.231 53.086 -5.4913
55.452 196.13 447.31 54.231 53.086 -5.4913
55.452 196.13 447.31 54.231 53.086 -5.4913
48.634 181.99 439.15 -41.147 49.739 0.24094
48.634 181.99 439.15 -41.147 49.739 0.24094
48.634 181.99 439.15 -41.147 49.739 0.24094
48.634 181.99 439.15 -41.147 49.739 0.24094
48.634 181.99 439.15 -41.147 49.739 0.24094
55.452 196.13 447.31 54.231 53.086 -5.4913
55.452 196.13 447.31 54.231 53.086 -5.4913
55.452 196.13 447.31 54.231 53.086 -5.4913
55.452 196.13 447.31 54.231 53.086 -5.4913
55.452 196.13 447.31 54.231 53.086 -5.4913
48.634 181.99 439.15 -41.147 49.739 0.24094
48.634 181.99 439.15 -41.147 49.739 0.24094
48.634 181.99 439.15 -41.147 49.739 0.24094
48.634 181.99 439.15 -41.147 49.739 0.24094
48.634 181.99 439.15 -41.147 49.739 0.24094
56.941 33.43 232.26 15.711 47.815 -9.21
56.941 33.43 232.26 15.711 47.815 -9.21
56.941 33.43 232.26 15.711 47.815 -9.21
56.941 33.43 232.26 15.711 47.815 -9.21
56.941 33.43 232.26 15.711 47.815 -9.21
63.176 43.046 243.15 -21.905 50.777 9.9118
63.176 43.046 243.15 -21.905 50.777 9.9118
63.176 43.046 243.15 -21.905 50.777 9.9118
63.176 43.046 243.15 -21.905 50.777 9.9118
63.176 43.046 243.15 -21.905 50.777 9.9118
56.941 33.43 232.26 15.711 47.815 -9.21
56.941 33.43 232.26 15.711 47.815 -9.21
56.941 33.43 232.26 15.711 47.815 -9.21
56.941 33.43 232.26 15.711 47.815 -9.21
56.941 33.43 232.26 15.711 47.815 -9.21
63.176 43.046 243.15 -21.905 50.777 9.9118
63.176 43.046 243.15 -21.905 50.777 9.9118
63.176 43.046 243.15 -21.905 50.777 9.9118
63.176 43.046 243.15 -21.905 50.777 9.9118
63.176 43.046 243.15 -21.905 50.777 9.9118
56.941 33.43 232.26 15.711 47.815 -9.21
56.941 33.43 232.26 15.711 47.815 -9.21
56.941 33.43 232.26 15.711 47.815 -9.21
56.941 33.43 232.26 15.711 47.815 -9.21
56.941 33.43 232.26 15.711 47.815 -9.21
63.176 43.046 243.15 -21.905 50.777 9.9118
63.176 43.046 243.15 -21.905 50.777 9.9118
63.176 43.046 243.15 -21.905 50.777 9.9118
63.176 43.046 243.15 -21.905 50.777 9.9118
63.176 43.046 243.15 -21.905 50.777 9.9118
56.941 33.43 232.26 15.711 47.815 -9.21
56.941 33.43 232.26 15.711 47.815 -9.21
56.941 33.43 232.26 15.711 47.815 -9.21
56.941 33.43 232.26 15.711 47.815 -9.21
56.941 33.43 232.26 15.711 47.815 -9.21
63.176 43.046 243.15 -21.905 50.777 9.9118
63.176 43.046 243.15 -21.905 50.777 9.9118
63.176 43.046 243.15 -21.905 50.777 9.9118
63.176 43.046 243.15 -21.905 50.777 9.9118
63.176 43.046 243.15 -21.905 50.777 9.9118
56.941 33.43 232.26 15.711 47.815 -9.21
56.941 33.43 232.26 15.711 47.815 -9.21
56.941 33.43 232.26 15.711 47.815 -9.21
56.941 33.43 232.26 15.711 47.815 -9.21
56.941 33.43 232.26 15.711 47.815 -9.21
63.176 43.046 243.15 -21.905 50.777 9.9118
63.176 43.046 243.15 -21.905 50.777 9.9118
63.176 43.046 243.15 -21.905 50.777 9.9118
63.176 43.046 243.15 -21.905 50.777 9.9118
63.176 43.046 243.15 -21.905 50.777 9.9118
56.941 33.43 232.26 15.711 47.815 -9.21
56.941 33.43 232.26 15.711 47.815 -9.21
56.941 33.43 232.26 15.711 47.815 -9.21
56.941 33.43 232.26 15.711 47.815 -9.21
56.941 33.43 232.26 15.711 47.815 -9.21
63.176 43.046 243.15 -21.905 50.777 9.9118
63.176 43.046 243.15 -21.905 50.777 9.9118
63.176 43.046 243.15 -21.905 50.777 9.9118
63.176 43.046 243.15 -21.905 50.777 9.9118
63.176 43.046 243.15 -21.905 50.777 9.9118
56.941 33.43 232.26 15.711 47.815 -9.21
56.941 33.43 232.26 15.711 47.815 -9.21
56.941 33.43 232.26 15.711 47.815 -9.21
56.941 33.43 232.26 15.711 47.815 -9.21
56.941 33.43 232.26 15.711 47.815 -9.21
63.176 43.046 243.15 -21.905 50.777 9.9118
63.176 43.046 243.15 -21.905 50.777 9.9118
63.176 43.046 243.15 -21.905 50.777 9.9118
63.176 43.046 243.15 -21.905 50.777 9.9118
63.176 43.046 243.15 -21.905 50.777 9.9118
56.941 33.43 232.26 15.711 47.815 -9.21
56.941 33.43 232.26 15.711 47.815 -9.21
56.941 33.43 232.26 15.711 47.815 -9.21
56.941 33.43 232.26 15.711 47.815 -9.21
56.941 33.43 232.26 15.711 47.815 -9.21
63.176 43.046 243.15 -21.905 50.777 9.9118
63.176 43.046 243.15 -21.905 50.777 9.9118
63.176 43.046 243.15 -21.905 50.777 9.9118
63.176 43.046 243.15 -21.905 50.777 9.9118
63.176 43.046 243.15 -21.905 50.777 9.9118
56.941 33.43 232.26 15.711 47.815 -9.21
56.941 33.43 232.26 15.711 47.815 -9.21
56.941 33.43 232.26 15.711 47.815 -9.21
56.941 33.43 232.26 15.711 47.815 -9.21
56.941 33.43 232.26 15.711 47.815 -9.21
63.176 43.046 243.15 -21.905 50.777 9.9118
63.176 43.046 243.15 -21.905 50.777 9.9118
63.176 43.046 243.15 -21.905 50.777 9.9118
63.176 43.046 243.15 -21.905 50.777 9.9118
63.176 43.046 243.15 -21.905 50.777 9.9118
56.941 33.43 232.26 15.711 47.815 -9.21
56.941 33.43 232.26 15.711 47.815 -9.21
56.941 33.43 232.26 15.711 47.815 -9.21
56.941 33.43 232.26 15.711 47.815 -9.21
56.941 33.43 232.26 15.711 47.815 -9.21
63.176 43.046 243.15 -21.905 50.777 9.9118
63.176 43.046 243.15 -21.905 50.777 9.9118
63.176 43.046 243.15 -21.905 50.777 9.9118
63.176 43.046 243.15 -21.905 50.777 9.9118
63.176 43.046 243.15 -21.905 50.777 9.9118
55.452 196.13 447.31 54.231 53.086 -5.4913
55.452 196.13 447.31 54.231 53.086 -5.4913
55.452 196.13 447.31 54.231 53.086 -5.4913
55.452 196.13 447.31 54.231 53.086 -5.4913
55.452 196.13 447.31 54.231 53.086 -5.4913
48.634 181.99 439.15 -41.147 49.739 0.24094
48.634 181.99 439.15 -41.147 49.739 0.24094
48.634 181.99 439.15 -41.147 49.739 0.24094
48.634 181.99 439.15 -41.147 49.739 0.24094
48.634 181.99 439.15 -41.147 49.739 0.24094
55.452 196.13 447.31 54.231 53.086 -5.4913
55.452 196.13 447.31 54.231 53.086 -5.4913
55.452 196.13 447.31 54.231 53.086 -5.4913
55.452 196.13 447.31 54.231 53.086 -5.4913
55.452 196.13 447.31 54.231 53.086 -5.4913
48.634 181.99 439.15 -41.147 49.739 0.24094
48.634 181.99 439.15 -41.147 49.739 0.24094
48.634 181.99 439.15 -41.147 49.739 0.24094
48.634 181.99 439.15 -41.147 49.739 0.24094
48.634 181.99 439.15 -41.147 49.739 0.24094
55.452 196.13 447.31 54.231 53.086 -5.4913
55.452 196.13 447.31 54.231 53.086 -5.4913
55.452 196.13 447.31 54.231 53.086 -5.4913
55.452 196.13 447.31 54.231 53.086 -5.4913
55.452 196.13 447.31 54.231 53.086 -5.4913
48.634 181.99 439.15 -41.147 49.739 0.24094
48.634 181.99 439.15 -41.147 49.739 0.24094
48.634 181.99 439.15 -41.147 49.739 0.24094
48.634 181.99 439.15 -41.147 49.739 0.24094
48.634 181.99 439.15 -41.147 49.739 0.24094
55.452 196.13 447.31 54.231 53.086 -5.4913
55.452 196.13 447.31 54.231 53.086 -5.4913
55.452 196.13 447.31 54.231 53.086 -5.4913
55.452 196.13 447.31 54.231 53.086 -5.4913
55.452 196.13 447.31 54.231 53.086 -5.4913
48.634 181.99 439.15 -41.147 49.739 0.24094
48.634 181.99 439.15 -41.147 49.739 0.24094
48.634 181.99 439.15 -41.147 49.739 0.24094
48.634 181.99 439.15 -41.147 49.739 0.24094
48.634 181.99 439.15 -41.147 49.739 0.24094
55.452 196.13 447.31 54.231 53.086 -5.4913
55.452 196.13 447.31 54.231 53.086 -5.4913
55.452 196.13 447.31 54.231 53.086 -5.4913
55.452 196.13 447.31 54.231 53.086 -5.4913
55.452 196.13 447.31 54.231 53.086 -5.4913
48.634 181.99 439.15 -41.147 49.739 0.24094
48.634 181.99 439.15 -41.147 49.739 0.24094
48.634 181.99 439.15 -41.147 49.739 0.24094
48.634 181.99 439.15 -41.147 49.739 0.24094
48.634 181.99 439.15 -41.147 49.739 0.24094
55.452 196.13 447.31 54.231 53.086 -5.4913
55.452 196.13 447.31 54.231 53.086 -5.4913
55.452 196.13 447.31 54.231 53.086 -5.4913
55.452 196.13 447.31 54.231 53.086 -5.4913
55.452 196.13 447.31 54.231 53.086 -5.4913
48.634 181.99 439.15 -41.147 49.739 0.24094
48.634 181.99 439.15 -41.147 49.739 0.24094
48.634 181.99 439.15 -41.147 49.739 0.24094
48.634 181.99 439.15 -41.147 49.739 0.24094
48.634 181.99 439.15 -41.147 49.739 0.24094
55.452 196.13 447.31 54.231 53.086 -5.4913
55.452 196.13 447.31 54.231 53.086 -5.4913
55.452 196.13 447.31 54.231 53.086 -5.4913
55.452 196.13 447.31 54.231 53.086 -5.4913
55.452 196.13 447.31 54.231 53.086 -5.4913
48.634 181.99 439.15 -41.147 49.739 0.24094
48.634 181.99 439.15 -41.147 49.739 0.24094
48.634 181.99 439.15 -41.147 49.739 0.24094
48.634 181.99 439.15 -41.147 49.739 0.24094
48.634 181.99 439.15 -41.147 49.739 0.24094
55.452 196.13 447.31 54.231 53.086 -5.4913
55.452 196.13 447.31 54.231 53.086 -5.4913
55.452 196.13 447.31 54.231 53.086 -5.4913
55.452 196.13 447.31 54.231 53.086 -5.4913
55.452 196.13 447.31 54.231 53.086 -5.4913
48.634 181.99 439.15 -41.147 49.739 0.24094
48.634 181.99 439.15 -41.147 49.739 0.24094
48.634 181.99 439.15 -41.147 49.739 0.24094
48.634 181.99 439.15 -41.147 49.739 0.24094
48.634 181.99 439.15 -41.147 49.739 0.24094
55.452 196.13 447.31 54.231 53.086 -5.4913
55.452 196.13 447.31 54.231 53.086 -5.4913
55.452 196.13 447.31 54.231 53.086 -5.4913
55.452 196.13 447.31 54.231 53.086 -5.4913
55.452 196.13 447.31 54.231 53.086 -5.4913
48.634 181.99 439.15 -41.147 49.739 0.24094
48.634 181.99 439.15 -41.147 49.739 0.24094
48.634 181.99 439.15 -41.147 49.739 0.24094
48.634 181.99 439.15 -41.147 49.739 0.24094
48.634 181.99 439.15 -41.147 49.739 0.24094
55.452 196.13 447.31 54.231 53.086 -5.4913
55.452 196.13 447.31 54.231 53.086 -5.4913
55.452 196.13 447.31 54.231 53.086 -5.4913
55.452 196.13 447.31 54.231 53.086 -5.4913
55.452 196.13 447.31 54.231 53.086 -5.4913
48.634 181.99 439.15 -41.147 49.739 0.24094
48.634 181.99 439.15 -41.147 49.739 0.24094
48.634 181.99 439.15 -41.147 49.739 0.24094
48.634 181.99 439.15 -41.147 49.739 0.24094
48.634 181.99 439.15 -41.147 49.739 0.24094
55.452 196.13 447.31 54.231 53.086 -5.4913
55.452 196.13 447.31 54.231 53.086 -5.4913
55.452 196.13 447.31 54.231 53.086 -5.4913
55.452 196.13 447.31 54.231 53.086 -5.4913
55.452 196.13 447.31 54.231 53.086 -5.4913
48.634 181.99 439.15 -41.147 49.739 0.24094
48.634 181.99 439.15 -41.147 49.739 0.24094
48.634 181.99 439.15 -41.147 49.739 0.24094
48.634 181.99 439.15 -41.147 49.739 0.24094
48.634 181.99 439.15 -41.147 49.739 0.24094
55.452 196.13 447.31 54.231 53.086 -5.4913
55.452 196.13 447.31 54.231 53.086 -5.4913
55.452 196.13 447.31 54.231 53.086 -5.4913
55.452 196.13 447.31 54.231 53.086 -5.4913
55.452 196.13 447.31 54.231 53.086 -5.4913
48.634 181.99 439.15 -41.147 49.739 0.24094
48.634 181.99 439.15 -41.147 49.739 0.24094
48.634 181.99 439.15 -41.147 49.739 0.24094
48.634 181.99 439.15 -41.147 49.739 0.24094
48.634 181.99 439.15 -41.147 49.739 0.24094
55.452 196.13 447.31 54.231 53.086 -5.4913
55.452 196.13 447.31 54.231 53.086 -5.4913
55.452 196.13 447.31 54.231 53.086 -5.4913
55.452 196.13 447.31 54.231 53.086 -5.4913
55.452 196.13 447.31 54.231 53.086 -5.4913
48.634 181.99 439.15 -41.147 49.739 0.24094
48.634 181.99 439.15 -41.147 49.739 0.24094
48.634 181.99 439.15 -41.147 49.739 0.24094
48.634 181.99 439.15 -41.147 49.739 0.24094
48.634 181.99 439.15 -41.147 49.739 0.24094
55.452 196.13 447.31 54.231 53.086 -5.4913
55.452 196.13 447.31 54.231 53.086 -5.4913
55.452 196.13 447.31 54.231 53.086 -5.4913
55.452 196.13 447.31 54.231 53.086 -5.4913
55.452 196.13 447.31 54.231 53.086 -5.4913
48.634 181.99 439.15 -41.147 49.739 0.24094
48.634 181.99 439.15 -41.147 49.739 0.24094
48.634 181.99 439.15 -41.147 49.739 0.24094
48.634 181.99 439.15 -41.147 49.739 0.24094
48.634 181.99 439.15 -41.147 49.739 0.24094
55.452 196.13 447.31 54.231 53.086 -5.4913
55.452 196.13 447.31 54.231 53.086 -5.4913
55.452 196.13 447.31 54.231 53.086 -5.4913
55.452 196.13 447.31 54.231 53.086 -5.4913
55.452 196.13 447.31 54.231 53.086 -5.4913
48.634 181.99 439.15 -41.147 49.739 0.24094
48.634 181.99 439.15 -41.147 49.739 0.24094
48.634 181.99 439.15 -41.147 49.739 0.24094
48.634 181.99 439.15 -41.147 49.739 0.24094
48.634 181.99 439.15 -41.147 49.739 0.24094
55.452 196.13 447.31 54.231 53.086 -5.4913
55.452 196.13 447.31 54.231 53.086 -5.4913
55.452 196.13 447.31 54.231 53.086 -5.4913
55.452 196.13 447.31 54.231 53.086 -5.4913
55.452 196.13 447.31 54.231 53.086 -5.4913
48.634 181.99 439.15 -41.147 49.739 0.24094
48.634 181.99 439.15 -41.147 49.739 0.24094
48.634 181.99 439.15 -41.147 49.739 0.24094
48.634 181.99 439.15 -41.147 49.739 0.24094
48.634 181.99 439.15 -41.147 49.739 0.24094
55.452 196.13 447.31 54.231 53.086 -5.4913
55.452 196.13 447.31 54.231 53.086 -5.4913
55.452 196.13 447.31 54.231 53.086 -5.4913
55.452 196.13 447.31 54.231 53.086 -5.4913
55.452 196.13 447.31 54.231 53.086 -5.4913
48.634 181.99 439.15 -41.147 49.739 0.24094
48.634 181.99 439.15 -41.147 49.739 0.24094
48.634 181.99 439.15 -41.147 49.739 0.24094
48.634 181.99 439.15 -41.147 49.739 0.24094
48.634 181.99 439.15 -41.147 49.739 0.24094
55.452 196.13 447.31 54.231 53.086 -5.4913
55.452 196.13 447.31 54.231 53.086 -5.4913
55.452 196.13 447.31 54.231 53.086 -5.4913
55.452 196.13 447.31 54.231 53.086 -5.4913
55.452 196.13 447.31 54.231 53.086 -5.4913
48.634 181.99 439.15 -41.147 49.739 0.24094
48.634 181.99 439.15 -41.147 49.739 0.24094
48.634 181.99 439.15 -41.147 49.739 0.24094
48.634 181.99 439.15 -41.147 49.739 0.24094
48.634 181.99 439.15 -41.147 49.739 0.24094
55.452 196.13 447.31 54.231 53.086 -5.4913
55.452 196.13 447.31 54.231 53.086 -5.4913
55.452 196.13 447.31 54.231 53.086 -5.4913
55.452 196.13 447.31 54.231 53.086 -5.4913
55.452 196.13 447.31 54.231 53.086 -5.4913
48.634 181.99 439.15 -41.147 49.739 0.24094
48.634 181.99 439.15 -41.147 49.739 0.24094
48.634 181.99 439.15 -41.147 49.739 0.24094
48.634 181.99 439.15 -41.147 49.739 0.24094
48.634 181.99 439.15 -41.147 49.739 0.24094
55.452 196.13 447.31 54.231 53.086 -5.4913
55.452 196.13 447.31 54.231 53.086 -5.4913
55.452 196.13 447.31 54.231 53.086 -5.4913
55.452 196.13 447.31 54.231 53.086 -5.4913
55.452 196.13 447.31 54.231 53.086 -5.4913
48.634 181.99 439.15 -41.147 49.739 0.24094
48.634 181.99 439.15 -41.147 49.739 0.24094
48.634 181.99 439.15 -41.147 49.739 0.24094
48.634 181.99 439.15 -41.147 49.739 0.24094
48.634 181.99 439.15 -41.147 49.739 0.24094
56.941 33.43 232.26 15.711 47.815 -9.21
56.941 33.43 232.26 15.711 47.815 -9.21
56.941 33.43 232.26 15.711 47.815 -9.21
56.941 33.43 232.26 15.711 47.815 -9.21
56.941 33.43 232.26 15.711 47.815 -9.21
63.176 43.046 243.15 -21.905 50.777 9.9118
63.176 43.046 243.15 -21.905 50.777 9.9118
63.176 43.046 243.15 -21.905 50.777 9.9118
63.176 43.046 243.15 -21.905 50.777 9.9118
63.176 43.046 243.15 -21.905 50.777 9.9118
56.941 33.43 232.26 15.711 47.815 -9.21
56.941 33.43 232.26 15.711 47.815 -9.21
56.941 33.43 232.26 15.711 47.815 -9.21
56.941 33.43 232.26 15.711 47.815 -9.21
56.941 33.43 232.26 15.711 47.815 -9.21
63.176 43.046 243.15 -21.905 50.777 9.9118
63.176 43.046 243.15 -21.905 50.777 9.9118
63.176 43.046 243.15 -21.905 50.777 9.9118
63.176 43.046 243.15 -21.905 50.777 9.9118
63.176 43.046 243.15 -21.905 50.777 9.9118
56.941 33.43 232.26 15.711 47.815 -9.21
56.941 33.43 232.26 15.711 47.815 -9.21
56.941 33.43 232.26 15.711 47.815 -9.21
56.941 33.43 232.26 15.711 47.815 -9.21
56.941 33.43 232.26 15.711 47.815 -9.21
63.176 43.046 243.15 -21.905 50.777 9.9118
63.176 43.046 243.15 -21.905 50.777 9.9118
63.176 43.046 243.15 -21.905 50.777 9.9118
63.176 43.046 243.15 -21.905 50.777 9.9118
63.176 43.046 243.15 -21.905 50.777 9.9118
56.941 33.43 232.26 15.711 47.815 -9.21
56.941 33.43 232.26 15.711 47.815 -9.21
56.941 33.43 232.26 15.711 47.815 -9.21
56.941 33.43 232.26 15.711 47.815 -9.21
56.941 33.43 232.26 15.711 47.815 -9.21
63.176 43.046 243.15 -21.905 50.777 9.9118
63.176 43.046 243.15 -21.905 50.777 9.9118
63.176 43.046 243.15 -21.905 50.777 9.9118
63.176 43.046 243.15 -21.905 50.777 9.9118
63.176 43.046 243.15 -21.905 50.777 9.9118
56.941 33.43 232.26 15.711 47.815 -9.21
56.941 33.43 232.26 15.711 47.815 -9.21
56.941 33.43 232.26 15.711 47.815 -9.21
56.941 33.43 232.26 15.711 47.815 -9.21
56.941 33.43 232.26 15.711 47.815 -9.21
63.176 43.046 243.15 -21.905 50.777 9.9118
63.176 43.046 243.15 -21.905 50.777 9.9118
63.176 43.046 243.15 -21.905 50.777 9.9118
63.176 43.046 243.15 -21.905 50.777 9.9118
63.176 43.046 243.15 -21.905 50.777 9.9118
56.941 33.43 232.26 15.711 47.815 -9.21
56.941 33.43 232.26 15.711 47.815 -9.21
56.941 33.43 232.26 15.711 47.815 -9.21
56.941 33.43 232.26 15.711 47.815 -9.21
56.941 33.43 232.26 15.711 47.815 -9.21
63.176 43.046 243.15 -21.905 50.777 9.9118
63.176 43.046 243.15 -21.905 50.777 9.9118
63.176 43.046 243.15 -21.905 50.777 9.9118
63.176 43.046 243.15 -21.905 50.777 9.9118
63.176 43.046 243.15 -21.905 50.777 9.9118
56.941 33.43 232.26 15.711 47.815 -9.21
56.941 33.43 232.26 15.711 47.815 -9.21
56.941 33.43 232.26 15.711 47.815 -9.21
56.941 33.43 232.26 15.711 47.815 -9.21
56.941 33.43 232.26 15.711 47.815 -9.21
63.176 43.046 243.15 -21.905 50.777 9.9118
63.176 43.046 243.15 -21.905 50.777 9.9118
63.176 43.046 243.15 -21.905 50.777 9.9118
63.176 43.046 243.15 -21.905 50.777 9.9118
63.176 43.046 243.15 -21.905 50.777 9.9118
56.941 33.43 232.26 15.711 47.815 -9.21
56.941 33.43 232.26 15.711 47.815 -9.21
56.941 33.43 232.26 15.711 47.815 -9.21
56.941 33.43 232.26 15.711 47.815 -9.21
56.941 33.43 232.26 15.711 47.815 -9.21
63.176 43.046 243.15 -21.905 50.777 9.9118
63.176 43.046 243.15 -21.905 50.777 9.9118
63.176 43.046 243.15 -21.905 50.777 9.9118
63.176 43.046 243.15 -21.905 50.777 9.9118
63.176 43.046 243.15 -21.905 50.777 9.9118
56.941 33.43 232.26 15.711 47.815 -9.21
56.941 33.43 232.26 15.711 47.815 -9.21
56.941 33.43 232.26 15.711 47.815 -9.21
56.941 33.43 232.26 15.711 47.815 -9.21
56.941 33.43 232.26 15.711 47.815 -9.21
63.176 43.046 243.15 -21.905 50.777 9.9118
63.176 43.046 243.15 -21.905 50.777 9.9118
63.176 43.046 243.15 -21.905 50.777 9.9118
63.176 43.046 243.15 -21.905 50.777 9.9118
63.176 43.046 243.15 -21.905 50.777 9.9118
56.941 33.43 232.26 15.711 47.815 -9.21
56.941 33.43 232.26 15.711 47.815 -9.21
56.941 33.43 232.26 15.711 47.815 -9.21
56.941 33.43 232.26 15.711 47.815 -9.21
56.941 33.43 232.26 15.711 47.815 -9.21
63.176 43.046 243.15 -21.905 50.777 9.9118
63.176 43.046 243.15 -21.905 50.777 9.9118
63.176 43.046 243.15 -21.905 50.777 9.9118
63.176 43.046 243.15 -21.905 50.777 9.9118
63.176 43.046 243.15 -21.905 50.777 9.9118
-90.179 -237.35 -625.55 -104.6 -485.7 -5.9076
-90.179 -237.35 -625.55 -104.6 -485.7 -5.9076
-90.179 -237.35 -625.55 -104.6 -485.7 -5.9076
-90.179 -237.35 -625.55 -104.6 -485.7 -5.9076
-90.179 -237.35 -625.55 -104.6 -485.7 -5.9076
-136.96 -351.24 -666.39 5.1577 -502.6 3.4253
-136.96 -351.24 -666.39 5.1577 -502.6 3.4253
-136.96 -351.24 -666.39 5.1577 -502.6 3.4253
-136.96 -351.24 -666.39 5.1577 -502.6 3.4253
-136.96 -351.24 -666.39 5.1577 -502.6 3.4253
-90.179 -237.35 -625.55 -104.6 -485.7 -5.9076
-90.179 -237.35 -625.55 -104.6 -485.7 -5.9076
-90.179 -237.35 -625.55 -104.6 -485.7 -5.9076
-90.179 -237.35 -625.55 -104.6 -485.7 -5.9076
-90.179 -237.35 -625.55 -104.6 -485.7 -5.9076
-136.96 -351.24 -666.39 5.1577 -502.6 3.4253
-136.96 -351.24 -666.39 5.1577 -502.6 3.4253
-136.96 -351.24 -666.39 5.1577 -502.6 3.4253
-136.96 -351.24 -666.39 5.1577 -502.6 3.4253
-136.96 -351.24 -666.39 5.1577 -502.6 3.4253
-90.179 -237.35 -625.55 -104.6 -485.7 -5.9076
-90.179 -237.35 -625.55 -104.6 -485.7 -5.9076
-90.179 -237.35 -625.55 -104.6 -485.7 -5.9076
-90.179 -237.35 -625.55 -104.6 -485.7 -5.9076
-90.179 -237.35 -625.55 -104.6 -485.7 -5.9076
-136.96 -351.24 -666.39 5.1577 -502.6 3.4253
-136.96 -351.24 -666.39 5.1577 -502.6 3.4253
-136.96 -351.24 -666.39 5.1577 -502.6 3.4253
-136.96 -351.24 -666.39 5.1577 -502.6 3.4253
-136.96 -351.24 -666.39 5.1577 -502.6 3.4253
-90.179 -237.35 -625.55 -104.6 -485.7 -5.9076
-90.179 -237.35 -625.55 -104.6 -485.7 -5.9076
-90.179 -237.35 -625.55 -104.6 -485.7 -5.9076
-90.179 -237.35 -625.55 -104.6 -485.7 -5.9076
-90.179 -237.35 -625.55 -104.6 -485.7 -5.9076
-136.96 -351.24 -666.39 5.1577 -502.6 3.4253
-136.96 -351.24 -666.39 5.1577 -502.6 3.4253
-136.96 -351.24 -666.39 5.1577 -502.6 3.4253
-136.96 -351.24 -666.39 5.1577 -502.6 3.4253
-136.96 -351.24 -666.39 5.1577 -502.6 3.4253
-90.179 -237.35 -625.55 -104.6 -485.7 -5.9076
-90.179 -237.35 -625.55 -104.6 -485.7 -5.9076
-90.179 -237.35 -625.55 -104.6 -485.7 -5.9076
-90.179 -237.35 -625.55 -104.6 -485.7 -5.9076
-90.179 -237.35 -625.55 -104.6 -485.7 -5.9076
-136.96 -351.24 -666.39 5.1577 -502.6 3.4253
-136.96 -351.24 -666.39 5.1577 -502.6 3.4253
-136.96 -351.24 -666.39 5.1577 -502.6 3.4253
-136.96 -351.24 -666.39 5.1577 -502.6 3.4253
-136.96 -351.24 -666.39 5.1577 -502.6 3.4253
-90.179 -237.35 -625.55 -104.6 -485.7 -5.9076
-90.179 -237.35 -625.55 -104.6 -485.7 -5.9076
-90.179 -237.35 -625.55 -104.6 -485.7 -5.9076
-90.179 -237.35 -625.55 -104.6 -485.7 -5.9076
-90.179 -237.35 -625.55 -104.6 -485.7 -5.9076
-136.96 -351.24 -666.39 5.1577 -502.6 3.4253
-136.96 -351.24 -666.39 5.1577 -502.6 3.4253
-136.96 -351.24 -666.39 5.1577 -502.6 3.4253
-136.96 -351.24 -666.39 5.1577 -502.6 3.4253
-136.96 -351.24 -666.39 5.1577 -502.6 3.4253
-90.179 -237.35 -625.55 -104.6 -485.7 -5.9076
-90.179 -237.35 -625.55 -104.6 -485.7 -5.9076
-90.179 -237.35 -625.55 -104.6 -485.7 -5.9076
-90.179 -237.35 -625.55 -104.6 -485.7 -5.9076
-90.179 -237.35 -625.55 -104.6 -485.7 -5.9076
-136.96 -351.24 -666.39 5.1577 -502.6 3.4253
-136.96 -351.24 -666.39 5.1577 -502.6 3.4253
-136.96 -351.24 -666.39 5.1577 -502.6 3.4253
-136.96 -351.24 -666.39 5.1577 -502.6 3.4253
-136.96 -351.24 -666.39 5.1577 -502.6 3.4253
-90.179 -237.35 -625.55 -104.6 -485.7 -5.9076
-90.179 -237.35 -625.55 -104.6 -485.7 -5.9076
-90.179 -237.35 -625.55 -104.6 -485.7 -5.9076
-90.179 -237.35 -625.55 -104.6 -485.7 -5.9076
-90.179 -237.35 -625.55 -104.6 -485.7 -5.9076
-136.96 -351.24 -666.39 5.1577 -502.6 3.4253
-136.96 -351.24 -666.39 5.1577 -502.6 3.4253
-136.96 -351.24 -666.39 5.1577 -502.6 3.4253
-136.96 -351.24 -666.39 5.1577 -502.6 3.4253
-136.96 -351.24 -666.39 5.1577 -502.6 3.4253
-90.179 -237.35 -625.55 -104.6 -485.7 -5.9076
-90.179 -237.35 -625.55 -104.6 -485.7 -5.9076
-90.179 -237.35 -625.55 -104.6 -485.7 -5.9076
-90.179 -237.35 -625.55 -104.6 -485.7 -5.9076
-90.179 -237.35 -625.55 -104.6 -485.7 -5.9076
-136.96 -351.24 -666.39 5.1577 -502.6 3.4253
-136.96 -351.24 -666.39 5.1577 -502.6 3.4253
-136.96 -351.24 -666.39 5.1577 -502.6 3.4253
-136.96 -351.24 -666.39 5.1577 -502.6 3.4253
-136.96 -351.24 -666.39 5.1577 -502.6 3.4253
-90.179 -237.35 -625.55 -104.6 -485.7 -5.9076
-90.179 -237.35 -625.55 -104.6 -485.7 -5.9076
-90.179 -237.35 -625.55 -104.6 -485.7 -5.9076
-90.179 -237.35 -625.55 -104.6 -485.7 -5.9076
-90.179 -237.35 -625.55 -104.6 -485.7 -5.9076
-136.96 -351.24 -666.39 5.1577 -502.6 3.4253
-136.96 -351.24 -666.39 5.1577 -502.6 3.4253
-136.96 -351.24 -666.39 5.1577 -502.6 3.4253
-136.96 -351.24 -666.39 5.1577 -502.6 3.4253
-136.96 -351.24 -666.39 5.1577 -502.6 3.4253
-90.179 -237.35 -625.55 -104.6 -485.7 -5.9076
-90.179 -237.35 -625.55 -104.6 -485.7 -5.9076
-90.179 -237.35 -625.55 -104.6 -485.7 -5.9076
-90.179 -237.35 -625.55 -104.6 -485.7 -5.9076
-90.179 -237.35 -625.55 -104.6 -485.7 -5.9076
-136.96 -351.24 -666.39 5.1577 -502.6 3.4253
-136.96 -351.24 -666.39 5.1577 -502.6 3.4253
-136.96 -351.24 -666.39 5.1577 -502.6 3.4253
-136.96 -351.24 -666.39 5.1577 -502.6 3.4253
-136.96 -351.24 -666.39 5.1577 -502.6 3.4253
-90.179 -237.35 -625.55 -104.6 -485.7 -5.9076
-90.179 -237.35 -625.55 -104.6 -485.7 -5.9076
-90.179 -237.35 -625.55 -104.6 -485.7 -5.9076
-90.179 -237.35 -625.55 -104.6 -485.7 -5.9076
-90.179 -237.35 -625.55 -104.6 -485.7 -5.9076
-136.96 -351.24 -666.39 5.1577 -502.6 3.4253
-136.96 -351.24 -666.39 5.1577 -502.6 3.4253
-136.96 -351.24 -666.39 5.1577 -502.6 3.4253
-136.96 -351.24 -666.39 5.1577 -502.6 3.4253
-136.96 -351.24 -666.39 5.1577 -502.6 3.4253
-90.179 -237.35 -625.55 -104.6 -485.7 -5.9076
-90.179 -237.35 -625.55 -104.6 -485.7 -5.9076
-90.179 -237.35 -625.55 -104.6 -485.7 -5.9076
-90.179 -237.35 -625.55 -104.6 -485.7 -5.9076
-90.179 -237.35 -625.55 -104.6 -485.7 -5.9076
-136.96 -351.24 -666.39 5.1577 -502.6 3.4253
-136.96 -351.24 -666.39 5.1577 -502.6 3.4253
-136.96 -351.24 -666.39 5.1577 -502.6 3.4253
-136.96 -351.24 -666.39 5.1577 -502.6 3.4253
-136.96 -351.24 -666.39 5.1577 -502.6 3.4253
-90.179 -237.35 -625.55 -104.6 -485.7 -5.9076
-90.179 -237.35 -625.55 -104.6 -485.7 -5.9076
-90.179 -237.35 -625.55 -104.6 -485.7 -5.9076
-90.179 -237.35 -625.55 -104.6 -485.7 -5.9076
-90.179 -237.35 -625.55 -104.6 -485.7 -5.9076
-136.96 -351.24 -666.39 5.1577 -502.6 3.4253
-136.96 -351.24 -666.39 5.1577 -502.6 3.4253
-136.96 -351.24 -666.39 5.1577 -502.6 3.4253
-136.96 -351.24 -666.39 5.1577 -502.6 3.4253
-136.96 -351.24 -666.39 5.1577 -502.6 3.4253
-90.179 -237.35 -625.55 -104.6 -485.7 -5.9076
-90.179 -237.35 -625.55 -104.6 -485.7 -5.9076
-90.179 -237.35 -625.55 -104.6 -485.7 -5.9076
-90.179 -237.35 -625.55 -104.6 -485.7 -5.9076
-90.179 -237.35 -625.55 -104.6 -485.7 -5.9076
-136.96 -351.24 -666.39 5.1577 -502.6 3.4253
-136.96 -351.24 -666.39 5.1577 -502.6 3.4253
-136.96 -351.24 -666.39 5.1577 -502.6 3.4253
-136.96 -351.24 -666.39 5.1577 -502.6 3.4253
-136.96 -351.24 -666.39 5.1577 -502.6 3.4253
-90.179 -237.35 -625.55 -104.6 -485.7 -5.9076
-90.179 -237.35 -625.55 -104.6 -485.7 -5.9076
-90.179 -237.35 -625.55 -104.6 -485.7 -5.9076
-90.179 -237.35 -625.55 -104.6 -485.7 -5.9076
-90.179 -237.35 -625.55 -104.6 -485.7 -5.9076
-136.96 -351.24 -666.39 5.1577 -502.6 3.4253
-136.96 -351.24 -666.39 5.1577 -502.6 3.4253
-136.96 -351.24 -666.39 5.1577 -502.6 3.4253
-136.96 -351.24 -666.39 5.1577 -502.6 3.4253
-136.96 -351.24 -666.39 5.1577 -502.6 3.4253
-90.179 -237.35 -625.55 -104.6 -485.7 -5.9076
-90.179 -237.35 -625.55 -104.6 -485.7 -5.9076
-90.179 -237.35 -625.55 -104.6 -485.7 -5.9076
-90.179 -237.35 -625.55 -104.6 -485.7 -5.9076
-90.179 -237.35 -625.55 -104.6 -485.7 -5.9076
-136.96 -351.24 -666.39 5.1577 -502.6 3.4253
-136.96 -351.24 -666.39 5.1577 -502.6 3.4253
-136.96 -351.24 -666.39 5.1577 -502.6 3.4253
-136.96 -351.24 -666.39 5.1577 -502.6 3.4253
-136.96 -351.24 -666.39 5.1577 -502.6 3.4253
-90.179 -237.35 -625.55 -104.6 -485.7 -5.9076
-90.179 -237.35 -625.55 -104.6 -485.7 -5.9076
-90.179 -237.35 -625.55 -104.6 -485.7 -5.9076
-90.179 -237.35 -625.55 -104.6 -485.7 -5.9076
-90.179 -237.35 -625.55 -104.6 -485.7 -5.9076
-136.96 -351.24 -666.39 5.1577 -502.6 3.4253
-136.96 -351.24 -666.39 5.1577 -502.6 3.4253
-136.96 -351.24 -666.39 5.1577 -502.6 3.4253
-136.96 -351.24 -666.39 5.1577 -502.6 3.4253
-136.96 -351.24 -666.39 5.1577 -502.6 3.4253
-90.179 -237.35 -625.55 -104.6 -485.7 -5.9076
-90.179 -237.35 -625.55 -104.6 -485.7 -5.9076
-90.179 -237.35 -625.55 -104.6 -485.7 -5.9076
-90.179 -237.35 -625.55 -104.6 -485.7 -5.9076
-90.179 -237.35 -625.55 -104.6 -485.7 -5.9076
-136.96 -351.24 -666.39 5.1577 -502.6 3.4253
-136.96 -351.24 -666.39 5.1577 -502.6 3.4253
-136.96 -351.24 -666.39 5.1577 -502.6 3.4253
-136.96 -351.24 -666.39 5.1577 -502.6 3.4253
-136.96 -351.24 -666.39 5.1577 -502.6 3.4253
-90.179 -237.35 -625.55 -104.6 -485.7 -5.9076
-90.179 -237.35 -625.55 -104.6 -485.7 -5.9076
-90.179 -237.35 -625.55 -104.6 -485.7 -5.9076
-90.179 -237.35 -625.55 -104.6 -485.7 -5.9076
-90.179 -237.35 -625.55 -104.6 -485.7 -5.9076
-136.96 -351.24 -666.39 5.1577 -502.6 3.4253
-136.96 -351.24 -666.39 5.1577 -502.6 3.4253
-136.96 -351.24 -666.39 5.1577 -502.6 3.4253
-136.96 -351.24 -666.39 5.1577 -502.6 3.4253
-136.96 -351.24 -666.39 5.1577 -502.6 3.4253
-90.179 -237.35 -625.55 -104.6 -485.7 -5.9076
-90.179 -237.35 -625.55 -104.6 -485.7 -5.9076
-90.179 -237.35 -625.55 -104.6 -485.7 -5.9076
-90.179 -237.35 -625.55 -104.6 -485.7 -5.9076
-90.179 -237.35 -625.55 -104.6 -485.7 -5.9076
-136.96 -351.24 -666.39 5.1577 -502.6 3.4253
-136.96 -351.24 -666.39 5.1577 -502.6 3.4253
-136.96 -351.24 -666.39 5.1577 -502.6 3.4253
-136.96 -351.24 -666.39 5.1577 -502.6 3.4253
-136.96 -351.24 -666.39 5.1577 -502.6 3.4253
-90.179 -237.35 -625.55 -104.6 -485.7 -5.9076
-90.179 -237.35 -625.55 -104.6 -485.7 -5.9076
-90.179 -237.35 -625.55 -104.6 -485.7 -5.9076
-90.179 -237.35 -625.55 -104.6 -485.7 -5.9076
-90.179 -237.35 -625.55 -104.6 -485.7 -5.9076
-136.96 -351.24 -666.39 5.1577 -502.6 3.4253
-136.96 -351.24 -666.39 5.1577 -502.6 3.4253
-136.96 -351.24 -666.39 5.1577 -502.6 3.4253
-136.96 -351.24 -666.39 5.1577 -502.6 3.4253
-136.96 -351.24 -666.39 5.1577 -502.6 3.4253
-90.179 -237.35 -625.55 -104.6 -485.7 -5.9076
-90.179 -237.35 -625.55 -104.6 -485.7 -5.9076
-90.179 -237.35 -625.55 -104.6 -485.7 -5.9076
-90.179 -237.35 -625.55 -104.6 -485.7 -5.9076
-90.179 -237.35 -625.55 -104.6 -485.7 -5.9076
-136.96 -351.24 -666.39 5.1577 -502.6 3.4253
-136.96 -351.24 -666.39 5.1577 -502.6 3.4253
-136.96 -351.24 -666.39 5.1577 -502.6 3.4253
-136.96 -351.24 -666.39 5.1577 -502.6 3.4253
-136.96 -351.24 -666.39 5.1577 -502.6 3.4253
-90.179 -237.35 -625.55 -104.6 -485.7 -5.9076
-90.179 -237.35 -625.55 -104.6 -485.7 -5.9076
-90.179 -237.35 -625.55 -104.6 -485.7 -5.9076
-90.179 -237.35 -625.55 -104.6 -485.7 -5.9076
-90.179 -237.35 -625.55 -104.6 -485.7 -5.9076
-136.96 -351.24 -666.39 5.1577 -502.6 3.4253
-136.96 -351.24 -666.39 5.1577 -502.6 3.4253
-136.96 -351.24 -666.39 5.1577 -502.6 3.4253
-136.96 -351.24 -666.39 5.1577 -502.6 3.4253
-136.96 -351.24 -666.39 5.1577 -502.6 3.4253
-90.179 -237.35 -625.55 -104.6 -485.7 -5.9076
-90.179 -237.35 -625.55 -104.6 -485.7 -5.9076
-90.179 -237.35 -625.55 -104.6 -485.7 -5.9076
-90.179 -237.35 -625.55 -104.6 -485.7 -5.9076
-90.179 -237.35 -625.55 -104.6 -485.7 -5.9076
-136.96 -351.24 -666.39 5.1577 -502.6 3.4253
-136.96 -351.24 -666.39 5.1577 -502.6 3.4253
-136.96 -351.24 -666.39 5.1577 -502.6 3.4253
-136.96 -351.24 -666.39 5.1577 -502.6 3.4253
-136.96 -351.24 -666.39 5.1577 -502.6 3.4253
-90.179 -237.35 -625.55 -104.6 -485.7 -5.9076
-90.179 -237.35 -625.55 -104.6 -485.7 -5.9076
-90.179 -237.35 -625.55 -104.6 -485.7 -5.9076
-90.179 -237.35 -625.55 -104.6 -485.7 -5.9076
-90.179 -237.35 -625.55 -104.6 -485.7 -5.9076
-136.96 -351.24 -666.39 5.1577 -502.6 3.4253
-136.96 -351.24 -666.39 5.1577 -502.6 3.4253
-136.96 -351.24 -666.39 5.1577 -502.6 3.4253
-136.96 -351.24 -666.39 5.1577 -502.6 3.4253
-136.96 -351.24 -666.39 5.1577 -502.6 3.4253
-90.179 -237.35 -625.55 -104.6 -485.7 -5.9076
-90.179 -237.35 -625.55 -104.6 -485.7 -5.9076
-90.179 -237.35 -625.55 -104.6 -485.7 -5.9076
-90.179 -237.35 -625.55 -104.6 -485.7 -5.9076
-90.179 -237.35 -625.55 -104.6 -485.7 -5.9076
-136.96 -351.24 -666.39 5.1577 -502.6 3.4253
-136.96 -351.24 -666.39 5.1577 -502.6 3.4253
-136.96 -351.24 -666.39 5.1577 -502.6 3.4253
-136.96 -351.24 -666.39 5.1577 -502.6 3.4253
-136.96 -351.24 -666.39 5.1577 -502.6 3.4253
-90.179 -237.35 -625.55 -104.6 -485.7 -5.9076
-90.179 -237.35 -625.55 -104.6 -485.7 -5.9076
-90.179 -237.35 -625.55 -104.6 -485.7 -5.9076
-90.179 -237.35 -625.55 -104.6 -485.7 -5.9076
-90.179 -237.35 -625.55 -104.6 -485.7 -5.9076
-136.96 -351.24 -666.39 5.1577 -502.6 3.4253
-136.96 -351.24 -666.39 5.1577 -502.6 3.4253
-136.96 -351.24 -666.39 5.1577 -502.6 3.4253
-136.96 -351.24 -666.39 5.1577 -502.6 3.4253
-136.96 -351.24 -666.39 5.1577 -502.6 3.4253
-90.179 -237.35 -625.55 -104.6 -485.7 -5.9076
-90.179 -237.35 -625.55 -104.6 -485.7 -5.9076
-90.179 -237.35 -625.55 -104.6 -485.7 -5.9076
-90.179 -237.35 -625.55 -104.6 -485.7 -5.9076
-90.179 -237.35 -625.55 -104.6 -485.7 -5.9076
-136.96 -351.24 -666.39 5.1577 -502.6 3.4253
-136.96 -351.24 -666.39 5.1577 -502.6 3.4253
-136.96 -351.24 -666.39 5.1577 -502.6 3.4253
-136.96 -351.24 -666.39 5.1577 -502.6 3.4253
-136.96 -351.24 -666.39 5.1577 -502.6 3.4253
-90.179 -237.35 -625.55 -104.6 -485.7 -5.9076
-90.179 -237.35 -625.55 -104.6 -485.7 -5.9076
-90.179 -237.35 -625.55 -104.6 -485.7 -5.9076
-90.179 -237.35 -625.55 -104.6 -485.7 -5.9076
-90.179 -237.35 -625.55 -104.6 -485.7 -5.9076
-136.96 -351.24 -666.39 5.1577 -502.6 3.4253
-136.96 -351.24 -666.39 5.1577 -502.6 3.4253
-136.96 -351.24 -666.39 5.1577 -502.6 3.4253
-136.96 -351.24 -666.39 5.1577 -502.6 3.4253
-136.96 -351.24 -666.39 5.1577 -502.6 3.4253
-90.179 -237.35 -625.55 -104.6 -485.7 -5.9076
-90.179 -237.35 -625.55 -104.6 -485.7 -5.9076
-90.179 -237.35 -625.55 -104.6 -485.7 -5.9076
-90.179 -237.35 -625.55 -104.6 -485.7 -5.9076
-90.179 -237.35 -625.55 -104.6 -485.7 -5.9076
-136.96 -351.24 -666.39 5.1577 -502.6 3.4253
-136.96 -351.24 -666.39 5.1577 -502.6 3.4253
-136.96 -351.24 -666.39 5.1577 -502.6 3.4253
-136.96 -351.24 -666.39 5.1577 -502.6 3.4253
-136.96 -351.24 -666.39 5.1577 -502.6 3.4253
-90.179 -237.35 -625.55 -104.6 -485.7 -5.9076
-90.179 -237.35 -625.55 -104.6 -485.7 -5.9076
-90.179 -237.35 -625.55 -104.6 -485.7 -5.9076
-90.179 -237.35 -625.55 -104.6 -485.7 -5.9076
-90.179 -237.35 -625.55 -104.6 -485.7 -5.9076
-136.96 -351.24 -666.39 5.1577 -502.6 3.4253
-136.96 -351.24 -666.39 5.1577 -502.6 3.4253
-136.96 -351.24 -666.39 5.1577 -502.6 3.4253
-136.96 -351.24 -666.39 5.1577 -502.6 3.4253
-136.96 -351.24 -666.39 5.1577 -502.6 3.4253
-90.179 -237.35 -625.55 -104.6 -485.7 -5.9076
-90.179 -237.35 -625.55 -104.6 -485.7 -5.9076
-90.179 -237.35 -625.55 -104.6 -485.7 -5.9076
-90.179 -237.35 -625.55 -104.6 -485.7 -5.9076
-90.179 -237.35 -625.55 -104.6 -485.7 -5.9076
-136.96 -351.24 -666.39 5.1577 -502.6 3.4253
-136.96 -351.24 -666.39 5.1577 -502.6 3.4253
-136.96 -351.24 -666.39 5.1577 -502.6 3.4253
-136.96 -351.24 -666.39 5.1577 -502.6 3.4253
-136.96 -351.24 -666.39 5.1577 -502.6 3.4253
-90.179 -237.35 -625.55 -104.6 -485.7 -5.9076
-90.179 -237.35 -625.55 -104.6 -485.7 -5.9076
-90.179 -237.35 -625.55 -104.6 -485.7 -5.9076
-90.179 -237.35 -625.55 -104.6 -485.7 -5.9076
-90.179 -237.35 -625.55 -104.6 -485.7 -5.9076
-136.96 -351.24 -666.39 5.1577 -502.6 3.4253
-136.96 -351.24 -666.39 5.1577 -502.6 3.4253
-136.96 -351.24 -666.39 5.1577 -502.6 3.4253
-136.96 -351.24 -666.39 5.1577 -502.6 3.4253
-136.96 -351.24 -666.39 5.1577 -502.6 3.4253
-90.179 -237.35 -625.55 -104.6 -485.7 -5.9076
-90.179 -237.35 -625.55 -104.6 -485.7 -5.9076
-90.179 -237.35 -625.55 -104.6 -485.7 -5.9076
-90.179 -237.35 -625.55 -104.6 -485.7 -5.9076
-90.179 -237.35 -625.55 -104.6 -485.7 -5.9076
-136.96 -351.24 -666.39 5.1577 -502.6 3.4253
-136.96 -351.24 -666.39 5.1577 -502.6 3.4253
-136.96 -351.24 -666.39 5.1577 -502.6 3.4253
-136.96 -351.24 -666.39 5.1577 -502.6 3.4253
-136.96 -351.24 -666.39 5.1577 -502.6 3.4253
-90.179 -237.35 -625.55 -104.6 -485.7 -5.9076
-90.179 -237.35 -625.55 -104.6 -485.7 -5.9076
-90.179 -237.35 -625.55 -104.6 -485.7 -5.9076
-90.179 -237.35 -625.55 -104.6 -485.7 -5.9076
-90.179 -237.35 -625.55 -104.6 -485.7 -5.9076
-136.96 -351.24 -666.39 5.1577 -502.6 3.4253
-136.96 -351.24 -666.39 5.1577 -502.6 3.4253
-136.96 -351.24 -666.39 5.1577 -502.6 3.4253
-136.96 -351.24 -666.39 5.1577 -502.6 3.4253
-136.96 -351.24 -666.39 5.1577 -502.6 3.4253
-90.179 -237.35 -625.55 -104.6 -485.7 -5.9076
-90.179 -237.35 -625.55 -104.6 -485.7 -5.9076
-90.179 -237.35 -625.55 -104.6 -485.7 -5.9076
-90.179 -237.35 -625.55 -104.6 -485.7 -5.9076
-90.179 -237.35 -625.55 -104.6 -485.7 -5.9076
-136.96 -351.24 -666.39 5.1577 -502.6 3.4253
-136.96 -351.24 -666.39 5.1577 -502.6 3.4253
-136.96 -351.24 -666.39 5.1577 -502.6 3.4253
-136.96 -351.24 -666.39 5.1577 -502.6 3.4253
-136.96 -351.24 -666.39 5.1577 -502.6 3.4253
-90.179 -237.35 -625.55 -104.6 -485.7 -5.9076
-90.179 -237.35 -625.55 -104.6 -485.7 -5.9076
-90.179 -237.35 -625.55 -104.6 -485.7 -5.9076
-90.179 -237.35 -625.55 -104.6 -485.7 -5.9076
-90.179 -237.35 -625.55 -104.6 -485.7 -5.9076
-136.96 -351.24 -666.39 5.1577 -502.6 3.4253
-136.96 -351.24 -666.39 5.1577 -502.6 3.4253
-136.96 -351.24 -666.39 5.1577 -502.6 3.4253
-136.96 -351.24 -666.39 5.1577 -502.6 3.4253
-136.96 -351.24 -666.39 5.1577 -502.6 3.4253
-90.179 -237.35 -625.55 -104.6 -485.7 -5.9076
-90.179 -237.35 -625.55 -104.6 -485.7 -5.9076
-90.179 -237.35 -625.55 -104.6 -485.7 -5.9076
-90.179 -237.35 -625.55 -104.6 -485.7 -5.9076
-90.179 -237.35 -625.55 -104.6 -485.7 -5.9076
-136.96 -351.24 -666.39 5.1577 -502.6 3.4253
-136.96 -351.24 -666.39 5.1577 -502.6 3.4253
-136.96 -351.24 -666.39 5.1577 -502.6 3.4253
-136.96 -351.24 -666.39 5.1577 -502.6 3.4253
-136.96 -351.24 -666.39 5.1577 -502.6 3.4253
-90.179 -237.35 -625.55 -104.6 -485.7 -5.9076
-90.179 -237.35 -625.55 -104.6 -485.7 -5.9076
-90.179 -237.35 -625.55 -104.6 -485.7 -5.9076
-90.179 -237.35 -625.55 -104.6 -485.7 -5.9076
-90.179 -237.35 -625.55 -104.6 -485.7 -5.9076
-136.96 -351.24 -666.39 5.1577 -502.6 3.4253
-136.96 -351.24 -666.39 5.1577 -502.6 3.4253
-136.96 -351.24 -666.39 5.1577 -502.6 3.4253
-136.96 -351.24 -666.39 5.1577 -502.6 3.4253
-136.96 -351.24 -666.39 5.1577 -502.6 3.4253
-90.179 -237.35 -625.55 -104.6 -485.7 -5.9076
-90.179 -237.35 -625.55 -104.6 -485.7 -5.9076
-90.179 -237.35 -625.55 -104.6 -485.7 -5.9076
-90.179 -237.35 -625.55 -104.6 -485.7 -5.9076
-90.179 -237.35 -625.55 -104.6 -485.7 -5.9076
-136.96 -351.24 -666.39 5.1577 -502.6 3.4253
-136.96 -351.24 -666.39 5.1577 -502.6 3.4253
-136.96 -351.24 -666.39 5.1577 -502.6 3.4253
-136.96 -351.24 -666.39 5.1577 -502.6 3.4253
-136.96 -351.24 -666.39 5.1577 -502.6 3.4253
-90.179 -237.35 -625.55 -104.6 -485.7 -5.9076
-90.179 -237.35 -625.55 -104.6 -485.7 -5.9076
-90.179 -237.35 -625.55 -104.6 -485.7 -5.9076
-90.179 -237.35 -625.55 -104.6 -485.7 -5.9076
-90.179 -237.35 -625.55 -104.6 -485.7 -5.9076
-136.96 -351.24 -666.39 5.1577 -502.6 3.4253
-136.96 -351.24 -666.39 5.1577 -502.6 3.4253
-136.96 -351.24 -666.39 5.1577 -502.6 3.4253
-136.96 -351.24 -666.39 5.1577 -502.6 3.4253
-136.96 -351.24 -666.39 5.1577 -502.6 3.4253
-90.179 -237.35 -625.55 -104.6 -485.7 -5.9076
-90.179 -237.35 -625.55 -104.6 -485.7 -5.9076
-90.179 -237.35 -625.55 -104.6 -485.7 -5.9076
-90.179 -237.35 -625.55 -104.6 -485.7 -5.9076
-90.179 -237.35 -625.55 -104.6 -485.7 -5.9076
-136.96 -351.24 -666.39 5.1577 -502.6 3.4253
-136.96 -351.24 -666.39 5.1577 -502.6 3.4253
-136.96 -351.24 -666.39 5.1577 -502.6 3.4253
-136.96 -351.24 -666.39 5.1577 -502.6 3.4253
-136.96 -351.24 -666.39 5.1577 -502.6 3.4253
-90.179 -237.35 -625.55 -104.6 -485.7 -5.9076
-90.179 -237.35 -625.55 -104.6 -485.7 -5.9076
-90.179 -237.35 -625.55 -104.6 -485.7 -5.9076
-90.179 -237.35 -625.55 -104.6 -485.7 -5.9076
-90.179 -237.35 -625.55 -104.6 -485.7 -5.9076
-136.96 -351.24 -666.39 5.1577 -502.6 3.4253
-136.96 -351.24 -666.39 5.1577 -502.6 3.4253
-136.96 -351.24 -666.39 5.1577 -502.6 3.4253
-136.96 -351.24 -666.39 5.1577 -502.6 3.4253
-136.96 -351.24 -666.39 5.1577 -502.6 3.4253
-90.179 -237.35 -625.55 -104.6 -485.7 -5.9076
-90.179 -237.35 -625.55 -104.6 -485.7 -5.9076
-90.179 -237.35 -625.55 -104.6 -485.7 -5.9076
-90.179 -237.35 -625.55 -104.6 -485.7 -5.9076
-90.179 -237.35 -625.55 -104.6 -485.7 -5.9076
-136.96 -351.24 -666.39 5.1577 -502.6 3.4253
-136.96 -351.24 -666.39 5.1577 -502.6 3.4253
-136.96 -351.24 -666.39 5.1577 -502.6 3.4253
-136.96 -351.24 -666.39 5.1577 -502.6 3.4253
-136.96 -351.24 -666.39 5.1577 -502.6 3.4253
-90.179 -237.35 -625.55 -104.6 -485.7 -5.9076
-90.179 -237.35 -625.55 -104.6 -485.7 -5.9076
-90.179 -237.35 -625.55 -104.6 -485.7 -5.9076
-90.179 -237.35 -625.55 -104.6 -485.7 -5.9076
-90.179 -237.35 -625.55 -104.6 -485.7 -5.9076
-136.96 -351.24 -666.39 5.1577 -502.6 3.4253
-136.96 -351.24 -666.39 5.1577 -502.6 3.4253
-136.96 -351.24 -666.39 5.1577 -502.6 3.4253
-136.96 -351.24 -666.39 5.1577 -502.6 3.4253
-136.96 -351.24 -666.39 5.1577 -502.6 3.4253
-90.179 -237.35 -625.55 -104.6 -485.7 -5.9076
-90.179 -237.35 -625.55 -104.6 -485.7 -5.9076
-90.179 -237.35 -625.55 -104.6 -485.7 -5.9076
-90.179 -237.35 -625.55 -104.6 -485.7 -5.9076
-90.179 -237.35 -625.55 -104.6 -485.7 -5.9076
-136.96 -351.24 -666.39 5.1577 -502.6 3.4253
-136.96 -351.24 -666.39 5.1577 -502.6 3.4253
-136.96 -351.24 -666.39 5.1577 -502.6 3.4253
-136.96 -351.24 -666.39 5.1577 -502.6 3.4253
-136.96 -351.24 -666.39 5.1577 -502.6 3.4253
-90.179 -237.35 -625.55 -104.6 -485.7 -5.9076
-90.179 -237.35 -625.55 -104.6 -485.7 -5.9076
-90.179 -237.35 -625.55 -104.6 -485.7 -5.9076
-90.179 -237.35 -625.55 -104.6 -485.7 -5.9076
-90.179 -237.35 -625.55 -104.6 -485.7 -5.9076
-136.96 -351.24 -666.39 5.1577 -502.6 3.4253
-136.96 -351.24 -666.39 5.1577 -502.6 3.4253
-136.96 -351.24 -666.39 5.1577 -502.6 3.4253
-136.96 -351.24 -666.39 5.1577 -502.6 3.4253
-136.96 -351.24 -666.39 5.1577 -502.6 3.4253
-90.179 -237.35 -625.55 -104.6 -485.7 -5.9076
-90.179 -237.35 -625.55 -104.6 -485.7 -5.9076
-90.179 -237.35 -625.55 -104.6 -485.7 -5.9076
-90.179 -237.35 -625.55 -104.6 -485.7 -5.9076
-90.179 -237.35 -625.55 -104.6 -485.7 -5.9076
-136.96 -351.24 -666.39 5.1577 -502.6 3.4253
-136.96 -351.24 -666.39 5.1577 -502.6 3.4253
-136.96 -351.24 -666.39 5.1577 -502.6 3.4253
-136.96 -351.24 -666.39 5.1577 -502.6 3.4253
-136.96 -351.24 -666.39 5.1577 -502.6 3.4253
-90.179 -237.35 -625.55 -104.6 -485.7 -5.9076
-90.179 -237.35 -625.55 -104.6 -485.7 -5.9076
-90.179 -237.35 -625.55 -104.6 -485.7 -5.9076
-90.179 -237.35 -625.55 -104.6 -485.7 -5.9076
-90.179 -237.35 -625.55 -104.6 -485.7 -5.9076
-136.96 -351.24 -666.39 5.1577 -502.6 3.4253
-136.96 -351.24 -666.39 5.1577 -502.6 3.4253
-136.96 -351.24 -666.39 5.1577 -502.6 3.4253
-136.96 -351.24 -666.39 5.1577 -502.6 3.4253
-136.96 -351.24 -666.39 5.1577 -502.6 3.4253
131.85 204.25 624.59 -70.874 -475.57 4.5053
131.85 204.25 624.59 -70.874 -475.57 4.5053
131.85 204.25 624.59 -70.874 -475.57 4.5053
131.85 204.25 624.59 -70.874 -475.57 4.5053
131.85 204.25 624.59 -70.874 -475.57 4.5053
87.59 92.495 590.38 39.038 -477.81 11.352
87.59 92.495 590.38 39.038 -477.81 11.352
87.59 92.495 590.38 39.038 -477.81 11.352
87.59 92.495 590.38 39.038 -477.81 11.352
87.59 92.495 590.38 39.038 -477.81 11.352
131.85 204.25 624.59 -70.874 -475.57 4.5053
131.85 204.25 624.59 -70.874 -475.57 4.5053
131.85 204.25 624.59 -70.874 -475.57 4.5053
131.85 204.25 624.59 -70.874 -475.57 4.5053
131.85 204.25 624.59 -70.874 -475.57 4.5053
87.59 92.495 590.38 39.038 -477.81 11.352
87.59 92.495 590.38 39.038 -477.81 11.352
87.59 92.495 590.38 39.038 -477.81 11.352
87.59 92.495 590.38 39.038 -477.81 11.352
87.59 92.495 590.38 39.038 -477.81 11.352
131.85 204.25 624.59 -70.874 -475.57 4.5053
131.85 204.25 624.59 -70.874 -475.57 4.5053
131.85 204.25 624.59 -70.874 -475.57 4.5053
131.85 204.25 624.59 -70.874 -475.57 4.5053
131.85 204.25 624.59 -70.874 -475.57 4.5053
87.59 92.495 590.38 39.038 -477.81 11.352
87.59 92.495 590.38 39.038 -477.81 11.352
87.59 92.495 590.38 39.038 -477.81 11.352
87.59 92.495 590.38 39.038 -477.81 11.352
87.59 92.495 590.38 39.038 -477.81 11.352
131.85 204.25 624.59 -70.874 -475.57 4.5053
131.85 204.25 624.59 -70.874 -475.57 4.5053
131.85 204.25 624.59 -70.874 -475.57 4.5053
131.85 204.25 624.59 -70.874 -475.57 4.5053
131.85 204.25 624.59 -70.874 -475.57 4.5053
87.59 92.495 590.38 39.038 -477.81 11.352
87.59 92.495 590.38 39.038 -477.81 11.352
87.59 92.495 590.38 39.038 -477.81 11.352
87.59 92.495 590.38 39.038 -477.81 11.352
87.59 92.495 590.38 39.038 -477.81 11.352
131.85 204.25 624.59 -70.874 -475.57 4.5053
131.85 204.25 624.59 -70.874 -475.57 4.5053
131.85 204.25 624.59 -70.874 -475.57 4.5053
131.85 204.25 624.59 -70.874 -475.57 4.5053
131.85 204.25 624.59 -70.874 -475.57 4.5053
87.59 92.495 590.38 39.038 -477.81 11.352
87.59 92.495 590.38 39.038 -477.81 11.352
87.59 92.495 590.38 39.038 -477.81 11.352
87.59 92.495 590.38 39.038 -477.81 11.352
87.59 92.495 590.38 39.038 -477.81 11.352
131.85 204.25 624.59 -70.874 -475.57 4.5053
131.85 204.25 624.59 -70.874 -475.57 4.5053
131.85 204.25 624.59 -70.874 -475.57 4.5053
131.85 204.25 624.59 -70.874 -475.57 4.5053
131.85 204.25 624.59 -70.874 -475.57 4.5053
87.59 92.495 590.38 39.038 -477.81 11.352
87.59 92.495 590.38 39.038 -477.81 11.352
87.59 92.495 590.38 39.038 -477.81 11.352
87.59 92.495 590.38 39.038 -477.81 11.352
87.59 92.495 590.38 39.038 -477.81 11.352
131.85 204.25 624.59 -70.874 -475.57 4.5053
131.85 204.25 624.59 -70.874 -475.57 4.5053
131.85 204.25 624.59 -70.874 -475.57 4.5053
131.85 204.25 624.59 -70.874 -475.57 4.5053
131.85 204.25 624.59 -70.874 -475.57 4.5053
87.59 92.495 590.38 39.038 -477.81 11.352
87.59 92.495 590.38 39.038 -477.81 11.352
87.59 92.495 590.38 39.038 -477.81 11.352
87.59 92.495 590.38 39.038 -477.81 11.352
87.59 92.495 590.38 39.038 -477.81 11.352
131.85 204.25 624.59 -70.874 -475.57 4.5053
131.85 204.25 624.59 -70.874 -475.57 4.5053
131.85 204.25 624.59 -70.874 -475.57 4.5053
131.85 204.25 624.59 -70.874 -475.57 4.5053
131.85 204.25 624.59 -70.874 -475.57 4.5053
87.59 92.495 590.38 39.038 -477.81 11.352
87.59 92.495 590.38 39.038 -477.81 11.352
87.59 92.495 590.38 39.038 -477.81 11.352
87.59 92.495 590.38 39.038 -477.81 11.352
87.59 92.495 590.38 39.038 -477.81 11.352
131.85 204.25 624.59 -70.874 -475.57 4.5053
131.85 204.25 624.59 -70.874 -475.57 4.5053
131.85 204.25 624.59 -70.874 -475.57 4.5053
131.85 204.25 624.59 -70.874 -475.57 4.5053
131.85 204.25 624.59 -70.874 -475.57 4.5053
87.59 92.495 590.38 39.038 -477.81 11.352
87.59 92.495 590.38 39.038 -477.81 11.352
87.59 92.495 590.38 39.038 -477.81 11.352
87.59 92.495 590.38 39.038 -477.81 11.352
87.59 92.495 590.38 39.038 -477.81 11.352
131.85 204.25 624.59 -70.874 -475.57 4.5053
131.85 204.25 624.59 -70.874 -475.57 4.5053
131.85 204.25 624.59 -70.874 -475.57 4.5053
131.85 204.25 624.59 -70.874 -475.57 4.5053
131.85 204.25 624.59 -70.874 -475.57 4.5053
87.59 92.495 590.38 39.038 -477.81 11.352
87.59 92.495 590.38 39.038 -477.81 11.352
87.59 92.495 590.38 39.038 -477.81 11.352
87.59 92.495 590.38 39.038 -477.81 11.352
87.59 92.495 590.38 39.038 -477.81 11.352
131.85 204.25 624.59 -70.874 -475.57 4.5053
131.85 204.25 624.59 -70.874 -475.57 4.5053
131.85 204.25 624.59 -70.874 -475.57 4.5053
131.85 204.25 624.59 -70.874 -475.57 4.5053
131.85 204.25 624.59 -70.874 -475.57 4.5053
87.59 92.495 590.38 39.038 -477.81 11.352
87.59 92.495 590.38 39.038 -477.81 11.352
87.59 92.495 590.38 39.038 -477.81 11.352
87.59 92.495 590.38 39.038 -477.81 11.352
87.59 92.495 590.38 39.038 -477.81 11.352
131.85 204.25 624.59 -70.874 -475.57 4.5053
131.85 204.25 624.59 -70.874 -475.57 4.5053
131.85 204.25 624.59 -70.874 -475.57 4.5053
131.85 204.25 624.59 -70.874 -475.57 4.5053
131.85 204.25 624.59 -70.874 -475.57 4.5053
87.59 92.495 590.38 39.038 -477.81 11.352
87.59 92.495 590.38 39.038 -477.81 11.352
87.59 92.495 590.38 39.038 -477.81 11.352
87.59 92.495 590.38 39.038 -477.81 11.352
87.59 92.495 590.38 39.038 -477.81 11.352
131.85 204.25 624.59 -70.874 -475.57 4.5053
131.85 204.25 624.59 -70.874 -475.57 4.5053
131.85 204.25 624.59 -70.874 -475.57 4.5053
131.85 204.25 624.59 -70.874 -475.57 4.5053
131.85 204.25 624.59 -70.874 -475.57 4.5053
87.59 92.495 590.38 39.038 -477.81 11.352
87.59 92.495 590.38 39.038 -477.81 11.352
87.59 92.495 590.38 39.038 -477.81 11.352
87.59 92.495 590.38 39.038 -477.81 11.352
87.59 92.495 590.38 39.038 -477.81 11.352
131.85 204.25 624.59 -70.874 -475.57 4.5053
131.85 204.25 624.59 -70.874 -475.57 4.5053
131.85 204.25 624.59 -70.874 -475.57 4.5053
131.85 204.25 624.59 -70.874 -475.57 4.5053
131.85 204.25 624.59 -70.874 -475.57 4.5053
87.59 92.495 590.38 39.038 -477.81 11.352
87.59 92.495 590.38 39.038 -477.81 11.352
87.59 92.495 590.38 39.038 -477.81 11.352
87.59 92.495 590.38 39.038 -477.81 11.352
87.59 92.495 590.38 39.038 -477.81 11.352
131.85 204.25 624.59 -70.874 -475.57 4.5053
131.85 204.25 624.59 -70.874 -475.57 4.5053
131.85 204.25 624.59 -70.874 -475.57 4.5053
131.85 204.25 624.59 -70.874 -475.57 4.5053
131.85 204.25 624.59 -70.874 -475.57 4.5053
87.59 92.495 590.38 39.038 -477.81 11.352
87.59 92.495 590.38 39.038 -477.81 11.352
87.59 92.495 590.38 39.038 -477.81 11.352
87.59 92.495 590.38 39.038 -477.81 11.352
87.59 92.495 590.38 39.038 -477.81 11.352
131.85 204.25 624.59 -70.874 -475.57 4.5053
131.85 204.25 624.59 -70.874 -475.57 4.5053
131.85 204.25 624.59 -70.874 -475.57 4.5053
131.85 204.25 624.59 -70.874 -475.57 4.5053
131.85 204.25 624.59 -70.874 -475.57 4.5053
87.59 92.495 590.38 39.038 -477.81 11.352
87.59 92.495 590.38 39.038 -477.81 11.352
87.59 92.495 590.38 39.038 -477.81 11.352
87.59 92.495 590.38 39.038 -477.81 11.352
87.59 92.495 590.38 39.038 -477.81 11.352
131.85 204.25 624.59 -70.874 -475.57 4.5053
131.85 204.25 624.59 -70.874 -475.57 4.5053
131.85 204.25 624.59 -70.874 -475.57 4.5053
131.85 204.25 624.59 -70.874 -475.57 4.5053
131.85 204.25 624.59 -70.874 -475.57 4.5053
87.59 92.495 590.38 39.038 -477.81 11.352
87.59 92.495 590.38 39.038 -477.81 11.352
87.59 92.495 590.38 39.038 -477.81 11.352
87.59 92.495 590.38 39.038 -477.81 11.352
87.59 92.495 590.38 39.038 -477.81 11.352
131.85 204.25 624.59 -70.874 -475.57 4.5053
131.85 204.25 624.59 -70.874 -475.57 4.5053
131.85 204.25 624.59 -70.874 -475.57 4.5053
131.85 204.25 624.59 -70.874 -475.57 4.5053
131.85 204.25 624.59 -70.874 -475.57 4.5053
87.59 92.495 590.38 39.038 -477.81 11.352
87.59 92.495 590.38 39.038 -477.81 11.352
87.59 92.495 590.38 39.038 -477.81 11.352
87.59 92.495 590.38 39.038 -477.81 11.352
87.59 92.495 590.38 39.038 -477.81 11.352
131.85 204.25 624.59 -70.874 -475.57 4.5053
131.85 204.25 624.59 -70.874 -475.57 4.5053
131.85 204.25 624.59 -70.874 -475.57 4.5053
131.85 204.25 624.59 -70.874 -475.57 4.5053
131.85 204.25 624.59 -70.874 -475.57 4.5053
87.59 92.495 590.38 39.038 -477.81 11.352
87.59 92.495 590.38 39.038 -477.81 11.352
87.59 92.495 590.38 39.038 -477.81 11.352
87.59 92.495 590.38 39.038 -477.81 11.352
87.59 92.495 590.38 39.038 -477.81 11.352
131.85 204.25 624.59 -70.874 -475.57 4.5053
131.85 204.25 624.59 -70.874 -475.57 4.5053
131.85 204.25 624.59 -70.874 -475.57 4.5053
131.85 204.25 624.59 -70.874 -475.57 4.5053
131.85 204.25 624.59 -70.874 -475.57 4.5053
87.59 92.495 590.38 39.038 -477.81 11.352
87.59 92.495 590.38 39.038 -477.81 11.352
87.59 92.495 590.38 39.038 -477.81 11.352
87.59 92.495 590.38 39.038 -477.81 11.352
87.59 92.495 590.38 39.038 -477.81 11.352
131.85 204.25 624.59 -70.874 -475.57 4.5053
131.85 204.25 624.59 -70.874 -475.57 4.5053
131.85 204.25 624.59 -70.874 -475.57 4.5053
131.85 204.25 624.59 -70.874 -475.57 4.5053
131.85 204.25 624.59 -70.874 -475.57 4.5053
87.59 92.495 590.38 39.038 -477.81 11.352
87.59 92.495 590.38 39.038 -477.81 11.352
87.59 92.495 590.38 39.038 -477.81 11.352
87.59 92.495 590.38 39.038 -477.81 11.352
87.59 92.495 590.38 39.038 -477.81 11.352
131.85 204.25 624.59 -70.874 -475.57 4.5053
131.85 204.25 624.59 -70.874 -475.57 4.5053
131.85 204.25 624.59 -70.874 -475.57 4.5053
131.85 204.25 624.59 -70.874 -475.57 4.5053
131.85 204.25 624.59 -70.874 -475.57 4.5053
87.59 92.495 590.38 39.038 -477.81 11.352
87.59 92.495 590.38 39.038 -477.81 11.352
87.59 92.495 590.38 39.038 -477.81 11.352
87.59 92.495 590.38 39.038 -477.81 11.352
87.59 92.495 590.38 39.038 -477.81 11.352
131.85 204.25 624.59 -70.874 -475.57 4.5053
131.85 204.25 624.59 -70.874 -475.57 4.5053
131.85 204.25 624.59 -70.874 -475.57 4.5053
131.85 204.25 624.59 -70.874 -475.57 4.5053
131.85 204.25 624.59 -70.874 -475.57 4.5053
87.59 92.495 590.38 39.038 -477.81 11.352
87.59 92.495 590.38 39.038 -477.81 11.352
87.59 92.495 590.38 39.038 -477.81 11.352
87.59 92.495 590.38 39.038 -477.81 11.352
87.59 92.495 590.38 39.038 -477.81 11.352
131.85 204.25 624.59 -70.874 -475.57 4.5053
131.85 204.25 624.59 -70.874 -475.57 4.5053
131.85 204.25 624.59 -70.874 -475.57 4.5053
131.85 204.25 624.59 -70.874 -475.57 4.5053
131.85 204.25 624.59 -70.874 -475.57 4.5053
87.59 92.495 590.38 39.038 -477.81 11.352
87.59 92.495 590.38 39.038 -477.81 11.352
87.59 92.495 590.38 39.038 -477.81 11.352
87.59 92.495 590.38 39.038 -477.81 11.352
87.59 92.495 590.38 39.038 -477.81 11.352
131.85 204.25 624.59 -70.874 -475.57 4.5053
131.85 204.25 624.59 -70.874 -475.57 4.5053
131.85 204.25 624.59 -70.874 -475.57 4.5053
131.85 204.25 624.59 -70.874 -475.57 4.5053
131.85 204.25 624.59 -70.874 -475.57 4.5053
87.59 92.495 590.38 39.038 -477.81 11.352
87.59 92.495 590.38 39.038 -477.81 11.352
87.59 92.495 590.38 39.038 -477.81 11.352
87.59 92.495 590.38 39.038 -477.81 11.352
87.59 92.495 590.38 39.038 -477.81 11.352
131.85 204.25 624.59 -70.874 -475.57 4.5053
131.85 204.25 624.59 -70.874 -475.57 4.5053
131.85 204.25 624.59 -70.874 -475.57 4.5053
131.85 204.25 624.59 -70.874 -475.57 4.5053
131.85 204.25 624.59 -70.874 -475.57 4.5053
87.59 92.495 590.38 39.038 -477.81 11.352
87.59 92.495 590.38 39.038 -477.81 11.352
87.59 92.495 590.38 39.038 -477.81 11.352
87.59 92.495 590.38 39.038 -477.81 11.352
87.59 92.495 590.38 39.038 -477.81 11.352
131.85 204.25 624.59 -70.874 -475.57 4.5053
131.85 204.25 624.59 -70.874 -475.57 4.5053
131.85 204.25 624.59 -70.874 -475.57 4.5053
131.85 204.25 624.59 -70.874 -475.57 4.5053
131.85 204.25 624.59 -70.874 -475.57 4.5053
87.59 92.495 590.38 39.038 -477.81 11.352
87.59 92.495 590.38 39.038 -477.81 11.352
87.59 92.495 590.38 39.038 -477.81 11.352
87.59 92.495 590.38 39.038 -477.81 11.352
87.59 92.495 590.38 39.038 -477.81 11.352
131.85 204.25 624.59 -70.874 -475.57 4.5053
131.85 204.25 624.59 -70.874 -475.57 4.5053
131.85 204.25 624.59 -70.874 -475.57 4.5053
131.85 204.25 624.59 -70.874 -475.57 4.5053
131.85 204.25 624.59 -70.874 -475.57 4.5053
87.59 92.495 590.38 39.038 -477.81 11.352
87.59 92.495 590.38 39.038 -477.81 11.352
87.59 92.495 590.38 39.038 -477.81 11.352
87.59 92.495 590.38 39.038 -477.81 11.352
87.59 92.495 590.38 39.038 -477.81 11.352
131.85 204.25 624.59 -70.874 -475.57 4.5053
131.85 204.25 624.59 -70.874 -475.57 4.5053
131.85 204.25 624.59 -70.874 -475.57 4.5053
131.85 204.25 624.59 -70.874 -475.57 4.5053
131.85 204.25 624.59 -70.874 -475.57 4.5053
87.59 92.495 590.38 39.038 -477.81 11.352
87.59 92.495 590.38 39.038 -477.81 11.352
87.59 92.495 590.38 39.038 -477.81 11.352
87.59 92.495 590.38 39.038 -477.81 11.352
87.59 92.495 590.38 39.038 -477.81 11.352
131.85 204.25 624.59 -70.874 -475.57 4.5053
131.85 204.25 624.59 -70.874 -475.57 4.5053
131.85 204.25 624.59 -70.874 -475.57 4.5053
131.85 204.25 624.59 -70.874 -475.57 4.5053
131.85 204.25 624.59 -70.874 -475.57 4.5053
87.59 92.495 590.38 39.038 -477.81 11.352
87.59 92.495 590.38 39.038 -477.81 11.352
87.59 92.495 590.38 39.038 -477.81 11.352
87.59 92.495 590.38 39.038 -477.81 11.352
87.59 92.495 590.38 39.038 -477.81 11.352
131.85 204.25 624.59 -70.874 -475.57 4.5053
131.85 204.25 624.59 -70.874 -475.57 4.5053
131.85 204.25 624.59 -70.874 -475.57 4.5053
131.85 204.25 624.59 -70.874 -475.57 4.5053
131.85 204.25 624.59 -70.874 -475.57 4.5053
87.59 92.495 590.38 39.038 -477.81 11.352
87.59 92.495 590.38 39.038 -477.81 11.352
87.59 92.495 590.38 39.038 -477.81 11.352
87.59 92.495 590.38 39.038 -477.81 11.352
87.59 92.495 590.38 39.038 -477.81 11.352
131.85 204.25 624.59 -70.874 -475.57 4.5053
131.85 204.25 624.59 -70.874 -475.57 4.5053
131.85 204.25 624.59 -70.874 -475.57 4.5053
131.85 204.25 624.59 -70.874 -475.57 4.5053
131.85 204.25 624.59 -70.874 -475.57 4.5053
87.59 92.495 590.38 39.038 -477.81 11.352
87.59 92.495 590.38 39.038 -477.81 11.352
87.59 92.495 590.38 39.038 -477.81 11.352
87.59 92.495 590.38 39.038 -477.81 11.352
87.59 92.495 590.38 39.038 -477.81 11.352
131.85 204.25 624.59 -70.874 -475.57 4.5053
131.85 204.25 624.59 -70.874 -475.57 4.5053
131.85 204.25 624.59 -70.874 -475.57 4.5053
131.85 204.25 624.59 -70.874 -475.57 4.5053
131.85 204.25 624.59 -70.874 -475.57 4.5053
87.59 92.495 590.38 39.038 -477.81 11.352
87.59 92.495 590.38 39.038 -477.81 11.352
87.59 92.495 590.38 39.038 -477.81 11.352
87.59 92.495 590.38 39.038 -477.81 11.352
87.59 92.495 590.38 39.038 -477.81 11.352
131.85 204.25 624.59 -70.874 -475.57 4.5053
131.85 204.25 624.59 -70.874 -475.57 4.5053
131.85 204.25 624.59 -70.874 -475.57 4.5053
131.85 204.25 624.59 -70.874 -475.57 4.5053
131.85 204.25 624.59 -70.874 -475.57 4.5053
87.59 92.495 590.38 39.038 -477.81 11.352
87.59 92.495 590.38 39.038 -477.81 11.352
87.59 92.495 590.38 39.038 -477.81 11.352
87.59 92.495 590.38 39.038 -477.81 11.352
87.59 92.495 590.38 39.038 -477.81 11.352
131.85 204.25 624.59 -70.874 -475.57 4.5053
131.85 204.25 624.59 -70.874 -475.57 4.5053
131.85 204.25 624.59 -70.874 -475.57 4.5053
131.85 204.25 624.59 -70.874 -475.57 4.5053
131.85 204.25 624.59 -70.874 -475.57 4.5053
87.59 92.495 590.38 39.038 -477.81 11.352
87.59 92.495 590.38 39.038 -477.81 11.352
87.59 92.495 590.38 39.038 -477.81 11.352
87.59 92.495 590.38 39.038 -477.81 11.352
87.59 92.495 590.38 39.038 -477.81 11.352
131.85 204.25 624.59 -70.874 -475.57 4.5053
131.85 204.25 624.59 -70.874 -475.57 4.5053
131.85 204.25 624.59 -70.874 -475.57 4.5053
131.85 204.25 624.59 -70.874 -475.57 4.5053
131.85 204.25 624.59 -70.874 -475.57 4.5053
87.59 92.495 590.38 39.038 -477.81 11.352
87.59 92.495 590.38 39.038 -477.81 11.352
87.59 92.495 590.38 39.038 -477.81 11.352
87.59 92.495 590.38 39.038 -477.81 11.352
87.59 92.495 590.38 39.038 -477.81 11.352
131.85 204.25 624.59 -70.874 -475.57 4.5053
131.85 204.25 624.59 -70.874 -475.57 4.5053
131.85 204.25 624.59 -70.874 -475.57 4.5053
131.85 204.25 624.59 -70.874 -475.57 4.5053
131.85 204.25 624.59 -70.874 -475.57 4.5053
87.59 92.495 590.38 39.038 -477.81 11.352
87.59 92.495 590.38 39.038 -477.81 11.352
87.59 92.495 590.38 39.038 -477.81 11.352
87.59 92.495 590.38 39.038 -477.81 11.352
87.59 92.495 590.38 39.038 -477.81 11.352
131.85 204.25 624.59 -70.874 -475.57 4.5053
131.85 204.25 624.59 -70.874 -475.57 4.5053
131.85 204.25 624.59 -70.874 -475.57 4.5053
131.85 204.25 624.59 -70.874 -475.57 4.5053
131.85 204.25 624.59 -70.874 -475.57 4.5053
87.59 92.495 590.38 39.038 -477.81 11.352
87.59 92.495 590.38 39.038 -477.81 11.352
87.59 92.495 590.38 39.038 -477.81 11.352
87.59 92.495 590.38 39.038 -477.81 11.352
87.59 92.495 590.38 39.038 -477.81 11.352
131.85 204.25 624.59 -70.874 -475.57 4.5053
131.85 204.25 624.59 -70.874 -475.57 4.5053
131.85 204.25 624.59 -70.874 -475.57 4.5053
131.85 204.25 624.59 -70.874 -475.57 4.5053
131.85 204.25 624.59 -70.874 -475.57 4.5053
87.59 92.495 590.38 39.038 -477.81 11.352
87.59 92.495 590.38 39.038 -477.81 11.352
87.59 92.495 590.38 39.038 -477.81 11.352
87.59 92.495 590.38 39.038 -477.81 11.352
87.59 92.495 590.38 39.038 -477.81 11.352
131.85 204.25 624.59 -70.874 -475.57 4.5053
131.85 204.25 624.59 -70.874 -475.57 4.5053
131.85 204.25 624.59 -70.874 -475.57 4.5053
131.85 204.25 624.59 -70.874 -475.57 4.5053
131.85 204.25 624.59 -70.874 -475.57 4.5053
87.59 92.495 590.38 39.038 -477.81 11.352
87.59 92.495 590.38 39.038 -477.81 11.352
87.59 92.495 590.38 39.038 -477.81 11.352
87.59 92.495 590.38 39.038 -477.81 11.352
87.59 92.495 590.38 39.038 -477.81 11.352
131.85 204.25 624.59 -70.874 -475.57 4.5053
131.85 204.25 624.59 -70.874 -475.57 4.5053
131.85 204.25 624.59 -70.874 -475.57 4.5053
131.85 204.25 624.59 -70.874 -475.57 4.5053
131.85 204.25 624.59 -70.874 -475.57 4.5053
87.59 92.495 590.38 39.038 -477.81 11.352
87.59 92.495 590.38 39.038 -477.81 11.352
87.59 92.495 590.38 39.038 -477.81 11.352
87.59 92.495 590.38 39.038 -477.81 11.352
87.59 92.495 590.38 39.038 -477.81 11.352
131.85 204.25 624.59 -70.874 -475.57 4.5053
131.85 204.25 624.59 -70.874 -475.57 4.5053
131.85 204.25 624.59 -70.874 -475.57 4.5053
131.85 204.25 624.59 -70.874 -475.57 4.5053
131.85 204.25 624.59 -70.874 -475.57 4.5053
87.59 92.495 590.38 39.038 -477.81 11.352
87.59 92.495 590.38 39.038 -477.81 11.352
87.59 92.495 590.38 39.038 -477.81 11.352
87.59 92.495 590.38 39.038 -477.81 11.352
87.59 92.495 590.38 39.038 -477.81 11.352
131.85 204.25 624.59 -70.874 -475.57 4.5053
131.85 204.25 624.59 -70.874 -475.57 4.5053
131.85 204.25 624.59 -70.874 -475.57 4.5053
131.85 204.25 624.59 -70.874 -475.57 4.5053
131.85 204.25 624.59 -70.874 -475.57 4.5053
87.59 92.495 590.38 39.038 -477.81 11.352
87.59 92.495 590.38 39.038 -477.81 11.352
87.59 92.495 590.38 39.038 -477.81 11.352
87.59 92.495 590.38 39.038 -477.81 11.352
87.59 92.495 590.38 39.038 -477.81 11.352
131.85 204.25 624.59 -70.874 -475.57 4.5053
131.85 204.25 624.59 -70.874 -475.57 4.5053
131.85 204.25 624.59 -70.874 -475.57 4.5053
131.85 204.25 624.59 -70.874 -475.57 4.5053
131.85 204.25 624.59 -70.874 -475.57 4.5053
87.59 92.495 590.38 39.038 -477.81 11.352
87.59 92.495 590.38 39.038 -477.81 11.352
87.59 92.495 590.38 39.038 -477.81 11.352
87.59 92.495 590.38 39.038 -477.81 11.352
87.59 92.495 590.38 39.038 -477.81 11.352
131.85 204.25 624.59 -70.874 -475.57 4.5053
131.85 204.25 624.59 -70.874 -475.57 4.5053
131.85 204.25 624.59 -70.874 -475.57 4.5053
131.85 204.25 624.59 -70.874 -475.57 4.5053
131.85 204.25 624.59 -70.874 -475.57 4.5053
87.59 92.495 590.38 39.038 -477.81 11.352
87.59 92.495 590.38 39.038 -477.81 11.352
87.59 92.495 590.38 39.038 -477.81 11.352
87.59 92.495 590.38 39.038 -477.81 11.352
87.59 92.495 590.38 39.038 -477.81 11.352
131.85 204.25 624.59 -70.874 -475.57 4.5053
131.85 204.25 624.59 -70.874 -475.57 4.5053
131.85 204.25 624.59 -70.874 -475.57 4.5053
131.85 204.25 624.59 -70.874 -475.57 4.5053
131.85 204.25 624.59 -70.874 -475.57 4.5053
87.59 92.495 590.38 39.038 -477.81 11.352
87.59 92.495 590.38 39.038 -477.81 11.352
87.59 92.495 590.38 39.038 -477.81 11.352
87.59 92.495 590.38 39.038 -477.81 11.352
87.59 92.495 590.38 39.038 -477.81 11.352
131.85 204.25 624.59 -70.874 -475.57 4.5053
131.85 204.25 624.59 -70.874 -475.57 4.5053
131.85 204.25 624.59 -70.874 -475.57 4.5053
131.85 204.25 624.59 -70.874 -475.57 4.5053
131.85 204.25 624.59 -70.874 -475.57 4.5053
87.59 92.495 590.38 39.038 -477.81 11.352
87.59 92.495 590.38 39.038 -477.81 11.352
87.59 92.495 590.38 39.038 -477.81 11.352
87.59 92.495 590.38 39.038 -477.81 11.352
87.59 92.495 590.38 39.038 -477.81 11.352
131.85 204.25 624.59 -70.874 -475.57 4.5053
131.85 204.25 624.59 -70.874 -475.57 4.5053
131.85 204.25 624.59 -70.874 -475.57 4.5053
131.85 204.25 624.59 -70.874 -475.57 4.5053
131.85 204.25 624.59 -70.874 -475.57 4.5053
87.59 92.495 590.38 39.038 -477.81 11.352
87.59 92.495 590.38 39.038 -477.81 11.352
87.59 92.495 590.38 39.038 -477.81 11.352
87.59 92.495 590.38 39.038 -477.81 11.352
87.59 92.495 590.38 39.038 -477.81 11.352
131.85 204.25 624.59 -70.874 -475.57 4.5053
131.85 204.25 624.59 -70.874 -475.57 4.5053
131.85 204.25 624.59 -70.874 -475.57 4.5053
131.85 204.25 624.59 -70.874 -475.57 4.5053
131.85 204.25 624.59 -70.874 -475.57 4.5053
87.59 92.495 590.38 39.038 -477.81 11.352
87.59 92.495 590.38 39.038 -477.81 11.352
87.59 92.495 590.38 39.038 -477.81 11.352
87.59 92.495 590.38 39.038 -477.81 11.352
87.59 92.495 590.38 39.038 -477.81 11.352
131.85 204.25 624.59 -70.874 -475.57 4.5053
131.85 204.25 624.59 -70.874 -475.57 4.5053
131.85 204.25 624.59 -70.874 -475.57 4.5053
131.85 204.25 624.59 -70.874 -475.57 4.5053
131.85 204.25 624.59 -70.874 -475.57 4.5053
87.59 92.495 590.38 39.038 -477.81 11.352
87.59 92.495 590.38 39.038 -477.81 11.352
87.59 92.495 590.38 39.038 -477.81 11.352
87.59 92.495 590.38 39.038 -477.81 11.352
87.59 92.495 590.38 39.038 -477.81 11.352
</DataArray>
</CellData>
<Cells>
<DataArray type="UInt32" Name="connectivity" NumberOfComponents="1" format="ascii" >
181 1316 1883 794 0 12 272 87 
1316 1317 1884 1883 12 13 273 272 
1317 1318 1885 1884 13 14 274 273 
1318 1319 1886 1885 14 15 275 274 
1319 1320 1887 1886 15 16 276 275 
1320 1321 1888 1887 16 17 277 276 
1321 1322 1889 1888 17 18 278 277 
1322 1323 1890 1889 18 19 279 278 
1323 1324 1891 1890 19 20 280 279 
1324 191 1055 1891 20 1 21 280 
794 1883 1892 795 87 272 281 86 
1883 1884 1893 1892 272 273 282 281 
1884 1885 1894 1893 273 274 283 282 
1885 1886 1895 1894 274 275 284 283 
1886 1887 1896 1895 275 276 285 284 
1887 1888 1897 1896 276 277 286 285 
1888 1889 1898 1897 277 278 287 286 
1889 1890 1899 1898 278 279 288 287 
1890 1891 1900 1899 279 280 289 288 
1891 1055 1056 1900 280 21 22 289 
795 1892 1901 796 86 281 290 85 
1892 1893 1902 1901 281 282 291 290 
1893 1894 1903 1902 282 283 292 291 
1894 1895 1904 1903 283 284 293 292 
1895 1896 1905 1904 284 285 294 293 
1896 1897 1906 1905 285 286 295 294 
1897 1898 1907 1906 286 287 296 295 
1898 1899 1908 1907 287 288 297 296 
1899 1900 1909 1908 288 289 298 297 
1900 1056 1057 1909 289 22 23 298 
796 1901 1910 797 85 290 299 84 
1901 1902 1911 1910 290 291 300 299 
1902 1903 1912 1911 291 292 301 300 
1903 1904 1913 1912 292 293 302 301 
1904 1905 1914 1913 293 294 303 302 
1905 1906 1915 1914 294 295 304 303 
1906 1907 1916 1915 295 296 305 304 
1907 1908 1917 1916 296 297 306 305 
1908 1909 1918 1917 297 298 307 306 
1909 1057 1058 1918 298 23 24 307 
797 1910 1919 798 84 299 308 83 
1910 1911 1920 1919 299 300 309 308 
1911 1912 1921 1920 300 301 310 309 
1912 1913 1922 1921 301 302 311 310 
1913 1914 1923 1922 302 303 312 311 
1914 1915 1924 1923 303 304 313 312 
1915 1916 1925 1924 304 305 314 313 
1916 1917 1926 1925 305 306 315 314 
1917 1918 1927 1926 306 307 316 315 
1918 1058 1059 1927 307 24 25 316 
798 1919 1928 799 83 308 317 82 
1919 1920 1929 1928 308 309 318 317 
1920 1921 1930 1929 309 310 319 318 
1921 1922 1931 1930 310 311 320 319 
1922 1923 1932 1931 311 312 321 320 
1923 1924 1933 1932 312 313 322 321 
1924 1925 1934 1933 313 314 323 322 
1925 1926 1935 1934 314 315 324 323 
1926 1927 1936 1935 315 316 325 324 
1927 1059 1060 1936 316 25 26 325 
799 1928 1937 800 82 317 326 81 
1928 1929 1938 1937 317 318 327 326 
1929 1930 1939 1938 318 319 328 327 
1930 1931 1940 1939 319 320 329 328 
1931 1932 1941 1940 320 321 330 329 
1932 1933 1942 1941 321 322 331 330 
1933 1934 1943 1942 322 323 332 331 
1934 1935 1944 1943 323 324 333 332 
1935 1936 1945 1944 324 325 334 333 
1936 1060 1061 1945 325 26 27 334 
800 1937 1946 801 81 326 335 80 
1937 1938 1947 1946 326 327 336 335 
1938 1939 1948 1947 327 328 337 336 
1939 1940 1949 1948 328 329 338 337 
1940 1941 1950 1949 329 330 339 338 
1941 1942 1951 1950 330 331 340 339 
1942 1943 1952 1951 331 332 341 340 
1943 1944 1953 1952 332 333 342 341 
1944 1945 1954 1953 333 334 343 342 
1945 1061 1062 1954 334 27 28 343 
801 1946 1955 802 80 335 344 79 
1946 1947 1956 1955 335 336 345 344 
1947 1948 1957 1956 336 337 346 345 
1948 1949 1958 1957 337 338 347 346 
1949 1950 1959 1958 338 339 348 347 
1950 1951 1960 1959 339 340 349 348 
1951 1952 1961 1960 340 341 350 349 
1952 1953 1962 1961 341 342 351 350 
1953 1954 1963 1962 342 343 352 351 
1954 1062 1063 1963 343 28 29 352 
802 1955 1964 803 79 344 353 78 
1955 1956 1965 1964 344 345 354 353 
1956 1957 1966 1965 345 346 355 354 
1957 1958 1967 1966 346 347 356 355 
1958 1959 1968 1967 347 348 357 356 
1959 1960 1969 1968 348 349 358 357 
1960 1961 1970 1969 349 350 359 358 
1961 1962 1971 1970 350 351 360 359 
1962 1963 1972 1971 351 352 361 360 
1963 1063 1064 1972 352 29 30 361 
803 1964 1973 804 78 353 362 77 
1964 1965 1974 1973 353 354 363 362 
1965 1966 1975 1974 354 355 364 363 
1966 1967 1976 1975 355 356 365 364 
1967 1968 1977 1976 356 357 366 365 
1968 1969 1978 1977 357 358 367 366 
1969 1970 1979 1978 358 359 368 367 
1970 1971 1980 1979 359 360 369 368 
1971 1972 1981 1980 360 361 370 369 
1972 1064 1065 1981 361 30 31 370 
804 1973 1982 805 77 362 371 76 
1973 1974 1983 1982 362 363 372 371 
1974 1975 1984 1983 363 364 373 372 
1975 1976 1985 1984 364 365 374 373 
1976 1977 1986 1985 365 366 375 374 
1977 1978 1987 1986 366 367 376 375 
1978 1979 1988 1987 367 368 377 376 
1979 1980 1989 1988 368 369 378 377 
1980 1981 1990 1989 369 370 379 378 
1981 1065 1066 1990 370 31 32 379 
805 1982 1991 806 76 371 380 75 
1982 1983 1992 1991 371 372 381 380 
1983 1984 1993 1992 372 373 382 381 
1984 1985 1994 1993 373 374 383 382 
1985 1986 1995 1994 374 375 384 383 
1986 1987 1996 1995 375 376 385 384 
1987 1988 1997 1996 376 377 386 385 
1988 1989 1998 1997 377 378 387 386 
1989 1990 1999 1998 378 379 388 387 
1990 1066 1067 1999 379 32 33 388 
806 1991 2000 807 75 380 389 74 
1991 1992 2001 2000 380 381 390 389 
1992 1993 2002 2001 381 382 391 390 
1993 1994 2003 2002 382 383 392 391 
1994 1995 2004 2003 383 384 393 392 
1995 1996 2005 2004 384 385 394 393 
1996 1997 2006 2005 385 386 395 394 
1997 1998 2007 2006 386 387 396 395 
1998 1999 2008 2007 387 388 397 396 
1999 1067 1068 2008 388 33 34 397 
807 2000 2009 808 74 389 398 73 
2000 2001 2010 2009 389 390 399 398 
2001 2002 2011 2010 390 391 400 399 
2002 2003 2012 2011 391 392 401 400 
2003 2004 2013 2012 392 393 402 401 
2004 2005 2014 2013 393 394 403 402 
2005 2006 2015 2014 394 395 404 403 
2006 2007 2016 2015 395 396 405 404 
2007 2008 2017 2016 396 397 406 405 
2008 1068 1069 2017 397 34 35 406 
808 2009 2018 809 73 398 407 72 
2009 2010 2019 2018 398 399 408 407 
2010 2011 2020 2019 399 400 409 408 
2011 2012 2021 2020 400 401 410 409 
2012 2013 2022 2021 401 402 411 410 
2013 2014 2023 2022 402 403 412 411 
2014 2015 2024 2023 403 404 413 412 
2015 2016 2025 2024 404 405 414 413 
2016 2017 2026 2025 405 406 415 414 
2017 1069 1070 2026 406 35 36 415 
809 2018 2027 810 72 407 416 71 
2018 2019 2028 2027 407 408 417 416 
2019 2020 2029 2028 408 409 418 417 
2020 2021 2030 2029 409 410 419 418 
2021 2022 2031 2030 410 411 420 419 
2022 2023 2032 2031 411 412 421 420 
2023 2024 2033 2032 412 413 422 421 
2024 2025 2034 2033 413 414 423 422 
2025 2026 2035 2034 414 415 424 423 
2026 1070 1071 2035 415 36 37 424 
810 2027 2036 811 71 416 425 70 
2027 2028 2037 2036 416 417 426 425 
2028 2029 2038 2037 417 418 427 426 
2029 2030 2039 2038 418 419 428 427 
2030 2031 2040 2039 419 420 429 428 
2031 2032 2041 2040 420 421 430 429 
2032 2033 2042 2041 421 422 431 430 
2033 2034 2043 2042 422 423 432 431 
2034 2035 2044 2043 423 424 433 432 
2035 1071 1072 2044 424 37 38 433 
811 2036 2045 812 70 425 434 69 
2036 2037 2046 2045 425 426 435 434 
2037 2038 2047 2046 426 427 436 435 
2038 2039 2048 2047 427 428 437 436 
2039 2040 2049 2048 428 429 438 437 
2040 2041 2050 2049 429 430 439 438 
2041 2042 2051 2050 430 431 440 439 
2042 2043 2052 2051 431 432 441 440 
2043 2044 2053 2052 432 433 442 441 
2044 1072 1073 2053 433 38 39 442 
812 2045 2054 813 69 434 443 68 
2045 2046 2055 2054 434 435 444 443 
2046 2047 2056 2055 435 436 445 444 
2047 2048 2057 2056 436 437 446 445 
2048 2049 2058 2057 437 438 447 446 
2049 2050 2059 2058 438 439 448 447 
2050 2051 2060 2059 439 440 449 448 
2051 2052 2061 2060 440 441 450 449 
2052 2053 2062 2061 441 442 451 450 
2053 1073 1074 2062 442 39 40 451 
813 2054 2063 814 68 443 452 67 
2054 2055 2064 2063 443 444 453 452 
2055 2056 2065 2064 444 445 454 453 
2056 2057 2066 2065 445 446 455 454 
2057 2058 2067 2066 446 447 456 455 
2058 2059 2068 2067 447 448 457 456 
2059 2060 2069 2068 448 449 458 457 
2060 2061 2070 2069 449 450 459 458 
2061 2062 2071 2070 450 451 460 459 
2062 1074 1075 2071 451 40 41 460 
814 2063 2072 815 67 452 461 66 
2063 2064 2073 2072 452 453 462 461 
2064 2065 2074 2073 453 454 463 462 
2065 2066 2075 2074 454 455 464 463 
2066 2067 2076 2075 455 456 465 464 
2067 2068 2077 2076 456 457 466 465 
2068 2069 2078 2077 457 458 467 466 
2069 2070 2079 2078 458 459 468 467 
2070 2071 2080 2079 459 460 469 468 
2071 1075 1076 2080 460 41 42 469 
815 2072 2081 816 66 461 470 65 
2072 2073 2082 2081 461 462 471 470 
2073 2074 2083 2082 462 463 472 471 
2074 2075 2084 2083 463 464 473 472 
2075 2076 2085 2084 464 465 474 473 
2076 2077 2086 2085 465 466 475 474 
2077 2078 2087 2086 466 467 476 475 
2078 2079 2088 2087 467 468 477 476 
2079 2080 2089 2088 468 469 478 477 
2080 1076 1077 2089 469 42 43 478 
816 2081 2090 817 65 470 479 64 
2081 2082 2091 2090 470 471 480 479 
2082 2083 2092 2091 471 472 481 480 
2083 2084 2093 2092 472 473 482 481 
2084 2085 2094 2093 473 474 483 482 
2085 2086 2095 2094 474 475 484 483 
2086 2087 2096 2095 475 476 485 484 
2087 2088 2097 2096 476 477 486 485 
2088 2089 2098 2097 477 478 487 486 
2089 1077 1078 2098 478 43 44 487 
817 2090 2099 818 64 479 488 63 
2090 2091 2100 2099 479 480 489 488 
2091 2092 2101 2100 480 481 490 489 
2092 2093 2102 2101 481 482 491 490 
2093 2094 2103 2102 482 483 492 491 
2094 2095 2104 2103 483 484 493 492 
2095 2096 2105 2104 484 485 494 493 
2096 2097 2106 2105 485 486 495 494 
2097 2098 2107 2106 486 487 496 495 
2098 1078 1079 2107 487 44 45 496 
818 2099 2108 819 63 488 497 62 
2099 2100 2109 2108 488 489 498 497 
2100 2101 2110 2109 489 490 499 498 
2101 2102 2111 2110 490 491 500 499 
2102 2103 2112 2111 491 492 501 500 
2103 2104 2113 2112 492 493 502 501 
2104 2105 2114 2113 493 494 503 502 
2105 2106 2115 2114 494 495 504 503 
2106 2107 2116 2115 495 496 505 504 
2107 1079 1080 2116 496 45 46 505 
819 2108 2117 820 62 497 506 61 
2108 2109 2118 2117 497 498 507 506 
2109 2110 2119 2118 498 499 508 507 
2110 2111 2120 2119 499 500 509 508 
2111 2112 2121 2120 500 501 510 509 
2112 2113 2122 2121 501 502 511 510 
2113 2114 2123 2122 502 503 512 511 
2114 2115 2124 2123 503 504 513 512 
2115 2116 2125 2124 504 505 514 513 
2116 1080 1081 2125 505 46 47 514 
820 2117 2126 821 61 506 515 60 
2117 2118 2127 2126 506 507 516 515 
2118 2119 2128 2127 507 508 517 516 
2119 2120 2129 2128 508 509 518 517 
2120 2121 2130 2129 509 510 519 518 
2121 2122 2131 2130 510 511 520 519 
2122 2123 2132 2131 511 512 521 520 
2123 2124 2133 2132 512 513 522 521 
2124 2125 2134 2133 513 514 523 522 
2125 1081 1082 2134 514 47 48 523 
821 2126 2135 822 60 515 524 59 
2126 2127 2136 2135 515 516 525 524 
2127 2128 2137 2136 516 517 526 525 
2128 2129 2138 2137 517 518 527 526 
2129 2130 2139 2138 518 519 528 527 
2130 2131 2140 2139 519 520 529 528 
2131 2132 2141 2140 520 521 530 529 
2132 2133 2142 2141 521 522 531 530 
2133 2134 2143 2142 522 523 532 531 
2134 1082 1083 2143 523 48 49 532 
822 2135 1397 164 59 524 58 3 
2135 2136 1398 1397 524 525 57 58 
2136 2137 1399 1398 525 526 56 57 
2137 2138 1400 1399 526 527 55 56 
2138 2139 1401 1400 527 528 54 55 
2139 2140 1402 1401 528 529 53 54 
2140 2141 1403 1402 529 530 52 53 
2141 2142 1404 1403 530 531 51 52 
2142 2143 1405 1404 531 532 50 51 
2143 1083 190 1405 532 49 2 50 
180 1325 2144 823 181 1316 1883 794 
1325 1326 2145 2144 1316 1317 1884 1883 
1326 1327 2146 2145 1317 1318 1885 1884 
1327 1328 2147 2146 1318 1319 1886 1885 
1328 1329 2148 2147 1319 1320 1887 1886 
1329 1330 2149 2148 1320 1321 1888 1887 
1330 1331 2150 2149 1321 1322 1889 1888 
1331 1332 2151 2150 1322 1323 1890 1889 
1332 1333 2152 2151 1323 1324 1891 1890 
1333 192 1084 2152 1324 191 1055 1891 
823 2144 2153 824 794 1883 1892 795 
2144 2145 2154 2153 1883 1884 1893 1892 
2145 2146 2155 2154 1884 1885 1894 1893 
2146 2147 2156 2155 1885 1886 1895 1894 
2147 2148 2157 2156 1886 1887 1896 1895 
2148 2149 2158 2157 1887 1888 1897 1896 
2149 2150 2159 2158 1888 1889 1898 1897 
2150 2151 2160 2159 1889 1890 1899 1898 
2151 2152 2161 2160 1890 1891 1900 1899 
2152 1084 1085 2161 1891 1055 1056 1900 
824 2153 2162 825 795 1892 1901 796 
2153 2154 2163 2162 1892 1893 1902 1901 
2154 2155 2164 2163 1893 1894 1903 1902 
2155 2156 2165 2164 1894 1895 1904 1903 
2156 2157 2166 2165 1895 1896 1905 1904 
2157 2158 2167 2166 1896 1897 1906 1905 
2158 2159 2168 2167 1897 1898 1907 1906 
2159 2160 2169 2168 1898 1899 1908 1907 
2160 2161 2170 2169 1899 1900 1909 1908 
2161 1085 1086 2170 1900 1056 1057 1909 
825 2162 2171 826 796 1901 1910 797 
2162 2163 2172 2171 1901 1902 1911 1910 
2163 2164 2173 2172 1902 1903 1912 1911 
2164 2165 2174 2173 1903 1904 1913 1912 
2165 2166 2175 2174 1904 1905 1914 1913 
2166 2167 2176 2175 1905 1906 1915 1914 
2167 2168 2177 2176 1906 1907 1916 1915 
2168 2169 2178 2177 1907 1908 1917 1916 
2169 2170 2179 2178 1908 1909 1918 1917 
2170 1086 1087 2179 1909 1057 1058 1918 
826 2171 2180 827 797 1910 1919 798 
2171 2172 2181 2180 1910 1911 1920 1919 
2172 2173 2182 2181 1911 1912 1921 1920 
2173 2174 2183 2182 1912 1913 1922 1921 
2174 2175 2184 2183 1913 1914 1923 1922 
2175 2176 2185 2184 1914 1915 1924 1923 
2176 2177 2186 2185 1915 1916 1925 1924 
2177 2178 2187 2186 1916 1917 1926 1925 
2178 2179 2188 2187 1917 1918 1927 1926 
2179 1087 1088 2188 1918 1058 1059 1927 
827 2180 2189 828 798 1919 1928 799 
2180 2181 2190 2189 1919 1920 1929 1928 
2181 2182 2191 2190 1920 1921 1930 1929 
2182 2183 2192 2191 1921 1922 1931 1930 
2183 2184 2193 2192 1922 1923 1932 1931 
2184 2185 2194 2193 1923 1924 1933 1932 
2185 2186 2195 2194 1924 1925 1934 1933 
2186 2187 2196 2195 1925 1926 1935 1934 
2187 2188 2197 2196 1926 1927 1936 1935 
2188 1088 1089 2197 1927 1059 1060 1936 
828 2189 2198 829 799 1928 1937 800 
2189 2190 2199 2198 1928 1929 1938 1937 
2190 2191 2200 2199 1929 1930 1939 1938 
2191 2192 2201 2200 1930 1931 1940 1939 
2192 2193 2202 2201 1931 1932 1941 1940 
2193 2194 2203 2202 1932 1933 1942 1941 
2194 2195 2204 2203 1933 1934 1943 1942 
2195 2196 2205 2204 1934 1935 1944 1943 
2196 2197 2206 2205 1935 1936 1945 1944 
2197 1089 1090 2206 1936 1060 1061 1945 
829 2198 2207 830 800 1937 1946 801 
2198 2199 2208 2207 1937 1938 1947 1946 
2199 2200 2209 2208 1938 1939 1948 1947 
2200 2201 2210 2209 1939 1940 1949 1948 
2201 2202 2211 2210 1940 1941 1950 1949 
2202 2203 2212 2211 1941 1942 1951 1950 
2203 2204 2213 2212 1942 1943 1952 1951 
2204 2205 2214 2213 1943 1944 1953 1952 
2205 2206 2215 2214 1944 1945 1954 1953 
2206 1090 1091 2215 1945 1061 1062 1954 
830 2207 2216 831 801 1946 1955 802 
2207 2208 2217 2216 1946 1947 1956 1955 
2208 2209 2218 2217 1947 1948 1957 1956 
2209 2210 2219 2218 1948 1949 1958 1957 
2210 2211 2220 2219 1949 1950 1959 1958 
2211 2212 2221 2220 1950 1951 1960 1959 
2212 2213 2222 2221 1951 1952 1961 1960 
2213 2214 2223 2222 1952 1953 1962 1961 
2214 2215 2224 2223 1953 1954 1963 1962 
2215 1091 1092 2224 1954 1062 1063 1963 
831 2216 2225 832 802 1955 1964 803 
2216 2217 2226 2225 1955 1956 1965 1964 
2217 2218 2227 2226 1956 1957 1966 1965 
2218 2219 2228 2227 1957 1958 1967 1966 
2219 2220 2229 2228 1958 1959 1968 1967 
2220 2221 2230 2229 1959 1960 1969 1968 
2221 2222 2231 2230 1960 1961 1970 1969 
2222 2223 2232 2231 1961 1962 1971 1970 
2223 2224 2233 2232 1962 1963 1972 1971 
2224 1092 1093 2233 1963 1063 1064 1972 
832 2225 2234 833 803 1964 1973 804 
2225 2226 2235 2234 1964 1965 1974 1973 
2226 2227 2236 2235 1965 1966 1975 1974 
2227 2228 2237 2236 1966 1967 1976 1975 
2228 2229 2238 2237 1967 1968 1977 1976 
2229 2230 2239 2238 1968 1969 1978 1977 
2230 2231 2240 2239 1969 1970 1979 1978 
2231 2232 2241 2240 1970 1971 1980 1979 
2232 2233 2242 2241 1971 1972 1981 1980 
2233 1093 1094 2242 1972 1064 1065 1981 
833 2234 2243 834 804 1973 1982 805 
2234 2235 2244 2243 1973 1974 1983 1982 
2235 2236 2245 2244 1974 1975 1984 1983 
2236 2237 2246 2245 1975 1976 1985 1984 
2237 2238 2247 2246 1976 1977 1986 1985 
2238 2239 2248 2247 1977 1978 1987 1986 
2239 2240 2249 2248 1978 1979 1988 1987 
2240 2241 2250 2249 1979 1980 1989 1988 
2241 2242 2251 2250 1980 1981 1990 1989 
2242 1094 1095 2251 1981 1065 1066 1990 
834 2243 2252 835 805 1982 1991 806 
2243 2244 2253 2252 1982 1983 1992 1991 
2244 2245 2254 2253 1983 1984 1993 1992 
2245 2246 2255 2254 1984 1985 1994 1993 
2246 2247 2256 2255 1985 1986 1995 1994 
2247 2248 2257 2256 1986 1987 1996 1995 
2248 2249 2258 2257 1987 1988 1997 1996 
2249 2250 2259 2258 1988 1989 1998 1997 
2250 2251 2260 2259 1989 1990 1999 1998 
2251 1095 1096 2260 1990 1066 1067 1999 
835 2252 2261 836 806 1991 2000 807 
2252 2253 2262 2261 1991 1992 2001 2000 
2253 2254 2263 2262 1992 1993 2002 2001 
2254 2255 2264 2263 1993 1994 2003 2002 
2255 2256 2265 2264 1994 1995 2004 2003 
2256 2257 2266 2265 1995 1996 2005 2004 
2257 2258 2267 2266 1996 1997 2006 2005 
2258 2259 2268 2267 1997 1998 2007 2006 
2259 2260 2269 2268 1998 1999 2008 2007 
2260 1096 1097 2269 1999 1067 1068 2008 
836 2261 2270 837 807 2000 2009 808 
2261 2262 2271 2270 2000 2001 2010 2009 
2262 2263 2272 2271 2001 2002 2011 2010 
2263 2264 2273 2272 2002 2003 2012 2011 
2264 2265 2274 2273 2003 2004 2013 2012 
2265 2266 2275 2274 2004 2005 2014 2013 
2266 2267 2276 2275 2005 2006 2015 2014 
2267 2268 2277 2276 2006 2007 2016 2015 
2268 2269 2278 2277 2007 2008 2017 2016 
2269 1097 1098 2278 2008 1068 1069 2017 
837 2270 2279 838 808 2009 2018 809 
2270 2271 2280 2279 2009 2010 2019 2018 
2271 2272 2281 2280 2010 2011 2020 2019 
2272 2273 2282 2281 2011 2012 2021 2020 
2273 2274 2283 2282 2012 2013 2022 2021 
2274 2275 2284 2283 2013 2014 2023 2022 
2275 2276 2285 2284 2014 2015 2024 2023 
2276 2277 2286 2285 2015 2016 2025 2024 
2277 2278 2287 2286 2016 2017 2026 2025 
2278 1098 1099 2287 2017 1069 1070 2026 
838 2279 2288 839 809 2018 2027 810 
2279 2280 2289 2288 2018 2019 2028 2027 
2280 2281 2290 2289 2019 2020 2029 2028 
2281 2282 2291 2290 2020 2021 2030 2029 
2282 2283 2292 2291 2021 2022 2031 2030 
2283 2284 2293 2292 2022 2023 2032 2031 
2284 2285 2294 2293 2023 2024 2033 2032 
2285 2286 2295 2294 2024 2025 2034 2033 
2286 2287 2296 2295 2025 2026 2035 2034 
2287 1099 1100 2296 2026 1070 1071 2035 
839 2288 2297 840 810 2027 2036 811 
2288 2289 2298 2297 2027 2028 2037 2036 
2289 2290 2299 2298 2028 2029 2038 2037 
2290 2291 2300 2299 2029 2030 2039 2038 
2291 2292 2301 2300 2030 2031 2040 2039 
2292 2293 2302 2301 2031 2032 2041 2040 
2293 2294 2303 2302 2032 2033 2042 2041 
2294 2295 2304 2303 2033 2034 2043 2042 
2295 2296 2305 2304 2034 2035 2044 2043 
2296 1100 1101 2305 2035 1071 1072 2044 
840 2297 2306 841 811 2036 2045 812 
2297 2298 2307 2306 2036 2037 2046 2045 
2298 2299 2308 2307 2037 2038 2047 2046 
2299 2300 2309 2308 2038 2039 2048 2047 
2300 2301 2310 2309 2039 2040 2049 2048 
2301 2302 2311 2310 2040 2041 2050 2049 
2302 2303 2312 2311 2041 2042 2051 2050 
2303 2304 2313 2312 2042 2043 2052 2051 
2304 2305 2314 2313 2043 2044 2053 2052 
2305 1101 1102 2314 2044 1072 1073 2053 
841 2306 2315 842 812 2045 2054 813 
2306 2307 2316 2315 2045 2046 2055 2054 
2307 2308 2317 2316 2046 2047 2056 2055 
2308 2309 2318 2317 2047 2048 2057 2056 
2309 2310 2319 2318 2048 2049 2058 2057 
2310 2311 2320 2319 2049 2050 2059 2058 
2311 2312 2321 2320 2050 2051 2060 2059 
2312 2313 2322 2321 2051 2052 2061 2060 
2313 2314 2323 2322 2052 2053 2062 2061 
2314 1102 1103 2323 2053 1073 1074 2062 
842 2315 2324 843 813 2054 2063 814 
2315 2316 2325 2324 2054 2055 2064 2063 
2316 2317 2326 2325 2055 2056 2065 2064 
2317 2318 2327 2326 2056 2057 2066 2065 
2318 2319 2328 2327 2057 2058 2067 2066 
2319 2320 2329 2328 2058 2059 2068 2067 
2320 2321 2330 2329 2059 2060 2069 2068 
2321 2322 2331 2330 2060 2061 2070 2069 
2322 2323 2332 2331 2061 2062 2071 2070 
2323 1103 1104 2332 2062 1074 1075 2071 
843 2324 2333 844 814 2063 2072 815 
2324 2325 2334 2333 2063 2064 2073 2072 
2325 2326 2335 2334 2064 2065 2074 2073 
2326 2327 2336 2335 2065 2066 2075 2074 
2327 2328 2337 2336 2066 2067 2076 2075 
2328 2329 2338 2337 2067 2068 2077 2076 
2329 2330 2339 2338 2068 2069 2078 2077 
2330 2331 2340 2339 2069 2070 2079 2078 
2331 2332 2341 2340 2070 2071 2080 2079 
2332 1104 1105 2341 2071 1075 1076 2080 
844 2333 2342 845 815 2072 2081 816 
2333 2334 2343 2342 2072 2073 2082 2081 
2334 2335 2344 2343 2073 2074 2083 2082 
2335 2336 2345 2344 2074 2075 2084 2083 
2336 2337 2346 2345 2075 2076 2085 2084 
2337 2338 2347 2346 2076 2077 2086 2085 
2338 2339 2348 2347 2077 2078 2087 2086 
2339 2340 2349 2348 2078 2079 2088 2087 
2340 2341 2350 2349 2079 2080 2089 2088 
2341 1105 1106 2350 2080 1076 1077 2089 
845 2342 2351 846 816 2081 2090 817 
2342 2343 2352 2351 2081 2082 2091 2090 
2343 2344 2353 2352 2082 2083 2092 2091 
2344 2345 2354 2353 2083 2084 2093 2092 
2345 2346 2355 2354 2084 2085 2094 2093 
2346 2347 2356 2355 2085 2086 2095 2094 
2347 2348 2357 2356 2086 2087 2096 2095 
2348 2349 2358 2357 2087 2088 2097 2096 
2349 2350 2359 2358 2088 2089 2098 2097 
2350 1106 1107 2359 2089 1077 1078 2098 
846 2351 2360 847 817 2090 2099 818 
2351 2352 2361 2360 2090 2091 2100 2099 
2352 2353 2362 2361 2091 2092 2101 2100 
2353 2354 2363 2362 2092 2093 2102 2101 
2354 2355 2364 2363 2093 2094 2103 2102 
2355 2356 2365 2364 2094 2095 2104 2103 
2356 2357 2366 2365 2095 2096 2105 2104 
2357 2358 2367 2366 2096 2097 2106 2105 
2358 2359 2368 2367 2097 2098 2107 2106 
2359 1107 1108 2368 2098 1078 1079 2107 
847 2360 2369 848 818 2099 2108 819 
2360 2361 2370 2369 2099 2100 2109 2108 
2361 2362 2371 2370 2100 2101 2110 2109 
2362 2363 2372 2371 2101 2102 2111 2110 
2363 2364 2373 2372 2102 2103 2112 2111 
2364 2365 2374 2373 2103 2104 2113 2112 
2365 2366 2375 2374 2104 2105 2114 2113 
2366 2367 2376 2375 2105 2106 2115 2114 
2367 2368 2377 2376 2106 2107 2116 2115 
2368 1108 1109 2377 2107 1079 1080 2116 
848 2369 2378 849 819 2108 2117 820 
2369 2370 2379 2378 2108 2109 2118 2117 
2370 2371 2380 2379 2109 2110 2119 2118 
2371 2372 2381 2380 2110 2111 2120 2119 
2372 2373 2382 2381 2111 2112 2121 2120 
2373 2374 2383 2382 2112 2113 2122 2121 
2374 2375 2384 2383 2113 2114 2123 2122 
2375 2376 2385 2384 2114 2115 2124 2123 
2376 2377 2386 2385 2115 2116 2125 2124 
2377 1109 1110 2386 2116 1080 1081 2125 
849 2378 2387 850 820 2117 2126 821 
2378 2379 2388 2387 2117 2118 2127 2126 
2379 2380 2389 2388 2118 2119 2128 2127 
2380 2381 2390 2389 2119 2120 2129 2128 
2381 2382 2391 2390 2120 2121 2130 2129 
2382 2383 2392 2391 2121 2122 2131 2130 
2383 2384 2393 2392 2122 2123 2132 2131 
2384 2385 2394 2393 2123 2124 2133 2132 
2385 2386 2395 2394 2124 2125 2134 2133 
2386 1110 1111 2395 2125 1081 1082 2134 
850 2387 2396 851 821 2126 2135 822 
2387 2388 2397 2396 2126 2127 2136 2135 
2388 2389 2398 2397 2127 2128 2137 2136 
2389 2390 2399 2398 2128 2129 2138 2137 
2390 2391 2400 2399 2129 2130 2139 2138 
2391 2392 2401 2400 2130 2131 2140 2139 
2392 2393 2402 2401 2131 2132 2141 2140 
2393 2394 2403 2402 2132 2133 2142 2141 
2394 2395 2404 2403 2133 2134 2143 2142 
2395 1111 1112 2404 2134 1082 1083 2143 
851 2396 1406 165 822 2135 1397 164 
2396 2397 1407 1406 2135 2136 1398 1397 
2397 2398 1408 1407 2136 2137 1399 1398 
2398 2399 1409 1408 2137 2138 1400 1399 
2399 2400 1410 1409 2138 2139 1401 1400 
2400 2401 1411 1410 2139 2140 1402 1401 
2401 2402 1412 1411 2140 2141 1403 1402 
2402 2403 1413 1412 2141 2142 1404 1403 
2403 2404 1414 1413 2142 2143 1405 1404 
2404 1112 189 1414 2143 1083 190 1405 
179 1334 2405 852 180 1325 2144 823 
1334 1335 2406 2405 1325 1326 2145 2144 
1335 1336 2407 2406 1326 1327 2146 2145 
1336 1337 2408 2407 1327 1328 2147 2146 
1337 1338 2409 2408 1328 1329 2148 2147 
1338 1339 2410 2409 1329 1330 2149 2148 
1339 1340 2411 2410 1330 1331 2150 2149 
1340 1341 2412 2411 1331 1332 2151 2150 
1341 1342 2413 2412 1332 1333 2152 2151 
1342 193 1113 2413 1333 192 1084 2152 
852 2405 2414 853 823 2144 2153 824 
2405 2406 2415 2414 2144 2145 2154 2153 
2406 2407 2416 2415 2145 2146 2155 2154 
2407 2408 2417 2416 2146 2147 2156 2155 
2408 2409 2418 2417 2147 2148 2157 2156 
2409 2410 2419 2418 2148 2149 2158 2157 
2410 2411 2420 2419 2149 2150 2159 2158 
2411 2412 2421 2420 2150 2151 2160 2159 
2412 2413 2422 2421 2151 2152 2161 2160 
2413 1113 1114 2422 2152 1084 1085 2161 
853 2414 2423 854 824 2153 2162 825 
2414 2415 2424 2423 2153 2154 2163 2162 
2415 2416 2425 2424 2154 2155 2164 2163 
2416 2417 2426 2425 2155 2156 2165 2164 
2417 2418 2427 2426 2156 2157 2166 2165 
2418 2419 2428 2427 2157 2158 2167 2166 
2419 2420 2429 2428 2158 2159 2168 2167 
2420 2421 2430 2429 2159 2160 2169 2168 
2421 2422 2431 2430 2160 2161 2170 2169 
2422 1114 1115 2431 2161 1085 1086 2170 
854 2423 2432 855 825 2162 2171 826 
2423 2424 2433 2432 2162 2163 2172 2171 
2424 2425 2434 2433 2163 2164 2173 2172 
2425 2426 2435 2434 2164 2165 2174 2173 
2426 2427 2436 2435 2165 2166 2175 2174 
2427 2428 2437 2436 2166 2167 2176 2175 
2428 2429 2438 2437 2167 2168 2177 2176 
2429 2430 2439 2438 2168 2169 2178 2177 
2430 2431 2440 2439 2169 2170 2179 2178 
2431 1115 1116 2440 2170 1086 1087 2179 
855 2432 2441 856 826 2171 2180 827 
2432 2433 2442 2441 2171 2172 2181 2180 
2433 2434 2443 2442 2172 2173 2182 2181 
2434 2435 2444 2443 2173 2174 2183 2182 
2435 2436 2445 2444 2174 2175 2184 2183 
2436 2437 2446 2445 2175 2176 2185 2184 
2437 2438 2447 2446 2176 2177 2186 2185 
2438 2439 2448 2447 2177 2178 2187 2186 
2439 2440 2449 2448 2178 2179 2188 2187 
2440 1116 1117 2449 2179 1087 1088 2188 
856 2441 2450 857 827 2180 2189 828 
2441 2442 2451 2450 2180 2181 2190 2189 
2442 2443 2452 2451 2181 2182 2191 2190 
2443 2444 2453 2452 2182 2183 2192 2191 
2444 2445 2454 2453 2183 2184 2193 2192 
2445 2446 2455 2454 2184 2185 2194 2193 
2446 2447 2456 2455 2185 2186 2195 2194 
2447 2448 2457 2456 2186 2187 2196 2195 
2448 2449 2458 2457 2187 2188 2197 2196 
2449 1117 1118 2458 2188 1088 1089 2197 
857 2450 2459 858 828 2189 2198 829 
2450 2451 2460 2459 2189 2190 2199 2198 
2451 2452 2461 2460 2190 2191 2200 2199 
2452 2453 2462 2461 2191 2192 2201 2200 
2453 2454 2463 2462 2192 2193 2202 2201 
2454 2455 2464 2463 2193 2194 2203 2202 
2455 2456 2465 2464 2194 2195 2204 2203 
2456 2457 2466 2465 2195 2196 2205 2204 
2457 2458 2467 2466 2196 2197 2206 2205 
2458 1118 1119 2467 2197 1089 1090 2206 
858 2459 2468 859 829 2198 2207 830 
2459 2460 2469 2468 2198 2199 2208 2207 
2460 2461 2470 2469 2199 2200 2209 2208 
2461 2462 2471 2470 2200 2201 2210 2209 
2462 2463 2472 2471 2201 2202 2211 2210 
2463 2464 2473 2472 2202 2203 2212 2211 
2464 2465 2474 2473 2203 2204 2213 2212 
2465 2466 2475 2474 2204 2205 2214 2213 
2466 2467 2476 2475 2205 2206 2215 2214 
2467 1119 1120 2476 2206 1090 1091 2215 
859 2468 2477 860 830 2207 2216 831 
2468 2469 2478 2477 2207 2208 2217 2216 
2469 2470 2479 2478 2208 2209 2218 2217 
2470 2471 2480 2479 2209 2210 2219 2218 
2471 2472 2481 2480 2210 2211 2220 2219 
2472 2473 2482 2481 2211 2212 2221 2220 
2473 2474 2483 2482 2212 2213 2222 2221 
2474 2475 2484 2483 2213 2214 2223 2222 
2475 2476 2485 2484 2214 2215 2224 2223 
2476 1120 1121 2485 2215 1091 1092 2224 
860 2477 2486 861 831 2216 2225 832 
2477 2478 2487 2486 2216 2217 2226 2225 
2478 2479 2488 2487 2217 2218 2227 2226 
2479 2480 2489 2488 2218 2219 2228 2227 
2480 2481 2490 2489 2219 2220 2229 2228 
2481 2482 2491 2490 2220 2221 2230 2229 
2482 2483 2492 2491 2221 2222 2231 2230 
2483 2484 2493 2492 2222 2223 2232 2231 
2484 2485 2494 2493 2223 2224 2233 2232 
2485 1121 1122 2494 2224 1092 1093 2233 
861 2486 2495 862 832 2225 2234 833 
2486 2487 2496 2495 2225 2226 2235 2234 
2487 2488 2497 2496 2226 2227 2236 2235 
2488 2489 2498 2497 2227 2228 2237 2236 
2489 2490 2499 2498 2228 2229 2238 2237 
2490 2491 2500 2499 2229 2230 2239 2238 
2491 2492 2501 2500 2230 2231 2240 2239 
2492 2493 2502 2501 2231 2232 2241 2240 
2493 2494 2503 2502 2232 2233 2242 2241 
2494 1122 1123 2503 2233 1093 1094 2242 
862 2495 2504 863 833 2234 2243 834 
2495 2496 2505 2504 2234 2235 2244 2243 
2496 2497 2506 2505 2235 2236 2245 2244 
2497 2498 2507 2506 2236 2237 2246 2245 
2498 2499 2508 2507 2237 2238 2247 2246 
2499 2500 2509 2508 2238 2239 2248 2247 
2500 2501 2510 2509 2239 2240 2249 2248 
2501 2502 2511 2510 2240 2241 2250 2249 
2502 2503 2512 2511 2241 2242 2251 2250 
2503 1123 1124 2512 2242 1094 1095 2251 
863 2504 2513 864 834 2243 2252 835 
2504 2505 2514 2513 2243 2244 2253 2252 
2505 2506 2515 2514 2244 2245 2254 2253 
2506 2507 2516 2515 2245 2246 2255 2254 
2507 2508 2517 2516 2246 2247 2256 2255 
2508 2509 2518 2517 2247 2248 2257 2256 
2509 2510 2519 2518 2248 2249 2258 2257 
2510 2511 2520 2519 2249 2250 2259 2258 
2511 2512 2521 2520 2250 2251 2260 2259 
2512 1124 1125 2521 2251 1095 1096 2260 
864 2513 2522 865 835 2252 2261 836 
2513 2514 2523 2522 2252 2253 2262 2261 
2514 2515 2524 2523 2253 2254 2263 2262 
2515 2516 2525 2524 2254 2255 2264 2263 
2516 2517 2526 2525 2255 2256 2265 2264 
2517 2518 2527 2526 2256 2257 2266 2265 
2518 2519 2528 2527 2257 2258 2267 2266 
2519 2520 2529 2528 2258 2259 2268 2267 
2520 2521 2530 2529 2259 2260 2269 2268 
2521 1125 1126 2530 2260 1096 1097 2269 
865 2522 2531 866 836 2261 2270 837 
2522 2523 2532 2531 2261 2262 2271 2270 
2523 2524 2533 2532 2262 2263 2272 2271 
2524 2525 2534 2533 2263 2264 2273 2272 
2525 2526 2535 2534 2264 2265 2274 2273 
2526 2527 2536 2535 2265 2266 2275 2274 
2527 2528 2537 2536 2266 2267 2276 2275 
2528 2529 2538 2537 2267 2268 2277 2276 
2529 2530 2539 2538 2268 2269 2278 2277 
2530 1126 1127 2539 2269 1097 1098 2278 
866 2531 2540 867 837 2270 2279 838 
2531 2532 2541 2540 2270 2271 2280 2279 
2532 2533 2542 2541 2271 2272 2281 2280 
2533 2534 2543 2542 2272 2273 2282 2281 
2534 2535 2544 2543 2273 2274 2283 2282 
2535 2536 2545 2544 2274 2275 2284 2283 
2536 2537 2546 2545 2275 2276 2285 2284 
2537 2538 2547 2546 2276 2277 2286 2285 
2538 2539 2548 2547 2277 2278 2287 2286 
2539 1127 1128 2548 2278 1098 1099 2287 
867 2540 2549 868 838 2279 2288 839 
2540 2541 2550 2549 2279 2280 2289 2288 
2541 2542 2551 2550 2280 2281 2290 2289 
2542 2543 2552 2551 2281 2282 2291 2290 
2543 2544 2553 2552 2282 2283 2292 2291 
2544 2545 2554 2553 2283 2284 2293 2292 
2545 2546 2555 2554 2284 2285 2294 2293 
2546 2547 2556 2555 2285 2286 2295 2294 
2547 2548 2557 2556 2286 2287 2296 2295 
2548 1128 1129 2557 2287 1099 1100 2296 
868 2549 2558 869 839 2288 2297 840 
2549 2550 2559 2558 2288 2289 2298 2297 
2550 2551 2560 2559 2289 2290 2299 2298 
2551 2552 2561 2560 2290 2291 2300 2299 
2552 2553 2562 2561 2291 2292 2301 2300 
2553 2554 2563 2562 2292 2293 2302 2301 
2554 2555 2564 2563 2293 2294 2303 2302 
2555 2556 2565 2564 2294 2295 2304 2303 
2556 2557 2566 2565 2295 2296 2305 2304 
2557 1129 1130 2566 2296 1100 1101 2305 
869 2558 2567 870 840 2297 2306 841 
2558 2559 2568 2567 2297 2298 2307 2306 
2559 2560 2569 2568 2298 2299 2308 2307 
2560 2561 2570 2569 2299 2300 2309 2308 
2561 2562 2571 2570 2300 2301 2310 2309 
2562 2563 2572 2571 2301 2302 2311 2310 
2563 2564 2573 2572 2302 2303 2312 2311 
2564 2565 2574 2573 2303 2304 2313 2312 
2565 2566 2575 2574 2304 2305 2314 2313 
2566 1130 1131 2575 2305 1101 1102 2314 
870 2567 2576 871 841 2306 2315 842 
2567 2568 2577 2576 2306 2307 2316 2315 
2568 2569 2578 2577 2307 2308 2317 2316 
2569 2570 2579 2578 2308 2309 2318 2317 
2570 2571 2580 2579 2309 2310 2319 2318 
2571 2572 2581 2580 2310 2311 2320 2319 
2572 2573 2582 2581 2311 2312 2321 2320 
2573 2574 2583 2582 2312 2313 2322 2321 
2574 2575 2584 2583 2313 2314 2323 2322 
2575 1131 1132 2584 2314 1102 1103 2323 
871 2576 2585 872 842 2315 2324 843 
2576 2577 2586 2585 2315 2316 2325 2324 
2577 2578 2587 2586 2316 2317 2326 2325 
2578 2579 2588 2587 2317 2318 2327 2326 
2579 2580 2589 2588 2318 2319 2328 2327 
2580 2581 2590 2589 2319 2320 2329 2328 
2581 2582 2591 2590 2320 2321 2330 2329 
2582 2583 2592 2591 2321 2322 2331 2330 
2583 2584 2593 2592 2322 2323 2332 2331 
2584 1132 1133 2593 2323 1103 1104 2332 
872 2585 2594 873 843 2324 2333 844 
2585 2586 2595 2594 2324 2325 2334 2333 
2586 2587 2596 2595 2325 2326 2335 2334 
2587 2588 2597 2596 2326 2327 2336 2335 
2588 2589 2598 2597 2327 2328 2337 2336 
2589 2590 2599 2598 2328 2329 2338 2337 
2590 2591 2600 2599 2329 2330 2339 2338 
2591 2592 2601 2600 2330 2331 2340 2339 
2592 2593 2602 2601 2331 2332 2341 2340 
2593 1133 1134 2602 2332 1104 1105 2341 
873 2594 2603 874 844 2333 2342 845 
2594 2595 2604 2603 2333 2334 2343 2342 
2595 2596 2605 2604 2334 2335 2344 2343 
2596 2597 2606 2605 2335 2336 2345 2344 
2597 2598 2607 2606 2336 2337 2346 2345 
2598 2599 2608 2607 2337 2338 2347 2346 
2599 2600 2609 2608 2338 2339 2348 2347 
2600 2601 2610 2609 2339 2340 2349 2348 
2601 2602 2611 2610 2340 2341 2350 2349 
2602 1134 1135 2611 2341 1105 1106 2350 
874 2603 2612 875 845 2342 2351 846 
2603 2604 2613 2612 2342 2343 2352 2351 
2604 2605 2614 2613 2343 2344 2353 2352 
2605 2606 2615 2614 2344 2345 2354 2353 
2606 2607 2616 2615 2345 2346 2355 2354 
2607 2608 2617 2616 2346 2347 2356 2355 
2608 2609 2618 2617 2347 2348 2357 2356 
2609 2610 2619 2618 2348 2349 2358 2357 
2610 2611 2620 2619 2349 2350 2359 2358 
2611 1135 1136 2620 2350 1106 1107 2359 
875 2612 2621 876 846 2351 2360 847 
2612 2613 2622 2621 2351 2352 2361 2360 
2613 2614 2623 2622 2352 2353 2362 2361 
2614 2615 2624 2623 2353 2354 2363 2362 
2615 2616 2625 2624 2354 2355 2364 2363 
2616 2617 2626 2625 2355 2356 2365 2364 
2617 2618 2627 2626 2356 2357 2366 2365 
2618 2619 2628 2627 2357 2358 2367 2366 
2619 2620 2629 2628 2358 2359 2368 2367 
2620 1136 1137 2629 2359 1107 1108 2368 
876 2621 2630 877 847 2360 2369 848 
2621 2622 2631 2630 2360 2361 2370 2369 
2622 2623 2632 2631 2361 2362 2371 2370 
2623 2624 2633 2632 2362 2363 2372 2371 
2624 2625 2634 2633 2363 2364 2373 2372 
2625 2626 2635 2634 2364 2365 2374 2373 
2626 2627 2636 2635 2365 2366 2375 2374 
2627 2628 2637 2636 2366 2367 2376 2375 
2628 2629 2638 2637 2367 2368 2377 2376 
2629 1137 1138 2638 2368 1108 1109 2377 
877 2630 2639 878 848 2369 2378 849 
2630 2631 2640 2639 2369 2370 2379 2378 
2631 2632 2641 2640 2370 2371 2380 2379 
2632 2633 2642 2641 2371 2372 2381 2380 
2633 2634 2643 2642 2372 2373 2382 2381 
2634 2635 2644 2643 2373 2374 2383 2382 
2635 2636 2645 2644 2374 2375 2384 2383 
2636 2637 2646 2645 2375 2376 2385 2384 
2637 2638 2647 2646 2376 2377 2386 2385 
2638 1138 1139 2647 2377 1109 1110 2386 
878 2639 2648 879 849 2378 2387 850 
2639 2640 2649 2648 2378 2379 2388 2387 
2640 2641 2650 2649 2379 2380 2389 2388 
2641 2642 2651 2650 2380 2381 2390 2389 
2642 2643 2652 2651 2381 2382 2391 2390 
2643 2644 2653 2652 2382 2383 2392 2391 
2644 2645 2654 2653 2383 2384 2393 2392 
2645 2646 2655 2654 2384 2385 2394 2393 
2646 2647 2656 2655 2385 2386 2395 2394 
2647 1139 1140 2656 2386 1110 1111 2395 
879 2648 2657 880 850 2387 2396 851 
2648 2649 2658 2657 2387 2388 2397 2396 
2649 2650 2659 2658 2388 2389 2398 2397 
2650 2651 2660 2659 2389 2390 2399 2398 
2651 2652 2661 2660 2390 2391 2400 2399 
2652 2653 2662 2661 2391 2392 2401 2400 
2653 2654 2663 2662 2392 2393 2402 2401 
2654 2655 2664 2663 2393 2394 2403 2402 
2655 2656 2665 2664 2394 2395 2404 2403 
2656 1140 1141 2665 2395 1111 1112 2404 
880 2657 1415 166 851 2396 1406 165 
2657 2658 1416 1415 2396 2397 1407 1406 
2658 2659 1417 1416 2397 2398 1408 1407 
2659 2660 1418 1417 2398 2399 1409 1408 
2660 2661 1419 1418 2399 2400 1410 1409 
2661 2662 1420 1419 2400 2401 1411 1410 
2662 2663 1421 1420 2401 2402 1412 1411 
2663 2664 1422 1421 2402 2403 1413 1412 
2664 2665 1423 1422 2403 2404 1414 1413 
2665 1141 188 1423 2404 1112 189 1414 
178 1343 2666 881 179 1334 2405 852 
1343 1344 2667 2666 1334 1335 2406 2405 
1344 1345 2668 2667 1335 1336 2407 2406 
1345 1346 2669 2668 1336 1337 2408 2407 
1346 1347 2670 2669 1337 1338 2409 2408 
1347 1348 2671 2670 1338 1339 2410 2409 
1348 1349 2672 2671 1339 1340 2411 2410 
1349 1350 2673 2672 1340 1341 2412 2411 
1350 1351 2674 2673 1341 1342 2413 2412 
1351 194 1142 2674 1342 193 1113 2413 
881 2666 2675 882 852 2405 2414 853 
2666 2667 2676 2675 2405 2406 2415 2414 
2667 2668 2677 2676 2406 2407 2416 2415 
2668 2669 2678 2677 2407 2408 2417 2416 
2669 2670 2679 2678 2408 2409 2418 2417 
2670 2671 2680 2679 2409 2410 2419 2418 
2671 2672 2681 2680 2410 2411 2420 2419 
2672 2673 2682 2681 2411 2412 2421 2420 
2673 2674 2683 2682 2412 2413 2422 2421 
2674 1142 1143 2683 2413 1113 1114 2422 
882 2675 2684 883 853 2414 2423 854 
2675 2676 2685 2684 2414 2415 2424 2423 
2676 2677 2686 2685 2415 2416 2425 2424 
2677 2678 2687 2686 2416 2417 2426 2425 
2678 2679 2688 2687 2417 2418 2427 2426 
2679 2680 2689 2688 2418 2419 2428 2427 
2680 2681 2690 2689 2419 2420 2429 2428 
2681 2682 2691 2690 2420 2421 2430 2429 
2682 2683 2692 2691 2421 2422 2431 2430 
2683 1143 1144 2692 2422 1114 1115 2431 
883 2684 2693 884 854 2423 2432 855 
2684 2685 2694 2693 2423 2424 2433 2432 
2685 2686 2695 2694 2424 2425 2434 2433 
2686 2687 2696 2695 2425 2426 2435 2434 
2687 2688 2697 2696 2426 2427 2436 2435 
2688 2689 2698 2697 2427 2428 2437 2436 
2689 2690 2699 2698 2428 2429 2438 2437 
2690 2691 2700 2699 2429 2430 2439 2438 
2691 2692 2701 2700 2430 2431 2440 2439 
2692 1144 1145 2701 2431 1115 1116 2440 
884 2693 2702 885 855 2432 2441 856 
2693 2694 2703 2702 2432 2433 2442 2441 
2694 2695 2704 2703 2433 2434 2443 2442 
2695 2696 2705 2704 2434 2435 2444 2443 
2696 2697 2706 2705 2435 2436 2445 2444 
2697 2698 2707 2706 2436 2437 2446 2445 
2698 2699 2708 2707 2437 2438 2447 2446 
2699 2700 2709 2708 2438 2439 2448 2447 
2700 2701 2710 2709 2439 2440 2449 2448 
2701 1145 1146 2710 2440 1116 1117 2449 
885 2702 2711 886 856 2441 2450 857 
2702 2703 2712 2711 2441 2442 2451 2450 
2703 2704 2713 2712 2442 2443 2452 2451 
2704 2705 2714 2713 2443 2444 2453 2452 
2705 2706 2715 2714 2444 2445 2454 2453 
2706 2707 2716 2715 2445 2446 2455 2454 
2707 2708 2717 2716 2446 2447 2456 2455 
2708 2709 2718 2717 2447 2448 2457 2456 
2709 2710 2719 2718 2448 2449 2458 2457 
2710 1146 1147 2719 2449 1117 1118 2458 
886 2711 2720 887 857 2450 2459 858 
2711 2712 2721 2720 2450 2451 2460 2459 
2712 2713 2722 2721 2451 2452 2461 2460 
2713 2714 2723 2722 2452 2453 2462 2461 
2714 2715 2724 2723 2453 2454 2463 2462 
2715 2716 2725 2724 2454 2455 2464 2463 
2716 2717 2726 2725 2455 2456 2465 2464 
2717 2718 2727 2726 2456 2457 2466 2465 
2718 2719 2728 2727 2457 2458 2467 2466 
2719 1147 1148 2728 2458 1118 1119 2467 
887 2720 2729 888 858 2459 2468 859 
2720 2721 2730 2729 2459 2460 2469 2468 
2721 2722 2731 2730 2460 2461 2470 2469 
2722 2723 2732 2731 2461 2462 2471 2470 
2723 2724 2733 2732 2462 2463 2472 2471 
2724 2725 2734 2733 2463 2464 2473 2472 
2725 2726 2735 2734 2464 2465 2474 2473 
2726 2727 2736 2735 2465 2466 2475 2474 
2727 2728 2737 2736 2466 2467 2476 2475 
2728 1148 1149 2737 2467 1119 1120 2476 
888 2729 2738 889 859 2468 2477 860 
2729 2730 2739 2738 2468 2469 2478 2477 
2730 2731 2740 2739 2469 2470 2479 2478 
2731 2732 2741 2740 2470 2471 2480 2479 
2732 2733 2742 2741 2471 2472 2481 2480 
2733 2734 2743 2742 2472 2473 2482 2481 
2734 2735 2744 2743 2473 2474 2483 2482 
2735 2736 2745 2744 2474 2475 2484 2483 
2736 2737 2746 2745 2475 2476 2485 2484 
2737 1149 1150 2746 2476 1120 1121 2485 
889 2738 2747 890 860 2477 2486 861 
2738 2739 2748 2747 2477 2478 2487 2486 
2739 2740 2749 2748 2478 2479 2488 2487 
2740 2741 2750 2749 2479 2480 2489 2488 
2741 2742 2751 2750 2480 2481 2490 2489 
2742 2743 2752 2751 2481 2482 2491 2490 
2743 2744 2753 2752 2482 2483 2492 2491 
2744 2745 2754 2753 2483 2484 2493 2492 
2745 2746 2755 2754 2484 2485 2494 2493 
2746 1150 1151 2755 2485 1121 1122 2494 
890 2747 2756 891 861 2486 2495 862 
2747 2748 2757 2756 2486 2487 2496 2495 
2748 2749 2758 2757 2487 2488 2497 2496 
2749 2750 2759 2758 2488 2489 2498 2497 
2750 2751 2760 2759 2489 2490 2499 2498 
2751 2752 2761 2760 2490 2491 2500 2499 
2752 2753 2762 2761 2491 2492 2501 2500 
2753 2754 2763 2762 2492 2493 2502 2501 
2754 2755 2764 2763 2493 2494 2503 2502 
2755 1151 1152 2764 2494 1122 1123 2503 
891 2756 2765 892 862 2495 2504 863 
2756 2757 2766 2765 2495 2496 2505 2504 
2757 2758 2767 2766 2496 2497 2506 2505 
2758 2759 2768 2767 2497 2498 2507 2506 
2759 2760 2769 2768 2498 2499 2508 2507 
2760 2761 2770 2769 2499 2500 2509 2508 
2761 2762 2771 2770 2500 2501 2510 2509 
2762 2763 2772 2771 2501 2502 2511 2510 
2763 2764 2773 2772 2502 2503 2512 2511 
2764 1152 1153 2773 2503 1123 1124 2512 
892 2765 2774 893 863 2504 2513 864 
2765 2766 2775 2774 2504 2505 2514 2513 
2766 2767 2776 2775 2505 2506 2515 2514 
2767 2768 2777 2776 2506 2507 2516 2515 
2768 2769 2778 2777 2507 2508 2517 2516 
2769 2770 2779 2778 2508 2509 2518 2517 
2770 2771 2780 2779 2509 2510 2519 2518 
2771 2772 2781 2780 2510 2511 2520 2519 
2772 2773 2782 2781 2511 2512 2521 2520 
2773 1153 1154 2782 2512 1124 1125 2521 
893 2774 2783 894 864 2513 2522 865 
2774 2775 2784 2783 2513 2514 2523 2522 
2775 2776 2785 2784 2514 2515 2524 2523 
2776 2777 2786 2785 2515 2516 2525 2524 
2777 2778 2787 2786 2516 2517 2526 2525 
2778 2779 2788 2787 2517 2518 2527 2526 
2779 2780 2789 2788 2518 2519 2528 2527 
2780 2781 2790 2789 2519 2520 2529 2528 
2781 2782 2791 2790 2520 2521 2530 2529 
2782 1154 1155 2791 2521 1125 1126 2530 
894 2783 2792 895 865 2522 2531 866 
2783 2784 2793 2792 2522 2523 2532 2531 
2784 2785 2794 2793 2523 2524 2533 2532 
2785 2786 2795 2794 2524 2525 2534 2533 
2786 2787 2796 2795 2525 2526 2535 2534 
2787 2788 2797 2796 2526 2527 2536 2535 
2788 2789 2798 2797 2527 2528 2537 2536 
2789 2790 2799 2798 2528 2529 2538 2537 
2790 2791 2800 2799 2529 2530 2539 2538 
2791 1155 1156 2800 2530 1126 1127 2539 
895 2792 2801 896 866 2531 2540 867 
2792 2793 2802 2801 2531 2532 2541 2540 
2793 2794 2803 2802 2532 2533 2542 2541 
2794 2795 2804 2803 2533 2534 2543 2542 
2795 2796 2805 2804 2534 2535 2544 2543 
2796 2797 2806 2805 2535 2536 2545 2544 
2797 2798 2807 2806 2536 2537 2546 2545 
2798 2799 2808 2807 2537 2538 2547 2546 
2799 2800 2809 2808 2538 2539 2548 2547 
2800 1156 1157 2809 2539 1127 1128 2548 
896 2801 2810 897 867 2540 2549 868 
2801 2802 2811 2810 2540 2541 2550 2549 
2802 2803 2812 2811 2541 2542 2551 2550 
2803 2804 2813 2812 2542 2543 2552 2551 
2804 2805 2814 2813 2543 2544 2553 2552 
2805 2806 2815 2814 2544 2545 2554 2553 
2806 2807 2816 2815 2545 2546 2555 2554 
2807 2808 2817 2816 2546 2547 2556 2555 
2808 2809 2818 2817 2547 2548 2557 2556 
2809 1157 1158 2818 2548 1128 1129 2557 
897 2810 2819 898 868 2549 2558 869 
2810 2811 2820 2819 2549 2550 2559 2558 
2811 2812 2821 2820 2550 2551 2560 2559 
2812 2813 2822 2821 2551 2552 2561 2560 
2813 2814 2823 2822 2552 2553 2562 2561 
2814 2815 2824 2823 2553 2554 2563 2562 
2815 2816 2825 2824 2554 2555 2564 2563 
2816 2817 2826 2825 2555 2556 2565 2564 
2817 2818 2827 2826 2556 2557 2566 2565 
2818 1158 1159 2827 2557 1129 1130 2566 
898 2819 2828 899 869 2558 2567 870 
2819 2820 2829 2828 2558 2559 2568 2567 
2820 2821 2830 2829 2559 2560 2569 2568 
2821 2822 2831 2830 2560 2561 2570 2569 
2822 2823 2832 2831 2561 2562 2571 2570 
2823 2824 2833 2832 2562 2563 2572 2571 
2824 2825 2834 2833 2563 2564 2573 2572 
2825 2826 2835 2834 2564 2565 2574 2573 
2826 2827 2836 2835 2565 2566 2575 2574 
2827 1159 1160 2836 2566 1130 1131 2575 
899 2828 2837 900 870 2567 2576 871 
2828 2829 2838 2837 2567 2568 2577 2576 
2829 2830 2839 2838 2568 2569 2578 2577 
2830 2831 2840 2839 2569 2570 2579 2578 
2831 2832 2841 2840 2570 2571 2580 2579 
2832 2833 2842 2841 2571 2572 2581 2580 
2833 2834 2843 2842 2572 2573 2582 2581 
2834 2835 2844 2843 2573 2574 2583 2582 
2835 2836 2845 2844 2574 2575 2584 2583 
2836 1160 1161 2845 2575 1131 1132 2584 
900 2837 2846 901 871 2576 2585 872 
2837 2838 2847 2846 2576 2577 2586 2585 
2838 2839 2848 2847 2577 2578 2587 2586 
2839 2840 2849 2848 2578 2579 2588 2587 
2840 2841 2850 2849 2579 2580 2589 2588 
2841 2842 2851 2850 2580 2581 2590 2589 
2842 2843 2852 2851 2581 2582 2591 2590 
2843 2844 2853 2852 2582 2583 2592 2591 
2844 2845 2854 2853 2583 2584 2593 2592 
2845 1161 1162 2854 2584 1132 1133 2593 
901 2846 2855 902 872 2585 2594 873 
2846 2847 2856 2855 2585 2586 2595 2594 
2847 2848 2857 2856 2586 2587 2596 2595 
2848 2849 2858 2857 2587 2588 2597 2596 
2849 2850 2859 2858 2588 2589 2598 2597 
2850 2851 2860 2859 2589 2590 2599 2598 
2851 2852 2861 2860 2590 2591 2600 2599 
2852 2853 2862 2861 2591 2592 2601 2600 
2853 2854 2863 2862 2592 2593 2602 2601 
2854 1162 1163 2863 2593 1133 1134 2602 
902 2855 2864 903 873 2594 2603 874 
2855 2856 2865 2864 2594 2595 2604 2603 
2856 2857 2866 2865 2595 2596 2605 2604 
2857 2858 2867 2866 2596 2597 2606 2605 
2858 2859 2868 2867 2597 2598 2607 2606 
2859 2860 2869 2868 2598 2599 2608 2607 
2860 2861 2870 2869 2599 2600 2609 2608 
2861 2862 2871 2870 2600 2601 2610 2609 
2862 2863 2872 2871 2601 2602 2611 2610 
2863 1163 1164 2872 2602 1134 1135 2611 
903 2864 2873 904 874 2603 2612 875 
2864 2865 2874 2873 2603 2604 2613 2612 
2865 2866 2875 2874 2604 2605 2614 2613 
2866 2867 2876 2875 2605 2606 2615 2614 
2867 2868 2877 2876 2606 2607 2616 2615 
2868 2869 2878 2877 2607 2608 2617 2616 
2869 2870 2879 2878 2608 2609 2618 2617 
2870 2871 2880 2879 2609 2610 2619 2618 
2871 2872 2881 2880 2610 2611 2620 2619 
2872 1164 1165 2881 2611 1135 1136 2620 
904 2873 2882 905 875 2612 2621 876 
2873 2874 2883 2882 2612 2613 2622 2621 
2874 2875 2884 2883 2613 2614 2623 2622 
2875 2876 2885 2884 2614 2615 2624 2623 
2876 2877 2886 2885 2615 2616 2625 2624 
2877 2878 2887 2886 2616 2617 2626 2625 
2878 2879 2888 2887 2617 2618 2627 2626 
2879 2880 2889 2888 2618 2619 2628 2627 
2880 2881 2890 2889 2619 2620 2629 2628 
2881 1165 1166 2890 2620 1136 1137 2629 
905 2882 2891 906 876 2621 2630 877 
2882 2883 2892 2891 2621 2622 2631 2630 
2883 2884 2893 2892 2622 2623 2632 2631 
2884 2885 2894 2893 2623 2624 2633 2632 
2885 2886 2895 2894 2624 2625 2634 2633 
2886 2887 2896 2895 2625 2626 2635 2634 
2887 2888 2897 2896 2626 2627 2636 2635 
2888 2889 2898 2897 2627 2628 2637 2636 
2889 2890 2899 2898 2628 2629 2638 2637 
2890 1166 1167 2899 2629 1137 1138 2638 
906 2891 2900 907 877 2630 2639 878 
2891 2892 2901 2900 2630 2631 2640 2639 
2892 2893 2902 2901 2631 2632 2641 2640 
2893 2894 2903 2902 2632 2633 2642 2641 
2894 2895 2904 2903 2633 2634 2643 2642 
2895 2896 2905 2904 2634 2635 2644 2643 
2896 2897 2906 2905 2635 2636 2645 2644 
2897 2898 2907 2906 2636 2637 2646 2645 
2898 2899 2908 2907 2637 2638 2647 2646 
2899 1167 1168 2908 2638 1138 1139 2647 
907 2900 2909 908 878 2639 2648 879 
2900 2901 2910 2909 2639 2640 2649 2648 
2901 2902 2911 2910 2640 2641 2650 2649 
2902 2903 2912 2911 2641 2642 2651 2650 
2903 2904 2913 2912 2642 2643 2652 2651 
2904 2905 2914 2913 2643 2644 2653 2652 
2905 2906 2915 2914 2644 2645 2654 2653 
2906 2907 2916 2915 2645 2646 2655 2654 
2907 2908 2917 2916 2646 2647 2656 2655 
2908 1168 1169 2917 2647 1139 1140 2656 
908 2909 2918 909 879 2648 2657 880 
2909 2910 2919 2918 2648 2649 2658 2657 
2910 2911 2920 2919 2649 2650 2659 2658 
2911 2912 2921 2920 2650 2651 2660 2659 
2912 2913 2922 2921 2651 2652 2661 2660 
2913 2914 2923 2922 2652 2653 2662 2661 
2914 2915 2924 2923 2653 2654 2663 2662 
2915 2916 2925 2924 2654 2655 2664 2663 
2916 2917 2926 2925 2655 2656 2665 2664 
2917 1169 1170 2926 2656 1140 1141 2665 
909 2918 1424 167 880 2657 1415 166 
2918 2919 1425 1424 2657 2658 1416 1415 
2919 2920 1426 1425 2658 2659 1417 1416 
2920 2921 1427 1426 2659 2660 1418 1417 
2921 2922 1428 1427 2660 2661 1419 1418 
2922 2923 1429 1428 2661 2662 1420 1419 
2923 2924 1430 1429 2662 2663 1421 1420 
2924 2925 1431 1430 2663 2664 1422 1421 
2925 2926 1432 1431 2664 2665 1423 1422 
2926 1170 187 1432 2665 1141 188 1423 
177 1352 2927 910 178 1343 2666 881 
1352 1353 2928 2927 1343 1344 2667 2666 
1353 1354 2929 2928 1344 1345 2668 2667 
1354 1355 2930 2929 1345 1346 2669 2668 
1355 1356 2931 2930 1346 1347 2670 2669 
1356 1357 2932 2931 1347 1348 2671 2670 
1357 1358 2933 2932 1348 1349 2672 2671 
1358 1359 2934 2933 1349 1350 2673 2672 
1359 1360 2935 2934 1350 1351 2674 2673 
1360 195 1171 2935 1351 194 1142 2674 
910 2927 2936 911 881 2666 2675 882 
2927 2928 2937 2936 2666 2667 2676 2675 
2928 2929 2938 2937 2667 2668 2677 2676 
2929 2930 2939 2938 2668 2669 2678 2677 
2930 2931 2940 2939 2669 2670 2679 2678 
2931 2932 2941 2940 2670 2671 2680 2679 
2932 2933 2942 2941 2671 2672 2681 2680 
2933 2934 2943 2942 2672 2673 2682 2681 
2934 2935 2944 2943 2673 2674 2683 2682 
2935 1171 1172 2944 2674 1142 1143 2683 
911 2936 2945 912 882 2675 2684 883 
2936 2937 2946 2945 2675 2676 2685 2684 
2937 2938 2947 2946 2676 2677 2686 2685 
2938 2939 2948 2947 2677 2678 2687 2686 
2939 2940 2949 2948 2678 2679 2688 2687 
2940 2941 2950 2949 2679 2680 2689 2688 
2941 2942 2951 2950 2680 2681 2690 2689 
2942 2943 2952 2951 2681 2682 2691 2690 
2943 2944 2953 2952 2682 2683 2692 2691 
2944 1172 1173 2953 2683 1143 1144 2692 
912 2945 2954 913 883 2684 2693 884 
2945 2946 2955 2954 2684 2685 2694 2693 
2946 2947 2956 2955 2685 2686 2695 2694 
2947 2948 2957 2956 2686 2687 2696 2695 
2948 2949 2958 2957 2687 2688 2697 2696 
2949 2950 2959 2958 2688 2689 2698 2697 
2950 2951 2960 2959 2689 2690 2699 2698 
2951 2952 2961 2960 2690 2691 2700 2699 
2952 2953 2962 2961 2691 2692 2701 2700 
2953 1173 1174 2962 2692 1144 1145 2701 
913 2954 2963 914 884 2693 2702 885 
2954 2955 2964 2963 2693 2694 2703 2702 
2955 2956 2965 2964 2694 2695 2704 2703 
2956 2957 2966 2965 2695 2696 2705 2704 
2957 2958 2967 2966 2696 2697 2706 2705 
2958 2959 2968 2967 2697 2698 2707 2706 
2959 2960 2969 2968 2698 2699 2708 2707 
2960 2961 2970 2969 2699 2700 2709 2708 
2961 2962 2971 2970 2700 2701 2710 2709 
2962 1174 1175 2971 2701 1145 1146 2710 
914 2963 2972 915 885 2702 2711 886 
2963 2964 2973 2972 2702 2703 2712 2711 
2964 2965 2974 2973 2703 2704 2713 2712 
2965 2966 2975 2974 2704 2705 2714 2713 
2966 2967 2976 2975 2705 2706 2715 2714 
2967 2968 2977 2976 2706 2707 2716 2715 
2968 2969 2978 2977 2707 2708 2717 2716 
2969 2970 2979 2978 2708 2709 2718 2717 
2970 2971 2980 2979 2709 2710 2719 2718 
2971 1175 1176 2980 2710 1146 1147 2719 
915 2972 2981 916 886 2711 2720 887 
2972 2973 2982 2981 2711 2712 2721 2720 
2973 2974 2983 2982 2712 2713 2722 2721 
2974 2975 2984 2983 2713 2714 2723 2722 
2975 2976 2985 2984 2714 2715 2724 2723 
2976 2977 2986 2985 2715 2716 2725 2724 
2977 2978 2987 2986 2716 2717 2726 2725 
2978 2979 2988 2987 2717 2718 2727 2726 
2979 2980 2989 2988 2718 2719 2728 2727 
2980 1176 1177 2989 2719 1147 1148 2728 
916 2981 2990 917 887 2720 2729 888 
2981 2982 2991 2990 2720 2721 2730 2729 
2982 2983 2992 2991 2721 2722 2731 2730 
2983 2984 2993 2992 2722 2723 2732 2731 
2984 2985 2994 2993 2723 2724 2733 2732 
2985 2986 2995 2994 2724 2725 2734 2733 
2986 2987 2996 2995 2725 2726 2735 2734 
2987 2988 2997 2996 2726 2727 2736 2735 
2988 2989 2998 2997 2727 2728 2737 2736 
2989 1177 1178 2998 2728 1148 1149 2737 
917 2990 2999 918 888 2729 2738 889 
2990 2991 3000 2999 2729 2730 2739 2738 
2991 2992 3001 3000 2730 2731 2740 2739 
2992 2993 3002 3001 2731 2732 2741 2740 
2993 2994 3003 3002 2732 2733 2742 2741 
2994 2995 3004 3003 2733 2734 2743 2742 
2995 2996 3005 3004 2734 2735 2744 2743 
2996 2997 3006 3005 2735 2736 2745 2744 
2997 2998 3007 3006 2736 2737 2746 2745 
2998 1178 1179 3007 2737 1149 1150 2746 
918 2999 3008 919 889 2738 2747 890 
2999 3000 3009 3008 2738 2739 2748 2747 
3000 3001 3010 3009 2739 2740 2749 2748 
3001 3002 3011 3010 2740 2741 2750 2749 
3002 3003 3012 3011 2741 2742 2751 2750 
3003 3004 3013 3012 2742 2743 2752 2751 
3004 3005 3014 3013 2743 2744 2753 2752 
3005 3006 3015 3014 2744 2745 2754 2753 
3006 3007 3016 3015 2745 2746 2755 2754 
3007 1179 1180 3016 2746 1150 1151 2755 
919 3008 3017 920 890 2747 2756 891 
3008 3009 3018 3017 2747 2748 2757 2756 
3009 3010 3019 3018 2748 2749 2758 2757 
3010 3011 3020 3019 2749 2750 2759 2758 
3011 3012 3021 3020 2750 2751 2760 2759 
3012 3013 3022 3021 2751 2752 2761 2760 
3013 3014 3023 3022 2752 2753 2762 2761 
3014 3015 3024 3023 2753 2754 2763 2762 
3015 3016 3025 3024 2754 2755 2764 2763 
3016 1180 1181 3025 2755 1151 1152 2764 
920 3017 3026 921 891 2756 2765 892 
3017 3018 3027 3026 2756 2757 2766 2765 
3018 3019 3028 3027 2757 2758 2767 2766 
3019 3020 3029 3028 2758 2759 2768 2767 
3020 3021 3030 3029 2759 2760 2769 2768 
3021 3022 3031 3030 2760 2761 2770 2769 
3022 3023 3032 3031 2761 2762 2771 2770 
3023 3024 3033 3032 2762 2763 2772 2771 
3024 3025 3034 3033 2763 2764 2773 2772 
3025 1181 1182 3034 2764 1152 1153 2773 
921 3026 3035 922 892 2765 2774 893 
3026 3027 3036 3035 2765 2766 2775 2774 
3027 3028 3037 3036 2766 2767 2776 2775 
3028 3029 3038 3037 2767 2768 2777 2776 
3029 3030 3039 3038 2768 2769 2778 2777 
3030 3031 3040 3039 2769 2770 2779 2778 
3031 3032 3041 3040 2770 2771 2780 2779 
3032 3033 3042 3041 2771 2772 2781 2780 
3033 3034 3043 3042 2772 2773 2782 2781 
3034 1182 1183 3043 2773 1153 1154 2782 
922 3035 3044 923 893 2774 2783 894 
3035 3036 3045 3044 2774 2775 2784 2783 
3036 3037 3046 3045 2775 2776 2785 2784 
3037 3038 3047 3046 2776 2777 2786 2785 
3038 3039 3048 3047 2777 2778 2787 2786 
3039 3040 3049 3048 2778 2779 2788 2787 
3040 3041 3050 3049 2779 2780 2789 2788 
3041 3042 3051 3050 2780 2781 2790 2789 
3042 3043 3052 3051 2781 2782 2791 2790 
3043 1183 1184 3052 2782 1154 1155 2791 
923 3044 3053 924 894 2783 2792 895 
3044 3045 3054 3053 2783 2784 2793 2792 
3045 3046 3055 3054 2784 2785 2794 2793 
3046 3047 3056 3055 2785 2786 2795 2794 
3047 3048 3057 3056 2786 2787 2796 2795 
3048 3049 3058 3057 2787 2788 2797 2796 
3049 3050 3059 3058 2788 2789 2798 2797 
3050 3051 3060 3059 2789 2790 2799 2798 
3051 3052 3061 3060 2790 2791 2800 2799 
3052 1184 1185 3061 2791 1155 1156 2800 
924 3053 3062 925 895 2792 2801 896 
3053 3054 3063 3062 2792 2793 2802 2801 
3054 3055 3064 3063 2793 2794 2803 2802 
3055 3056 3065 3064 2794 2795 2804 2803 
3056 3057 3066 3065 2795 2796 2805 2804 
3057 3058 3067 3066 2796 2797 2806 2805 
3058 3059 3068 3067 2797 2798 2807 2806 
3059 3060 3069 3068 2798 2799 2808 2807 
3060 3061 3070 3069 2799 2800 2809 2808 
3061 1185 1186 3070 2800 1156 1157 2809 
925 3062 3071 926 896 2801 2810 897 
3062 3063 3072 3071 2801 2802 2811 2810 
3063 3064 3073 3072 2802 2803 2812 2811 
3064 3065 3074 3073 2803 2804 2813 2812 
3065 3066 3075 3074 2804 2805 2814 2813 
3066 3067 3076 3075 2805 2806 2815 2814 
3067 3068 3077 3076 2806 2807 2816 2815 
3068 3069 3078 3077 2807 2808 2817 2816 
3069 3070 3079 3078 2808 2809 2818 2817 
3070 1186 1187 3079 2809 1157 1158 2818 
926 3071 3080 927 897 2810 2819 898 
3071 3072 3081 3080 2810 2811 2820 2819 
3072 3073 3082 3081 2811 2812 2821 2820 
3073 3074 3083 3082 2812 2813 2822 2821 
3074 3075 3084 3083 2813 2814 2823 2822 
3075 3076 3085 3084 2814 2815 2824 2823 
3076 3077 3086 3085 2815 2816 2825 2824 
3077 3078 3087 3086 2816 2817 2826 2825 
3078 3079 3088 3087 2817 2818 2827 2826 
3079 1187 1188 3088 2818 1158 1159 2827 
927 3080 3089 928 898 2819 2828 899 
3080 3081 3090 3089 2819 2820 2829 2828 
3081 3082 3091 3090 2820 2821 2830 2829 
3082 3083 3092 3091 2821 2822 2831 2830 
3083 3084 3093 3092 2822 2823 2832 2831 
3084 3085 3094 3093 2823 2824 2833 2832 
3085 3086 3095 3094 2824 2825 2834 2833 
3086 3087 3096 3095 2825 2826 2835 2834 
3087 3088 3097 3096 2826 2827 2836 2835 
3088 1188 1189 3097 2827 1159 1160 2836 
928 3089 3098 929 899 2828 2837 900 
3089 3090 3099 3098 2828 2829 2838 2837 
3090 3091 3100 3099 2829 2830 2839 2838 
3091 3092 3101 3100 2830 2831 2840 2839 
3092 3093 3102 3101 2831 2832 2841 2840 
3093 3094 3103 3102 2832 2833 2842 2841 
3094 3095 3104 3103 2833 2834 2843 2842 
3095 3096 3105 3104 2834 2835 2844 2843 
3096 3097 3106 3105 2835 2836 2845 2844 
3097 1189 1190 3106 2836 1160 1161 2845 
929 3098 3107 930 900 2837 2846 901 
3098 3099 3108 3107 2837 2838 2847 2846 
3099 3100 3109 3108 2838 2839 2848 2847 
3100 3101 3110 3109 2839 2840 2849 2848 
3101 3102 3111 3110 2840 2841 2850 2849 
3102 3103 3112 3111 2841 2842 2851 2850 
3103 3104 3113 3112 2842 2843 2852 2851 
3104 3105 3114 3113 2843 2844 2853 2852 
3105 3106 3115 3114 2844 2845 2854 2853 
3106 1190 1191 3115 2845 1161 1162 2854 
930 3107 3116 931 901 2846 2855 902 
3107 3108 3117 3116 2846 2847 2856 2855 
3108 3109 3118 3117 2847 2848 2857 2856 
3109 3110 3119 3118 2848 2849 2858 2857 
3110 3111 3120 3119 2849 2850 2859 2858 
3111 3112 3121 3120 2850 2851 2860 2859 
3112 3113 3122 3121 2851 2852 2861 2860 
3113 3114 3123 3122 2852 2853 2862 2861 
3114 3115 3124 3123 2853 2854 2863 2862 
3115 1191 1192 3124 2854 1162 1163 2863 
931 3116 3125 932 902 2855 2864 903 
3116 3117 3126 3125 2855 2856 2865 2864 
3117 3118 3127 3126 2856 2857 2866 2865 
3118 3119 3128 3127 2857 2858 2867 2866 
3119 3120 3129 3128 2858 2859 2868 2867 
3120 3121 3130 3129 2859 2860 2869 2868 
3121 3122 3131 3130 2860 2861 2870 2869 
3122 3123 3132 3131 2861 2862 2871 2870 
3123 3124 3133 3132 2862 2863 2872 2871 
3124 1192 1193 3133 2863 1163 1164 2872 
932 3125 3134 933 903 2864 2873 904 
3125 3126 3135 3134 2864 2865 2874 2873 
3126 3127 3136 3135 2865 2866 2875 2874 
3127 3128 3137 3136 2866 2867 2876 2875 
3128 3129 3138 3137 2867 2868 2877 2876 
3129 3130 3139 3138 2868 2869 2878 2877 
3130 3131 3140 3139 2869 2870 2879 2878 
3131 3132 3141 3140 2870 2871 2880 2879 
3132 3133 3142 3141 2871 2872 2881 2880 
3133 1193 1194 3142 2872 1164 1165 2881 
933 3134 3143 934 904 2873 2882 905 
3134 3135 3144 3143 2873 2874 2883 2882 
3135 3136 3145 3144 2874 2875 2884 2883 
3136 3137 3146 3145 2875 2876 2885 2884 
3137 3138 3147 3146 2876 2877 2886 2885 
3138 3139 3148 3147 2877 2878 2887 2886 
3139 3140 3149 3148 2878 2879 2888 2887 
3140 3141 3150 3149 2879 2880 2889 2888 
3141 3142 3151 3150 2880 2881 2890 2889 
3142 1194 1195 3151 2881 1165 1166 2890 
934 3143 3152 935 905 2882 2891 906 
3143 3144 3153 3152 2882 2883 2892 2891 
3144 3145 3154 3153 2883 2884 2893 2892 
3145 3146 3155 3154 2884 2885 2894 2893 
3146 3147 3156 3155 2885 2886 2895 2894 
3147 3148 3157 3156 2886 2887 2896 2895 
3148 3149 3158 3157 2887 2888 2897 2896 
3149 3150 3159 3158 2888 2889 2898 2897 
3150 3151 3160 3159 2889 2890 2899 2898 
3151 1195 1196 3160 2890 1166 1167 2899 
935 3152 3161 936 906 2891 2900 907 
3152 3153 3162 3161 2891 2892 2901 2900 
3153 3154 3163 3162 2892 2893 2902 2901 
3154 3155 3164 3163 2893 2894 2903 2902 
3155 3156 3165 3164 2894 2895 2904 2903 
3156 3157 3166 3165 2895 2896 2905 2904 
3157 3158 3167 3166 2896 2897 2906 2905 
3158 3159 3168 3167 2897 2898 2907 2906 
3159 3160 3169 3168 2898 2899 2908 2907 
3160 1196 1197 3169 2899 1167 1168 2908 
936 3161 3170 937 907 2900 2909 908 
3161 3162 3171 3170 2900 2901 2910 2909 
3162 3163 3172 3171 2901 2902 2911 2910 
3163 3164 3173 3172 2902 2903 2912 2911 
3164 3165 3174 3173 2903 2904 2913 2912 
3165 3166 3175 3174 2904 2905 2914 2913 
3166 3167 3176 3175 2905 2906 2915 2914 
3167 3168 3177 3176 2906 2907 2916 2915 
3168 3169 3178 3177 2907 2908 2917 2916 
3169 1197 1198 3178 2908 1168 1169 2917 
937 3170 3179 938 908 2909 2918 909 
3170 3171 3180 3179 2909 2910 2919 2918 
3171 3172 3181 3180 2910 2911 2920 2919 
3172 3173 3182 3181 2911 2912 2921 2920 
3173 3174 3183 3182 2912 2913 2922 2921 
3174 3175 3184 3183 2913 2914 2923 2922 
3175 3176 3185 3184 2914 2915 2924 2923 
3176 3177 3186 3185 2915 2916 2925 2924 
3177 3178 3187 3186 2916 2917 2926 2925 
3178 1198 1199 3187 2917 1169 1170 2926 
938 3179 1433 168 909 2918 1424 167 
3179 3180 1434 1433 2918 2919 1425 1424 
3180 3181 1435 1434 2919 2920 1426 1425 
3181 3182 1436 1435 2920 2921 1427 1426 
3182 3183 1437 1436 2921 2922 1428 1427 
3183 3184 1438 1437 2922 2923 1429 1428 
3184 3185 1439 1438 2923 2924 1430 1429 
3185 3186 1440 1439 2924 2925 1431 1430 
3186 3187 1441 1440 2925 2926 1432 1431 
3187 1199 186 1441 2926 1170 187 1432 
176 1361 3188 939 177 1352 2927 910 
1361 1362 3189 3188 1352 1353 2928 2927 
1362 1363 3190 3189 1353 1354 2929 2928 
1363 1364 3191 3190 1354 1355 2930 2929 
1364 1365 3192 3191 1355 1356 2931 2930 
1365 1366 3193 3192 1356 1357 2932 2931 
1366 1367 3194 3193 1357 1358 2933 2932 
1367 1368 3195 3194 1358 1359 2934 2933 
1368 1369 3196 3195 1359 1360 2935 2934 
1369 196 1200 3196 1360 195 1171 2935 
939 3188 3197 940 910 2927 2936 911 
3188 3189 3198 3197 2927 2928 2937 2936 
3189 3190 3199 3198 2928 2929 2938 2937 
3190 3191 3200 3199 2929 2930 2939 2938 
3191 3192 3201 3200 2930 2931 2940 2939 
3192 3193 3202 3201 2931 2932 2941 2940 
3193 3194 3203 3202 2932 2933 2942 2941 
3194 3195 3204 3203 2933 2934 2943 2942 
3195 3196 3205 3204 2934 2935 2944 2943 
3196 1200 1201 3205 2935 1171 1172 2944 
940 3197 3206 941 911 2936 2945 912 
3197 3198 3207 3206 2936 2937 2946 2945 
3198 3199 3208 3207 2937 2938 2947 2946 
3199 3200 3209 3208 2938 2939 2948 2947 
3200 3201 3210 3209 2939 2940 2949 2948 
3201 3202 3211 3210 2940 2941 2950 2949 
3202 3203 3212 3211 2941 2942 2951 2950 
3203 3204 3213 3212 2942 2943 2952 2951 
3204 3205 3214 3213 2943 2944 2953 2952 
3205 1201 1202 3214 2944 1172 1173 2953 
941 3206 3215 942 912 2945 2954 913 
3206 3207 3216 3215 2945 2946 2955 2954 
3207 3208 3217 3216 2946 2947 2956 2955 
3208 3209 3218 3217 2947 2948 2957 2956 
3209 3210 3219 3218 2948 2949 2958 2957 
3210 3211 3220 3219 2949 2950 2959 2958 
3211 3212 3221 3220 2950 2951 2960 2959 
3212 3213 3222 3221 2951 2952 2961 2960 
3213 3214 3223 3222 2952 2953 2962 2961 
3214 1202 1203 3223 2953 1173 1174 2962 
942 3215 3224 943 913 2954 2963 914 
3215 3216 3225 3224 2954 2955 2964 2963 
3216 3217 3226 3225 2955 2956 2965 2964 
3217 3218 3227 3226 2956 2957 2966 2965 
3218 3219 3228 3227 2957 2958 2967 2966 
3219 3220 3229 3228 2958 2959 2968 2967 
3220 3221 3230 3229 2959 2960 2969 2968 
3221 3222 3231 3230 2960 2961 2970 2969 
3222 3223 3232 3231 2961 2962 2971 2970 
3223 1203 1204 3232 2962 1174 1175 2971 
943 3224 3233 944 914 2963 2972 915 
3224 3225 3234 3233 2963 2964 2973 2972 
3225 3226 3235 3234 2964 2965 2974 2973 
3226 3227 3236 3235 2965 2966 2975 2974 
3227 3228 3237 3236 2966 2967 2976 2975 
3228 3229 3238 3237 2967 2968 2977 2976 
3229 3230 3239 3238 2968 2969 2978 2977 
3230 3231 3240 3239 2969 2970 2979 2978 
3231 3232 3241 3240 2970 2971 2980 2979 
3232 1204 1205 3241 2971 1175 1176 2980 
944 3233 3242 945 915 2972 2981 916 
3233 3234 3243 3242 2972 2973 2982 2981 
3234 3235 3244 3243 2973 2974 2983 2982 
3235 3236 3245 3244 2974 2975 2984 2983 
3236 3237 3246 3245 2975 2976 2985 2984 
3237 3238 3247 3246 2976 2977 2986 2985 
3238 3239 3248 3247 2977 2978 2987 2986 
3239 3240 3249 3248 2978 2979 2988 2987 
3240 3241 3250 3249 2979 2980 2989 2988 
3241 1205 1206 3250 2980 1176 1177 2989 
945 3242 3251 946 916 2981 2990 917 
3242 3243 3252 3251 2981 2982 2991 2990 
3243 3244 3253 3252 2982 2983 2992 2991 
3244 3245 3254 3253 2983 2984 2993 2992 
3245 3246 3255 3254 2984 2985 2994 2993 
3246 3247 3256 3255 2985 2986 2995 2994 
3247 3248 3257 3256 2986 2987 2996 2995 
3248 3249 3258 3257 2987 2988 2997 2996 
3249 3250 3259 3258 2988 2989 2998 2997 
3250 1206 1207 3259 2989 1177 1178 2998 
946 3251 3260 947 917 2990 2999 918 
3251 3252 3261 3260 2990 2991 3000 2999 
3252 3253 3262 3261 2991 2992 3001 3000 
3253 3254 3263 3262 2992 2993 3002 3001 
3254 3255 3264 3263 2993 2994 3003 3002 
3255 3256 3265 3264 2994 2995 3004 3003 
3256 3257 3266 3265 2995 2996 3005 3004 
3257 3258 3267 3266 2996 2997 3006 3005 
3258 3259 3268 3267 2997 2998 3007 3006 
3259 1207 1208 3268 2998 1178 1179 3007 
947 3260 3269 948 918 2999 3008 919 
3260 3261 3270 3269 2999 3000 3009 3008 
3261 3262 3271 3270 3000 3001 3010 3009 
3262 3263 3272 3271 3001 3002 3011 3010 
3263 3264 3273 3272 3002 3003 3012 3011 
3264 3265 3274 3273 3003 3004 3013 3012 
3265 3266 3275 3274 3004 3005 3014 3013 
3266 3267 3276 3275 3005 3006 3015 3014 
3267 3268 3277 3276 3006 3007 3016 3015 
3268 1208 1209 3277 3007 1179 1180 3016 
948 3269 3278 949 919 3008 3017 920 
3269 3270 3279 3278 3008 3009 3018 3017 
3270 3271 3280 3279 3009 3010 3019 3018 
3271 3272 3281 3280 3010 3011 3020 3019 
3272 3273 3282 3281 3011 3012 3021 3020 
3273 3274 3283 3282 3012 3013 3022 3021 
3274 3275 3284 3283 3013 3014 3023 3022 
3275 3276 3285 3284 3014 3015 3024 3023 
3276 3277 3286 3285 3015 3016 3025 3024 
3277 1209 1210 3286 3016 1180 1181 3025 
949 3278 3287 950 920 3017 3026 921 
3278 3279 3288 3287 3017 3018 3027 3026 
3279 3280 3289 3288 3018 3019 3028 3027 
3280 3281 3290 3289 3019 3020 3029 3028 
3281 3282 3291 3290 3020 3021 3030 3029 
3282 3283 3292 3291 3021 3022 3031 3030 
3283 3284 3293 3292 3022 3023 3032 3031 
3284 3285 3294 3293 3023 3024 3033 3032 
3285 3286 3295 3294 3024 3025 3034 3033 
3286 1210 1211 3295 3025 1181 1182 3034 
950 3287 3296 951 921 3026 3035 922 
3287 3288 3297 3296 3026 3027 3036 3035 
3288 3289 3298 3297 3027 3028 3037 3036 
3289 3290 3299 3298 3028 3029 3038 3037 
3290 3291 3300 3299 3029 3030 3039 3038 
3291 3292 3301 3300 3030 3031 3040 3039 
3292 3293 3302 3301 3031 3032 3041 3040 
3293 3294 3303 3302 3032 3033 3042 3041 
3294 3295 3304 3303 3033 3034 3043 3042 
3295 1211 1212 3304 3034 1182 1183 3043 
951 3296 3305 952 922 3035 3044 923 
3296 3297 3306 3305 3035 3036 3045 3044 
3297 3298 3307 3306 3036 3037 3046 3045 
3298 3299 3308 3307 3037 3038 3047 3046 
3299 3300 3309 3308 3038 3039 3048 3047 
3300 3301 3310 3309 3039 3040 3049 3048 
3301 3302 3311 3310 3040 3041 3050 3049 
3302 3303 3312 3311 3041 3042 3051 3050 
3303 3304 3313 3312 3042 3043 3052 3051 
3304 1212 1213 3313 3043 1183 1184 3052 
952 3305 3314 953 923 3044 3053 924 
3305 3306 3315 3314 3044 3045 3054 3053 
3306 3307 3316 3315 3045 3046 3055 3054 
3307 3308 3317 3316 3046 3047 3056 3055 
3308 3309 3318 3317 3047 3048 3057 3056 
3309 3310 3319 3318 3048 3049 3058 3057 
3310 3311 3320 3319 3049 3050 3059 3058 
3311 3312 3321 3320 3050 3051 3060 3059 
3312 3313 3322 3321 3051 3052 3061 3060 
3313 1213 1214 3322 3052 1184 1185 3061 
953 3314 3323 954 924 3053 3062 925 
3314 3315 3324 3323 3053 3054 3063 3062 
3315 3316 3325 3324 3054 3055 3064 3063 
3316 3317 3326 3325 3055 3056 3065 3064 
3317 3318 3327 3326 3056 3057 3066 3065 
3318 3319 3328 3327 3057 3058 3067 3066 
3319 3320 3329 3328 3058 3059 3068 3067 
3320 3321 3330 3329 3059 3060 3069 3068 
3321 3322 3331 3330 3060 3061 3070 3069 
3322 1214 1215 3331 3061 1185 1186 3070 
954 3323 3332 955 925 3062 3071 926 
3323 3324 3333 3332 3062 3063 3072 3071 
3324 3325 3334 3333 3063 3064 3073 3072 
3325 3326 3335 3334 3064 3065 3074 3073 
3326 3327 3336 3335 3065 3066 3075 3074 
3327 3328 3337 3336 3066 3067 3076 3075 
3328 3329 3338 3337 3067 3068 3077 3076 
3329 3330 3339 3338 3068 3069 3078 3077 
3330 3331 3340 3339 3069 3070 3079 3078 
3331 1215 1216 3340 3070 1186 1187 3079 
955 3332 3341 956 926 3071 3080 927 
3332 3333 3342 3341 3071 3072 3081 3080 
3333 3334 3343 3342 3072 3073 3082 3081 
3334 3335 3344 3343 3073 3074 3083 3082 
3335 3336 3345 3344 3074 3075 3084 3083 
3336 3337 3346 3345 3075 3076 3085 3084 
3337 3338 3347 3346 3076 3077 3086 3085 
3338 3339 3348 3347 3077 3078 3087 3086 
3339 3340 3349 3348 3078 3079 3088 3087 
3340 1216 1217 3349 3079 1187 1188 3088 
956 3341 3350 957 927 3080 3089 928 
3341 3342 3351 3350 3080 3081 3090 3089 
3342 3343 3352 3351 3081 3082 3091 3090 
3343 3344 3353 3352 3082 3083 3092 3091 
3344 3345 3354 3353 3083 3084 3093 3092 
3345 3346 3355 3354 3084 3085 3094 3093 
3346 3347 3356 3355 3085 3086 3095 3094 
3347 3348 3357 3356 3086 3087 3096 3095 
3348 3349 3358 3357 3087 3088 3097 3096 
3349 1217 1218 3358 3088 1188 1189 3097 
957 3350 3359 958 928 3089 3098 929 
3350 3351 3360 3359 3089 3090 3099 3098 
3351 3352 3361 3360 3090 3091 3100 3099 
3352 3353 3362 3361 3091 3092 3101 3100 
3353 3354 3363 3362 3092 3093 3102 3101 
3354 3355 3364 3363 3093 3094 3103 3102 
3355 3356 3365 3364 3094 3095 3104 3103 
3356 3357 3366 3365 3095 3096 3105 3104 
3357 3358 3367 3366 3096 3097 3106 3105 
3358 1218 1219 3367 3097 1189 1190 3106 
958 3359 3368 959 929 3098 3107 930 
3359 3360 3369 3368 3098 3099 3108 3107 
3360 3361 3370 3369 3099 3100 3109 3108 
3361 3362 3371 3370 3100 3101 3110 3109 
3362 3363 3372 3371 3101 3102 3111 3110 
3363 3364 3373 3372 3102 3103 3112 3111 
3364 3365 3374 3373 3103 3104 3113 3112 
3365 3366 3375 3374 3104 3105 3114 3113 
3366 3367 3376 3375 3105 3106 3115 3114 
3367 1219 1220 3376 3106 1190 1191 3115 
959 3368 3377 960 930 3107 3116 931 
3368 3369 3378 3377 3107 3108 3117 3116 
3369 3370 3379 3378 3108 3109 3118 3117 
3370 3371 3380 3379 3109 3110 3119 3118 
3371 3372 3381 3380 3110 3111 3120 3119 
3372 3373 3382 3381 3111 3112 3121 3120 
3373 3374 3383 3382 3112 3113 3122 3121 
3374 3375 3384 3383 3113 3114 3123 3122 
3375 3376 3385 3384 3114 3115 3124 3123 
3376 1220 1221 3385 3115 1191 1192 3124 
960 3377 3386 961 931 3116 3125 932 
3377 3378 3387 3386 3116 3117 3126 3125 
3378 3379 3388 3387 3117 3118 3127 3126 
3379 3380 3389 3388 3118 3119 3128 3127 
3380 3381 3390 3389 3119 3120 3129 3128 
3381 3382 3391 3390 3120 3121 3130 3129 
3382 3383 3392 3391 3121 3122 3131 3130 
3383 3384 3393 3392 3122 3123 3132 3131 
3384 3385 3394 3393 3123 3124 3133 3132 
3385 1221 1222 3394 3124 1192 1193 3133 
961 3386 3395 962 932 3125 3134 933 
3386 3387 3396 3395 3125 3126 3135 3134 
3387 3388 3397 3396 3126 3127 3136 3135 
3388 3389 3398 3397 3127 3128 3137 3136 
3389 3390 3399 3398 3128 3129 3138 3137 
3390 3391 3400 3399 3129 3130 3139 3138 
3391 3392 3401 3400 3130 3131 3140 3139 
3392 3393 3402 3401 3131 3132 3141 3140 
3393 3394 3403 3402 3132 3133 3142 3141 
3394 1222 1223 3403 3133 1193 1194 3142 
962 3395 3404 963 933 3134 3143 934 
3395 3396 3405 3404 3134 3135 3144 3143 
3396 3397 3406 3405 3135 3136 3145 3144 
3397 3398 3407 3406 3136 3137 3146 3145 
3398 3399 3408 3407 3137 3138 3147 3146 
3399 3400 3409 3408 3138 3139 3148 3147 
3400 3401 3410 3409 3139 3140 3149 3148 
3401 3402 3411 3410 3140 3141 3150 3149 
3402 3403 3412 3411 3141 3142 3151 3150 
3403 1223 1224 3412 3142 1194 1195 3151 
963 3404 3413 964 934 3143 3152 935 
3404 3405 3414 3413 3143 3144 3153 3152 
3405 3406 3415 3414 3144 3145 3154 3153 
3406 3407 3416 3415 3145 3146 3155 3154 
3407 3408 3417 3416 3146 3147 3156 3155 
3408 3409 3418 3417 3147 3148 3157 3156 
3409 3410 3419 3418 3148 3149 3158 3157 
3410 3411 3420 3419 3149 3150 3159 3158 
3411 3412 3421 3420 3150 3151 3160 3159 
3412 1224 1225 3421 3151 1195 1196 3160 
964 3413 3422 965 935 3152 3161 936 
3413 3414 3423 3422 3152 3153 3162 3161 
3414 3415 3424 3423 3153 3154 3163 3162 
3415 3416 3425 3424 3154 3155 3164 3163 
3416 3417 3426 3425 3155 3156 3165 3164 
3417 3418 3427 3426 3156 3157 3166 3165 
3418 3419 3428 3427 3157 3158 3167 3166 
3419 3420 3429 3428 3158 3159 3168 3167 
3420 3421 3430 3429 3159 3160 3169 3168 
3421 1225 1226 3430 3160 1196 1197 3169 
965 3422 3431 966 936 3161 3170 937 
3422 3423 3432 3431 3161 3162 3171 3170 
3423 3424 3433 3432 3162 3163 3172 3171 
3424 3425 3434 3433 3163 3164 3173 3172 
3425 3426 3435 3434 3164 3165 3174 3173 
3426 3427 3436 3435 3165 3166 3175 3174 
3427 3428 3437 3436 3166 3167 3176 3175 
3428 3429 3438 3437 3167 3168 3177 3176 
3429 3430 3439 3438 3168 3169 3178 3177 
3430 1226 1227 3439 3169 1197 1198 3178 
966 3431 3440 967 937 3170 3179 938 
3431 3432 3441 3440 3170 3171 3180 3179 
3432 3433 3442 3441 3171 3172 3181 3180 
3433 3434 3443 3442 3172 3173 3182 3181 
3434 3435 3444 3443 3173 3174 3183 3182 
3435 3436 3445 3444 3174 3175 3184 3183 
3436 3437 3446 3445 3175 3176 3185 3184 
3437 3438 3447 3446 3176 3177 3186 3185 
3438 3439 3448 3447 3177 3178 3187 3186 
3439 1227 1228 3448 3178 1198 1199 3187 
967 3440 1442 169 938 3179 1433 168 
3440 3441 1443 1442 3179 3180 1434 1433 
3441 3442 1444 1443 3180 3181 1435 1434 
3442 3443 1445 1444 3181 3182 1436 1435 
3443 3444 1446 1445 3182 3183 1437 1436 
3444 3445 1447 1446 3183 3184 1438 1437 
3445 3446 1448 1447 3184 3185 1439 1438 
3446 3447 1449 1448 3185 3186 1440 1439 
3447 3448 1450 1449 3186 3187 1441 1440 
3448 1228 185 1450 3187 1199 186 1441 
175 1370 3449 968 176 1361 3188 939 
1370 1371 3450 3449 1361 1362 3189 3188 
1371 1372 3451 3450 1362 1363 3190 3189 
1372 1373 3452 3451 1363 1364 3191 3190 
1373 1374 3453 3452 1364 1365 3192 3191 
1374 1375 3454 3453 1365 1366 3193 3192 
1375 1376 3455 3454 1366 1367 3194 3193 
1376 1377 3456 3455 1367 1368 3195 3194 
1377 1378 3457 3456 1368 1369 3196 3195 
1378 197 1229 3457 1369 196 1200 3196 
968 3449 3458 969 939 3188 3197 940 
3449 3450 3459 3458 3188 3189 3198 3197 
3450 3451 3460 3459 3189 3190 3199 3198 
3451 3452 3461 3460 3190 3191 3200 3199 
3452 3453 3462 3461 3191 3192 3201 3200 
3453 3454 3463 3462 3192 3193 3202 3201 
3454 3455 3464 3463 3193 3194 3203 3202 
3455 3456 3465 3464 3194 3195 3204 3203 
3456 3457 3466 3465 3195 3196 3205 3204 
3457 1229 1230 3466 3196 1200 1201 3205 
969 3458 3467 970 940 3197 3206 941 
3458 3459 3468 3467 3197 3198 3207 3206 
3459 3460 3469 3468 3198 3199 3208 3207 
3460 3461 3470 3469 3199 3200 3209 3208 
3461 3462 3471 3470 3200 3201 3210 3209 
3462 3463 3472 3471 3201 3202 3211 3210 
3463 3464 3473 3472 3202 3203 3212 3211 
3464 3465 3474 3473 3203 3204 3213 3212 
3465 3466 3475 3474 3204 3205 3214 3213 
3466 1230 1231 3475 3205 1201 1202 3214 
970 3467 3476 971 941 3206 3215 942 
3467 3468 3477 3476 3206 3207 3216 3215 
3468 3469 3478 3477 3207 3208 3217 3216 
3469 3470 3479 3478 3208 3209 3218 3217 
3470 3471 3480 3479 3209 3210 3219 3218 
3471 3472 3481 3480 3210 3211 3220 3219 
3472 3473 3482 3481 3211 3212 3221 3220 
3473 3474 3483 3482 3212 3213 3222 3221 
3474 3475 3484 3483 3213 3214 3223 3222 
3475 1231 1232 3484 3214 1202 1203 3223 
971 3476 3485 972 942 3215 3224 943 
3476 3477 3486 3485 3215 3216 3225 3224 
3477 3478 3487 3486 3216 3217 3226 3225 
3478 3479 3488 3487 3217 3218 3227 3226 
3479 3480 3489 3488 3218 3219 3228 3227 
3480 3481 3490 3489 3219 3220 3229 3228 
3481 3482 3491 3490 3220 3221 3230 3229 
3482 3483 3492 3491 3221 3222 3231 3230 
3483 3484 3493 3492 3222 3223 3232 3231 
3484 1232 1233 3493 3223 1203 1204 3232 
972 3485 3494 973 943 3224 3233 944 
3485 3486 3495 3494 3224 3225 3234 3233 
3486 3487 3496 3495 3225 3226 3235 3234 
3487 3488 3497 3496 3226 3227 3236 3235 
3488 3489 3498 3497 3227 3228 3237 3236 
3489 3490 3499 3498 3228 3229 3238 3237 
3490 3491 3500 3499 3229 3230 3239 3238 
3491 3492 3501 3500 3230 3231 3240 3239 
3492 3493 3502 3501 3231 3232 3241 3240 
3493 1233 1234 3502 3232 1204 1205 3241 
973 3494 3503 974 944 3233 3242 945 
3494 3495 3504 3503 3233 3234 3243 3242 
3495 3496 3505 3504 3234 3235 3244 3243 
3496 3497 3506 3505 3235 3236 3245 3244 
3497 3498 3507 3506 3236 3237 3246 3245 
3498 3499 3508 3507 3237 3238 3247 3246 
3499 3500 3509 3508 3238 3239 3248 3247 
3500 3501 3510 3509 3239 3240 3249 3248 
3501 3502 3511 3510 3240 3241 3250 3249 
3502 1234 1235 3511 3241 1205 1206 3250 
974 3503 3512 975 945 3242 3251 946 
3503 3504 3513 3512 3242 3243 3252 3251 
3504 3505 3514 3513 3243 3244 3253 3252 
3505 3506 3515 3514 3244 3245 3254 3253 
3506 3507 3516 3515 3245 3246 3255 3254 
3507 3508 3517 3516 3246 3247 3256 3255 
3508 3509 3518 3517 3247 3248 3257 3256 
3509 3510 3519 3518 3248 3249 3258 3257 
3510 3511 3520 3519 3249 3250 3259 3258 
3511 1235 1236 3520 3250 1206 1207 3259 
975 3512 3521 976 946 3251 3260 947 
3512 3513 3522 3521 3251 3252 3261 3260 
3513 3514 3523 3522 3252 3253 3262 3261 
3514 3515 3524 3523 3253 3254 3263 3262 
3515 3516 3525 3524 3254 3255 3264 3263 
3516 3517 3526 3525 3255 3256 3265 3264 
3517 3518 3527 3526 3256 3257 3266 3265 
3518 3519 3528 3527 3257 3258 3267 3266 
3519 3520 3529 3528 3258 3259 3268 3267 
3520 1236 1237 3529 3259 1207 1208 3268 
976 3521 3530 977 947 3260 3269 948 
3521 3522 3531 3530 3260 3261 3270 3269 
3522 3523 3532 3531 3261 3262 3271 3270 
3523 3524 3533 3532 3262 3263 3272 3271 
3524 3525 3534 3533 3263 3264 3273 3272 
3525 3526 3535 3534 3264 3265 3274 3273 
3526 3527 3536 3535 3265 3266 3275 3274 
3527 3528 3537 3536 3266 3267 3276 3275 
3528 3529 3538 3537 3267 3268 3277 3276 
3529 1237 1238 3538 3268 1208 1209 3277 
977 3530 3539 978 948 3269 3278 949 
3530 3531 3540 3539 3269 3270 3279 3278 
3531 3532 3541 3540 3270 3271 3280 3279 
3532 3533 3542 3541 3271 3272 3281 3280 
3533 3534 3543 3542 3272 3273 3282 3281 
3534 3535 3544 3543 3273 3274 3283 3282 
3535 3536 3545 3544 3274 3275 3284 3283 
3536 3537 3546 3545 3275 3276 3285 3284 
3537 3538 3547 3546 3276 3277 3286 3285 
3538 1238 1239 3547 3277 1209 1210 3286 
978 3539 3548 979 949 3278 3287 950 
3539 3540 3549 3548 3278 3279 3288 3287 
3540 3541 3550 3549 3279 3280 3289 3288 
3541 3542 3551 3550 3280 3281 3290 3289 
3542 3543 3552 3551 3281 3282 3291 3290 
3543 3544 3553 3552 3282 3283 3292 3291 
3544 3545 3554 3553 3283 3284 3293 3292 
3545 3546 3555 3554 3284 3285 3294 3293 
3546 3547 3556 3555 3285 3286 3295 3294 
3547 1239 1240 3556 3286 1210 1211 3295 
979 3548 3557 980 950 3287 3296 951 
3548 3549 3558 3557 3287 3288 3297 3296 
3549 3550 3559 3558 3288 3289 3298 3297 
3550 3551 3560 3559 3289 3290 3299 3298 
3551 3552 3561 3560 3290 3291 3300 3299 
3552 3553 3562 3561 3291 3292 3301 3300 
3553 3554 3563 3562 3292 3293 3302 3301 
3554 3555 3564 3563 3293 3294 3303 3302 
3555 3556 3565 3564 3294 3295 3304 3303 
3556 1240 1241 3565 3295 1211 1212 3304 
980 3557 3566 981 951 3296 3305 952 
3557 3558 3567 3566 3296 3297 3306 3305 
3558 3559 3568 3567 3297 3298 3307 3306 
3559 3560 3569 3568 3298 3299 3308 3307 
3560 3561 3570 3569 3299 3300 3309 3308 
3561 3562 3571 3570 3300 3301 3310 3309 
3562 3563 3572 3571 3301 3302 3311 3310 
3563 3564 3573 3572 3302 3303 3312 3311 
3564 3565 3574 3573 3303 3304 3313 3312 
3565 1241 1242 3574 3304 1212 1213 3313 
981 3566 3575 982 952 3305 3314 953 
3566 3567 3576 3575 3305 3306 3315 3314 
3567 3568 3577 3576 3306 3307 3316 3315 
3568 3569 3578 3577 3307 3308 3317 3316 
3569 3570 3579 3578 3308 3309 3318 3317 
3570 3571 3580 3579 3309 3310 3319 3318 
3571 3572 3581 3580 3310 3311 3320 3319 
3572 3573 3582 3581 3311 3312 3321 3320 
3573 3574 3583 3582 3312 3313 3322 3321 
3574 1242 1243 3583 3313 1213 1214 3322 
982 3575 3584 983 953 3314 3323 954 
3575 3576 3585 3584 3314 3315 3324 3323 
3576 3577 3586 3585 3315 3316 3325 3324 
3577 3578 3587 3586 3316 3317 3326 3325 
3578 3579 3588 3587 3317 3318 3327 3326 
3579 3580 3589 3588 3318 3319 3328 3327 
3580 3581 3590 3589 3319 3320 3329 3328 
3581 3582 3591 3590 3320 3321 3330 3329 
3582 3583 3592 3591 3321 3322 3331 3330 
3583 1243 1244 3592 3322 1214 1215 3331 
983 3584 3593 984 954 3323 3332 955 
3584 3585 3594 3593 3323 3324 3333 3332 
3585 3586 3595 3594 3324 3325 3334 3333 
3586 3587 3596 3595 3325 3326 3335 3334 
3587 3588 3597 3596 3326 3327 3336 3335 
3588 3589 3598 3597 3327 3328 3337 3336 
3589 3590 3599 3598 3328 3329 3338 3337 
3590 3591 3600 3599 3329 3330 3339 3338 
3591 3592 3601 3600 3330 3331 3340 3339 
3592 1244 1245 3601 3331 1215 1216 3340 
984 3593 3602 985 955 3332 3341 956 
3593 3594 3603 3602 3332 3333 3342 3341 
3594 3595 3604 3603 3333 3334 3343 3342 
3595 3596 3605 3604 3334 3335 3344 3343 
3596 3597 3606 3605 3335 3336 3345 3344 
3597 3598 3607 3606 3336 3337 3346 3345 
3598 3599 3608 3607 3337 3338 3347 3346 
3599 3600 3609 3608 3338 3339 3348 3347 
3600 3601 3610 3609 3339 3340 3349 3348 
3601 1245 1246 3610 3340 1216 1217 3349 
985 3602 3611 986 956 3341 3350 957 
3602 3603 3612 3611 3341 3342 3351 3350 
3603 3604 3613 3612 3342 3343 3352 3351 
3604 3605 3614 3613 3343 3344 3353 3352 
3605 3606 3615 3614 3344 3345 3354 3353 
3606 3607 3616 3615 3345 3346 3355 3354 
3607 3608 3617 3616 3346 3347 3356 3355 
3608 3609 3618 3617 3347 3348 3357 3356 
3609 3610 3619 3618 3348 3349 3358 3357 
3610 1246 1247 3619 3349 1217 1218 3358 
986 3611 3620 987 957 3350 3359 958 
3611 3612 3621 3620 3350 3351 3360 3359 
3612 3613 3622 3621 3351 3352 3361 3360 
3613 3614 3623 3622 3352 3353 3362 3361 
3614 3615 3624 3623 3353 3354 3363 3362 
3615 3616 3625 3624 3354 3355 3364 3363 
3616 3617 3626 3625 3355 3356 3365 3364 
3617 3618 3627 3626 3356 3357 3366 3365 
3618 3619 3628 3627 3357 3358 3367 3366 
3619 1247 1248 3628 3358 1218 1219 3367 
987 3620 3629 988 958 3359 3368 959 
3620 3621 3630 3629 3359 3360 3369 3368 
3621 3622 3631 3630 3360 3361 3370 3369 
3622 3623 3632 3631 3361 3362 3371 3370 
3623 3624 3633 3632 3362 3363 3372 3371 
3624 3625 3634 3633 3363 3364 3373 3372 
3625 3626 3635 3634 3364 3365 3374 3373 
3626 3627 3636 3635 3365 3366 3375 3374 
3627 3628 3637 3636 3366 3367 3376 3375 
3628 1248 1249 3637 3367 1219 1220 3376 
988 3629 3638 989 959 3368 3377 960 
3629 3630 3639 3638 3368 3369 3378 3377 
3630 3631 3640 3639 3369 3370 3379 3378 
3631 3632 3641 3640 3370 3371 3380 3379 
3632 3633 3642 3641 3371 3372 3381 3380 
3633 3634 3643 3642 3372 3373 3382 3381 
3634 3635 3644 3643 3373 3374 3383 3382 
3635 3636 3645 3644 3374 3375 3384 3383 
3636 3637 3646 3645 3375 3376 3385 3384 
3637 1249 1250 3646 3376 1220 1221 3385 
989 3638 3647 990 960 3377 3386 961 
3638 3639 3648 3647 3377 3378 3387 3386 
3639 3640 3649 3648 3378 3379 3388 3387 
3640 3641 3650 3649 3379 3380 3389 3388 
3641 3642 3651 3650 3380 3381 3390 3389 
3642 3643 3652 3651 3381 3382 3391 3390 
3643 3644 3653 3652 3382 3383 3392 3391 
3644 3645 3654 3653 3383 3384 3393 3392 
3645 3646 3655 3654 3384 3385 3394 3393 
3646 1250 1251 3655 3385 1221 1222 3394 
990 3647 3656 991 961 3386 3395 962 
3647 3648 3657 3656 3386 3387 3396 3395 
3648 3649 3658 3657 3387 3388 3397 3396 
3649 3650 3659 3658 3388 3389 3398 3397 
3650 3651 3660 3659 3389 3390 3399 3398 
3651 3652 3661 3660 3390 3391 3400 3399 
3652 3653 3662 3661 3391 3392 3401 3400 
3653 3654 3663 3662 3392 3393 3402 3401 
3654 3655 3664 3663 3393 3394 3403 3402 
3655 1251 1252 3664 3394 1222 1223 3403 
991 3656 3665 992 962 3395 3404 963 
3656 3657 3666 3665 3395 3396 3405 3404 
3657 3658 3667 3666 3396 3397 3406 3405 
3658 3659 3668 3667 3397 3398 3407 3406 
3659 3660 3669 3668 3398 3399 3408 3407 
3660 3661 3670 3669 3399 3400 3409 3408 
3661 3662 3671 3670 3400 3401 3410 3409 
3662 3663 3672 3671 3401 3402 3411 3410 
3663 3664 3673 3672 3402 3403 3412 3411 
3664 1252 1253 3673 3403 1223 1224 3412 
992 3665 3674 993 963 3404 3413 964 
3665 3666 3675 3674 3404 3405 3414 3413 
3666 3667 3676 3675 3405 3406 3415 3414 
3667 3668 3677 3676 3406 3407 3416 3415 
3668 3669 3678 3677 3407 3408 3417 3416 
3669 3670 3679 3678 3408 3409 3418 3417 
3670 3671 3680 3679 3409 3410 3419 3418 
3671 3672 3681 3680 3410 3411 3420 3419 
3672 3673 3682 3681 3411 3412 3421 3420 
3673 1253 1254 3682 3412 1224 1225 3421 
993 3674 3683 994 964 3413 3422 965 
3674 3675 3684 3683 3413 3414 3423 3422 
3675 3676 3685 3684 3414 3415 3424 3423 
3676 3677 3686 3685 3415 3416 3425 3424 
3677 3678 3687 3686 3416 3417 3426 3425 
3678 3679 3688 3687 3417 3418 3427 3426 
3679 3680 3689 3688 3418 3419 3428 3427 
3680 3681 3690 3689 3419 3420 3429 3428 
3681 3682 3691 3690 3420 3421 3430 3429 
3682 1254 1255 3691 3421 1225 1226 3430 
994 3683 3692 995 965 3422 3431 966 
3683 3684 3693 3692 3422 3423 3432 3431 
3684 3685 3694 3693 3423 3424 3433 3432 
3685 3686 3695 3694 3424 3425 3434 3433 
3686 3687 3696 3695 3425 3426 3435 3434 
3687 3688 3697 3696 3426 3427 3436 3435 
3688 3689 3698 3697 3427 3428 3437 3436 
3689 3690 3699 3698 3428 3429 3438 3437 
3690 3691 3700 3699 3429 3430 3439 3438 
3691 1255 1256 3700 3430 1226 1227 3439 
995 3692 3701 996 966 3431 3440 967 
3692 3693 3702 3701 3431 3432 3441 3440 
3693 3694 3703 3702 3432 3433 3442 3441 
3694 3695 3704 3703 3433 3434 3443 3442 
3695 3696 3705 3704 3434 3435 3444 3443 
3696 3697 3706 3705 3435 3436 3445 3444 
3697 3698 3707 3706 3436 3437 3446 3445 
3698 3699 3708 3707 3437 3438 3447 3446 
3699 3700 3709 3708 3438 3439 3448 3447 
3700 1256 1257 3709 3439 1227 1228 3448 
996 3701 1451 170 967 3440 1442 169 
3701 3702 1452 1451 3440 3441 1443 1442 
3702 3703 1453 1452 3441 3442 1444 1443 
3703 3704 1454 1453 3442 3443 1445 1444 
3704 3705 1455 1454 3443 3444 1446 1445 
3705 3706 1456 1455 3444 3445 1447 1446 
3706 3707 1457 1456 3445 3446 1448 1447 
3707 3708 1458 1457 3446 3447 1449 1448 
3708 3709 1459 1458 3447 3448 1450 1449 
3709 1257 184 1459 3448 1228 185 1450 
174 1379 3710 997 175 1370 3449 968 
1379 1380 3711 3710 1370 1371 3450 3449 
1380 1381 3712 3711 1371 1372 3451 3450 
1381 1382 3713 3712 1372 1373 3452 3451 
1382 1383 3714 3713 1373 1374 3453 3452 
1383 1384 3715 3714 1374 1375 3454 3453 
1384 1385 3716 3715 1375 1376 3455 3454 
1385 1386 3717 3716 1376 1377 3456 3455 
1386 1387 3718 3717 1377 1378 3457 3456 
1387 198 1258 3718 1378 197 1229 3457 
997 3710 3719 998 968 3449 3458 969 
3710 3711 3720 3719 3449 3450 3459 3458 
3711 3712 3721 3720 3450 3451 3460 3459 
3712 3713 3722 3721 3451 3452 3461 3460 
3713 3714 3723 3722 3452 3453 3462 3461 
3714 3715 3724 3723 3453 3454 3463 3462 
3715 3716 3725 3724 3454 3455 3464 3463 
3716 3717 3726 3725 3455 3456 3465 3464 
3717 3718 3727 3726 3456 3457 3466 3465 
3718 1258 1259 3727 3457 1229 1230 3466 
998 3719 3728 999 969 3458 3467 970 
3719 3720 3729 3728 3458 3459 3468 3467 
3720 3721 3730 3729 3459 3460 3469 3468 
3721 3722 3731 3730 3460 3461 3470 3469 
3722 3723 3732 3731 3461 3462 3471 3470 
3723 3724 3733 3732 3462 3463 3472 3471 
3724 3725 3734 3733 3463 3464 3473 3472 
3725 3726 3735 3734 3464 3465 3474 3473 
3726 3727 3736 3735 3465 3466 3475 3474 
3727 1259 1260 3736 3466 1230 1231 3475 
999 3728 3737 1000 970 3467 3476 971 
3728 3729 3738 3737 3467 3468 3477 3476 
3729 3730 3739 3738 3468 3469 3478 3477 
3730 3731 3740 3739 3469 3470 3479 3478 
3731 3732 3741 3740 3470 3471 3480 3479 
3732 3733 3742 3741 3471 3472 3481 3480 
3733 3734 3743 3742 3472 3473 3482 3481 
3734 3735 3744 3743 3473 3474 3483 3482 
3735 3736 3745 3744 3474 3475 3484 3483 
3736 1260 1261 3745 3475 1231 1232 3484 
1000 3737 3746 1001 971 3476 3485 972 
3737 3738 3747 3746 3476 3477 3486 3485 
3738 3739 3748 3747 3477 3478 3487 3486 
3739 3740 3749 3748 3478 3479 3488 3487 
3740 3741 3750 3749 3479 3480 3489 3488 
3741 3742 3751 3750 3480 3481 3490 3489 
3742 3743 3752 3751 3481 3482 3491 3490 
3743 3744 3753 3752 3482 3483 3492 3491 
3744 3745 3754 3753 3483 3484 3493 3492 
3745 1261 1262 3754 3484 1232 1233 3493 
1001 3746 3755 1002 972 3485 3494 973 
3746 3747 3756 3755 3485 3486 3495 3494 
3747 3748 3757 3756 3486 3487 3496 3495 
3748 3749 3758 3757 3487 3488 3497 3496 
3749 3750 3759 3758 3488 3489 3498 3497 
3750 3751 3760 3759 3489 3490 3499 3498 
3751 3752 3761 3760 3490 3491 3500 3499 
3752 3753 3762 3761 3491 3492 3501 3500 
3753 3754 3763 3762 3492 3493 3502 3501 
3754 1262 1263 3763 3493 1233 1234 3502 
1002 3755 3764 1003 973 3494 3503 974 
3755 3756 3765 3764 3494 3495 3504 3503 
3756 3757 3766 3765 3495 3496 3505 3504 
3757 3758 3767 3766 3496 3497 3506 3505 
3758 3759 3768 3767 3497 3498 3507 3506 
3759 3760 3769 3768 3498 3499 3508 3507 
3760 3761 3770 3769 3499 3500 3509 3508 
3761 3762 3771 3770 3500 3501 3510 3509 
3762 3763 3772 3771 3501 3502 3511 3510 
3763 1263 1264 3772 3502 1234 1235 3511 
1003 3764 3773 1004 974 3503 3512 975 
3764 3765 3774 3773 3503 3504 3513 3512 
3765 3766 3775 3774 3504 3505 3514 3513 
3766 3767 3776 3775 3505 3506 3515 3514 
3767 3768 3777 3776 3506 3507 3516 3515 
3768 3769 3778 3777 3507 3508 3517 3516 
3769 3770 3779 3778 3508 3509 3518 3517 
3770 3771 3780 3779 3509 3510 3519 3518 
3771 3772 3781 3780 3510 3511 3520 3519 
3772 1264 1265 3781 3511 1235 1236 3520 
1004 3773 3782 1005 975 3512 3521 976 
3773 3774 3783 3782 3512 3513 3522 3521 
3774 3775 3784 3783 3513 3514 3523 3522 
3775 3776 3785 3784 3514 3515 3524 3523 
3776 3777 3786 3785 3515 3516 3525 3524 
3777 3778 3787 3786 3516 3517 3526 3525 
3778 3779 3788 3787 3517 3518 3527 3526 
3779 3780 3789 3788 3518 3519 3528 3527 
3780 3781 3790 3789 3519 3520 3529 3528 
3781 1265 1266 3790 3520 1236 1237 3529 
1005 3782 3791 1006 976 3521 3530 977 
3782 3783 3792 3791 3521 3522 3531 3530 
3783 3784 3793 3792 3522 3523 3532 3531 
3784 3785 3794 3793 3523 3524 3533 3532 
3785 3786 3795 3794 3524 3525 3534 3533 
3786 3787 3796 3795 3525 3526 3535 3534 
3787 3788 3797 3796 3526 3527 3536 3535 
3788 3789 3798 3797 3527 3528 3537 3536 
3789 3790 3799 3798 3528 3529 3538 3537 
3790 1266 1267 3799 3529 1237 1238 3538 
1006 3791 3800 1007 977 3530 3539 978 
3791 3792 3801 3800 3530 3531 3540 3539 
3792 3793 3802 3801 3531 3532 3541 3540 
3793 3794 3803 3802 3532 3533 3542 3541 
3794 3795 3804 3803 3533 3534 3543 3542 
3795 3796 3805 3804 3534 3535 3544 3543 
3796 3797 3806 3805 3535 3536 3545 3544 
3797 3798 3807 3806 3536 3537 3546 3545 
3798 3799 3808 3807 3537 3538 3547 3546 
3799 1267 1268 3808 3538 1238 1239 3547 
1007 3800 3809 1008 978 3539 3548 979 
3800 3801 3810 3809 3539 3540 3549 3548 
3801 3802 3811 3810 3540 3541 3550 3549 
3802 3803 3812 3811 3541 3542 3551 3550 
3803 3804 3813 3812 3542 3543 3552 3551 
3804 3805 3814 3813 3543 3544 3553 3552 
3805 3806 3815 3814 3544 3545 3554 3553 
3806 3807 3816 3815 3545 3546 3555 3554 
3807 3808 3817 3816 3546 3547 3556 3555 
3808 1268 1269 3817 3547 1239 1240 3556 
1008 3809 3818 1009 979 3548 3557 980 
3809 3810 3819 3818 3548 3549 3558 3557 
3810 3811 3820 3819 3549 3550 3559 3558 
3811 3812 3821 3820 3550 3551 3560 3559 
3812 3813 3822 3821 3551 3552 3561 3560 
3813 3814 3823 3822 3552 3553 3562 3561 
3814 3815 3824 3823 3553 3554 3563 3562 
3815 3816 3825 3824 3554 3555 3564 3563 
3816 3817 3826 3825 3555 3556 3565 3564 
3817 1269 1270 3826 3556 1240 1241 3565 
1009 3818 3827 1010 980 3557 3566 981 
3818 3819 3828 3827 3557 3558 3567 3566 
3819 3820 3829 3828 3558 3559 3568 3567 
3820 3821 3830 3829 3559 3560 3569 3568 
3821 3822 3831 3830 3560 3561 3570 3569 
3822 3823 3832 3831 3561 3562 3571 3570 
3823 3824 3833 3832 3562 3563 3572 3571 
3824 3825 3834 3833 3563 3564 3573 3572 
3825 3826 3835 3834 3564 3565 3574 3573 
3826 1270 1271 3835 3565 1241 1242 3574 
1010 3827 3836 1011 981 3566 3575 982 
3827 3828 3837 3836 3566 3567 3576 3575 
3828 3829 3838 3837 3567 3568 3577 3576 
3829 3830 3839 3838 3568 3569 3578 3577 
3830 3831 3840 3839 3569 3570 3579 3578 
3831 3832 3841 3840 3570 3571 3580 3579 
3832 3833 3842 3841 3571 3572 3581 3580 
3833 3834 3843 3842 3572 3573 3582 3581 
3834 3835 3844 3843 3573 3574 3583 3582 
3835 1271 1272 3844 3574 1242 1243 3583 
1011 3836 3845 1012 982 3575 3584 983 
3836 3837 3846 3845 3575 3576 3585 3584 
3837 3838 3847 3846 3576 3577 3586 3585 
3838 3839 3848 3847 3577 3578 3587 3586 
3839 3840 3849 3848 3578 3579 3588 3587 
3840 3841 3850 3849 3579 3580 3589 3588 
3841 3842 3851 3850 3580 3581 3590 3589 
3842 3843 3852 3851 3581 3582 3591 3590 
3843 3844 3853 3852 3582 3583 3592 3591 
3844 1272 1273 3853 3583 1243 1244 3592 
1012 3845 3854 1013 983 3584 3593 984 
3845 3846 3855 3854 3584 3585 3594 3593 
3846 3847 3856 3855 3585 3586 3595 3594 
3847 3848 3857 3856 3586 3587 3596 3595 
3848 3849 3858 3857 3587 3588 3597 3596 
3849 3850 3859 3858 3588 3589 3598 3597 
3850 3851 3860 3859 3589 3590 3599 3598 
3851 3852 3861 3860 3590 3591 3600 3599 
3852 3853 3862 3861 3591 3592 3601 3600 
3853 1273 1274 3862 3592 1244 1245 3601 
1013 3854 3863 1014 984 3593 3602 985 
3854 3855 3864 3863 3593 3594 3603 3602 
3855 3856 3865 3864 3594 3595 3604 3603 
3856 3857 3866 3865 3595 3596 3605 3604 
3857 3858 3867 3866 3596 3597 3606 3605 
3858 3859 3868 3867 3597 3598 3607 3606 
3859 3860 3869 3868 3598 3599 3608 3607 
3860 3861 3870 3869 3599 3600 3609 3608 
3861 3862 3871 3870 3600 3601 3610 3609 
3862 1274 1275 3871 3601 1245 1246 3610 
1014 3863 3872 1015 985 3602 3611 986 
3863 3864 3873 3872 3602 3603 3612 3611 
3864 3865 3874 3873 3603 3604 3613 3612 
3865 3866 3875 3874 3604 3605 3614 3613 
3866 3867 3876 3875 3605 3606 3615 3614 
3867 3868 3877 3876 3606 3607 3616 3615 
3868 3869 3878 3877 3607 3608 3617 3616 
3869 3870 3879 3878 3608 3609 3618 3617 
3870 3871 3880 3879 3609 3610 3619 3618 
3871 1275 1276 3880 3610 1246 1247 3619 
1015 3872 3881 1016 986 3611 3620 987 
3872 3873 3882 3881 3611 3612 3621 3620 
3873 3874 3883 3882 3612 3613 3622 3621 
3874 3875 3884 3883 3613 3614 3623 3622 
3875 3876 3885 3884 3614 3615 3624 3623 
3876 3877 3886 3885 3615 3616 3625 3624 
3877 3878 3887 3886 3616 3617 3626 3625 
3878 3879 3888 3887 3617 3618 3627 3626 
3879 3880 3889 3888 3618 3619 3628 3627 
3880 1276 1277 3889 3619 1247 1248 3628 
1016 3881 3890 1017 987 3620 3629 988 
3881 3882 3891 3890 3620 3621 3630 3629 
3882 3883 3892 3891 3621 3622 3631 3630 
3883 3884 3893 3892 3622 3623 3632 3631 
3884 3885 3894 3893 3623 3624 3633 3632 
3885 3886 3895 3894 3624 3625 3634 3633 
3886 3887 3896 3895 3625 3626 3635 3634 
3887 3888 3897 3896 3626 3627 3636 3635 
3888 3889 3898 3897 3627 3628 3637 3636 
3889 1277 1278 3898 3628 1248 1249 3637 
1017 3890 3899 1018 988 3629 3638 989 
3890 3891 3900 3899 3629 3630 3639 3638 
3891 3892 3901 3900 3630 3631 3640 3639 
3892 3893 3902 3901 3631 3632 3641 3640 
3893 3894 3903 3902 3632 3633 3642 3641 
3894 3895 3904 3903 3633 3634 3643 3642 
3895 3896 3905 3904 3634 3635 3644 3643 
3896 3897 3906 3905 3635 3636 3645 3644 
3897 3898 3907 3906 3636 3637 3646 3645 
3898 1278 1279 3907 3637 1249 1250 3646 
1018 3899 3908 1019 989 3638 3647 990 
3899 3900 3909 3908 3638 3639 3648 3647 
3900 3901 3910 3909 3639 3640 3649 3648 
3901 3902 3911 3910 3640 3641 3650 3649 
3902 3903 3912 3911 3641 3642 3651 3650 
3903 3904 3913 3912 3642 3643 3652 3651 
3904 3905 3914 3913 3643 3644 3653 3652 
3905 3906 3915 3914 3644 3645 3654 3653 
3906 3907 3916 3915 3645 3646 3655 3654 
3907 1279 1280 3916 3646 1250 1251 3655 
1019 3908 3917 1020 990 3647 3656 991 
3908 3909 3918 3917 3647 3648 3657 3656 
3909 3910 3919 3918 3648 3649 3658 3657 
3910 3911 3920 3919 3649 3650 3659 3658 
3911 3912 3921 3920 3650 3651 3660 3659 
3912 3913 3922 3921 3651 3652 3661 3660 
3913 3914 3923 3922 3652 3653 3662 3661 
3914 3915 3924 3923 3653 3654 3663 3662 
3915 3916 3925 3924 3654 3655 3664 3663 
3916 1280 1281 3925 3655 1251 1252 3664 
1020 3917 3926 1021 991 3656 3665 992 
3917 3918 3927 3926 3656 3657 3666 3665 
3918 3919 3928 3927 3657 3658 3667 3666 
3919 3920 3929 3928 3658 3659 3668 3667 
3920 3921 3930 3929 3659 3660 3669 3668 
3921 3922 3931 3930 3660 3661 3670 3669 
3922 3923 3932 3931 3661 3662 3671 3670 
3923 3924 3933 3932 3662 3663 3672 3671 
3924 3925 3934 3933 3663 3664 3673 3672 
3925 1281 1282 3934 3664 1252 1253 3673 
1021 3926 3935 1022 992 3665 3674 993 
3926 3927 3936 3935 3665 3666 3675 3674 
3927 3928 3937 3936 3666 3667 3676 3675 
3928 3929 3938 3937 3667 3668 3677 3676 
3929 3930 3939 3938 3668 3669 3678 3677 
3930 3931 3940 3939 3669 3670 3679 3678 
3931 3932 3941 3940 3670 3671 3680 3679 
3932 3933 3942 3941 3671 3672 3681 3680 
3933 3934 3943 3942 3672 3673 3682 3681 
3934 1282 1283 3943 3673 1253 1254 3682 
1022 3935 3944 1023 993 3674 3683 994 
3935 3936 3945 3944 3674 3675 3684 3683 
3936 3937 3946 3945 3675 3676 3685 3684 
3937 3938 3947 3946 3676 3677 3686 3685 
3938 3939 3948 3947 3677 3678 3687 3686 
3939 3940 3949 3948 3678 3679 3688 3687 
3940 3941 3950 3949 3679 3680 3689 3688 
3941 3942 3951 3950 3680 3681 3690 3689 
3942 3943 3952 3951 3681 3682 3691 3690 
3943 1283 1284 3952 3682 1254 1255 3691 
1023 3944 3953 1024 994 3683 3692 995 
3944 3945 3954 3953 3683 3684 3693 3692 
3945 3946 3955 3954 3684 3685 3694 3693 
3946 3947 3956 3955 3685 3686 3695 3694 
3947 3948 3957 3956 3686 3687 3696 3695 
3948 3949 3958 3957 3687 3688 3697 3696 
3949 3950 3959 3958 3688 3689 3698 3697 
3950 3951 3960 3959 3689 3690 3699 3698 
3951 3952 3961 3960 3690 3691 3700 3699 
3952 1284 1285 3961 3691 1255 1256 3700 
1024 3953 3962 1025 995 3692 3701 996 
3953 3954 3963 3962 3692 3693 3702 3701 
3954 3955 3964 3963 3693 3694 3703 3702 
3955 3956 3965 3964 3694 3695 3704 3703 
3956 3957 3966 3965 3695 3696 3705 3704 
3957 3958 3967 3966 3696 3697 3706 3705 
3958 3959 3968 3967 3697 3698 3707 3706 
3959 3960 3969 3968 3698 3699 3708 3707 
3960 3961 3970 3969 3699 3700 3709 3708 
3961 1285 1286 3970 3700 1256 1257 3709 
1025 3962 1460 171 996 3701 1451 170 
3962 3963 1461 1460 3701 3702 1452 1451 
3963 3964 1462 1461 3702 3703 1453 1452 
3964 3965 1463 1462 3703 3704 1454 1453 
3965 3966 1464 1463 3704 3705 1455 1454 
3966 3967 1465 1464 3705 3706 1456 1455 
3967 3968 1466 1465 3706 3707 1457 1456 
3968 3969 1467 1466 3707 3708 1458 1457 
3969 3970 1468 1467 3708 3709 1459 1458 
3970 1286 183 1468 3709 1257 184 1459 
173 1388 3971 1026 174 1379 3710 997 
1388 1389 3972 3971 1379 1380 3711 3710 
1389 1390 3973 3972 1380 1381 3712 3711 
1390 1391 3974 3973 1381 1382 3713 3712 
1391 1392 3975 3974 1382 1383 3714 3713 
1392 1393 3976 3975 1383 1384 3715 3714 
1393 1394 3977 3976 1384 1385 3716 3715 
1394 1395 3978 3977 1385 1386 3717 3716 
1395 1396 3979 3978 1386 1387 3718 3717 
1396 199 1287 3979 1387 198 1258 3718 
1026 3971 3980 1027 997 3710 3719 998 
3971 3972 3981 3980 3710 3711 3720 3719 
3972 3973 3982 3981 3711 3712 3721 3720 
3973 3974 3983 3982 3712 3713 3722 3721 
3974 3975 3984 3983 3713 3714 3723 3722 
3975 3976 3985 3984 3714 3715 3724 3723 
3976 3977 3986 3985 3715 3716 3725 3724 
3977 3978 3987 3986 3716 3717 3726 3725 
3978 3979 3988 3987 3717 3718 3727 3726 
3979 1287 1288 3988 3718 1258 1259 3727 
1027 3980 3989 1028 998 3719 3728 999 
3980 3981 3990 3989 3719 3720 3729 3728 
3981 3982 3991 3990 3720 3721 3730 3729 
3982 3983 3992 3991 3721 3722 3731 3730 
3983 3984 3993 3992 3722 3723 3732 3731 
3984 3985 3994 3993 3723 3724 3733 3732 
3985 3986 3995 3994 3724 3725 3734 3733 
3986 3987 3996 3995 3725 3726 3735 3734 
3987 3988 3997 3996 3726 3727 3736 3735 
3988 1288 1289 3997 3727 1259 1260 3736 
1028 3989 3998 1029 999 3728 3737 1000 
3989 3990 3999 3998 3728 3729 3738 3737 
3990 3991 4000 3999 3729 3730 3739 3738 
3991 3992 4001 4000 3730 3731 3740 3739 
3992 3993 4002 4001 3731 3732 3741 3740 
3993 3994 4003 4002 3732 3733 3742 3741 
3994 3995 4004 4003 3733 3734 3743 3742 
3995 3996 4005 4004 3734 3735 3744 3743 
3996 3997 4006 4005 3735 3736 3745 3744 
3997 1289 1290 4006 3736 1260 1261 3745 
1029 3998 4007 1030 1000 3737 3746 1001 
3998 3999 4008 4007 3737 3738 3747 3746 
3999 4000 4009 4008 3738 3739 3748 3747 
4000 4001 4010 4009 3739 3740 3749 3748 
4001 4002 4011 4010 3740 3741 3750 3749 
4002 4003 4012 4011 3741 3742 3751 3750 
4003 4004 4013 4012 3742 3743 3752 3751 
4004 4005 4014 4013 3743 3744 3753 3752 
4005 4006 4015 4014 3744 3745 3754 3753 
4006 1290 1291 4015 3745 1261 1262 3754 
1030 4007 4016 1031 1001 3746 3755 1002 
4007 4008 4017 4016 3746 3747 3756 3755 
4008 4009 4018 4017 3747 3748 3757 3756 
4009 4010 4019 4018 3748 3749 3758 3757 
4010 4011 4020 4019 3749 3750 3759 3758 
4011 4012 4021 4020 3750 3751 3760 3759 
4012 4013 4022 4021 3751 3752 3761 3760 
4013 4014 4023 4022 3752 3753 3762 3761 
4014 4015 4024 4023 3753 3754 3763 3762 
4015 1291 1292 4024 3754 1262 1263 3763 
1031 4016 4025 1032 1002 3755 3764 1003 
4016 4017 4026 4025 3755 3756 3765 3764 
4017 4018 4027 4026 3756 3757 3766 3765 
4018 4019 4028 4027 3757 3758 3767 3766 
4019 4020 4029 4028 3758 3759 3768 3767 
4020 4021 4030 4029 3759 3760 3769 3768 
4021 4022 4031 4030 3760 3761 3770 3769 
4022 4023 4032 4031 3761 3762 3771 3770 
4023 4024 4033 4032 3762 3763 3772 3771 
4024 1292 1293 4033 3763 1263 1264 3772 
1032 4025 4034 1033 1003 3764 3773 1004 
4025 4026 4035 4034 3764 3765 3774 3773 
4026 4027 4036 4035 3765 3766 3775 3774 
4027 4028 4037 4036 3766 3767 3776 3775 
4028 4029 4038 4037 3767 3768 3777 3776 
4029 4030 4039 4038 3768 3769 3778 3777 
4030 4031 4040 4039 3769 3770 3779 3778 
4031 4032 4041 4040 3770 3771 3780 3779 
4032 4033 4042 4041 3771 3772 3781 3780 
4033 1293 1294 4042 3772 1264 1265 3781 
1033 4034 4043 1034 1004 3773 3782 1005 
4034 4035 4044 4043 3773 3774 3783 3782 
4035 4036 4045 4044 3774 3775 3784 3783 
4036 4037 4046 4045 3775 3776 3785 3784 
4037 4038 4047 4046 3776 3777 3786 3785 
4038 4039 4048 4047 3777 3778 3787 3786 
4039 4040 4049 4048 3778 3779 3788 3787 
4040 4041 4050 4049 3779 3780 3789 3788 
4041 4042 4051 4050 3780 3781 3790 3789 
4042 1294 1295 4051 3781 1265 1266 3790 
1034 4043 4052 1035 1005 3782 3791 1006 
4043 4044 4053 4052 3782 3783 3792 3791 
4044 4045 4054 4053 3783 3784 3793 3792 
4045 4046 4055 4054 3784 3785 3794 3793 
4046 4047 4056 4055 3785 3786 3795 3794 
4047 4048 4057 4056 3786 3787 3796 3795 
4048 4049 4058 4057 3787 3788 3797 3796 
4049 4050 4059 4058 3788 3789 3798 3797 
4050 4051 4060 4059 3789 3790 3799 3798 
4051 1295 1296 4060 3790 1266 1267 3799 
1035 4052 4061 1036 1006 3791 3800 1007 
4052 4053 4062 4061 3791 3792 3801 3800 
4053 4054 4063 4062 3792 3793 3802 3801 
4054 4055 4064 4063 3793 3794 3803 3802 
4055 4056 4065 4064 3794 3795 3804 3803 
4056 4057 4066 4065 3795 3796 3805 3804 
4057 4058 4067 4066 3796 3797 3806 3805 
4058 4059 4068 4067 3797 3798 3807 3806 
4059 4060 4069 4068 3798 3799 3808 3807 
4060 1296 1297 4069 3799 1267 1268 3808 
1036 4061 4070 1037 1007 3800 3809 1008 
4061 4062 4071 4070 3800 3801 3810 3809 
4062 4063 4072 4071 3801 3802 3811 3810 
4063 4064 4073 4072 3802 3803 3812 3811 
4064 4065 4074 4073 3803 3804 3813 3812 
4065 4066 4075 4074 3804 3805 3814 3813 
4066 4067 4076 4075 3805 3806 3815 3814 
4067 4068 4077 4076 3806 3807 3816 3815 
4068 4069 4078 4077 3807 3808 3817 3816 
4069 1297 1298 4078 3808 1268 1269 3817 
1037 4070 4079 1038 1008 3809 3818 1009 
4070 4071 4080 4079 3809 3810 3819 3818 
4071 4072 4081 4080 3810 3811 3820 3819 
4072 4073 4082 4081 3811 3812 3821 3820 
4073 4074 4083 4082 3812 3813 3822 3821 
4074 4075 4084 4083 3813 3814 3823 3822 
4075 4076 4085 4084 3814 3815 3824 3823 
4076 4077 4086 4085 3815 3816 3825 3824 
4077 4078 4087 4086 3816 3817 3826 3825 
4078 1298 1299 4087 3817 1269 1270 3826 
1038 4079 4088 1039 1009 3818 3827 1010 
4079 4080 4089 4088 3818 3819 3828 3827 
4080 4081 4090 4089 3819 3820 3829 3828 
4081 4082 4091 4090 3820 3821 3830 3829 
4082 4083 4092 4091 3821 3822 3831 3830 
4083 4084 4093 4092 3822 3823 3832 3831 
4084 4085 4094 4093 3823 3824 3833 3832 
4085 4086 4095 4094 3824 3825 3834 3833 
4086 4087 4096 4095 3825 3826 3835 3834 
4087 1299 1300 4096 3826 1270 1271 3835 
1039 4088 4097 1040 1010 3827 3836 1011 
4088 4089 4098 4097 3827 3828 3837 3836 
4089 4090 4099 4098 3828 3829 3838 3837 
4090 4091 4100 4099 3829 3830 3839 3838 
4091 4092 4101 4100 3830 3831 3840 3839 
4092 4093 4102 4101 3831 3832 3841 3840 
4093 4094 4103 4102 3832 3833 3842 3841 
4094 4095 4104 4103 3833 3834 3843 3842 
4095 4096 4105 4104 3834 3835 3844 3843 
4096 1300 1301 4105 3835 1271 1272 3844 
1040 4097 4106 1041 1011 3836 3845 1012 
4097 4098 4107 4106 3836 3837 3846 3845 
4098 4099 4108 4107 3837 3838 3847 3846 
4099 4100 4109 4108 3838 3839 3848 3847 
4100 4101 4110 4109 3839 3840 3849 3848 
4101 4102 4111 4110 3840 3841 3850 3849 
4102 4103 4112 4111 3841 3842 3851 3850 
4103 4104 4113 4112 3842 3843 3852 3851 
4104 4105 4114 4113 3843 3844 3853 3852 
4105 1301 1302 4114 3844 1272 1273 3853 
1041 4106 4115 1042 1012 3845 3854 1013 
4106 4107 4116 4115 3845 3846 3855 3854 
4107 4108 4117 4116 3846 3847 3856 3855 
4108 4109 4118 4117 3847 3848 3857 3856 
4109 4110 4119 4118 3848 3849 3858 3857 
4110 4111 4120 4119 3849 3850 3859 3858 
4111 4112 4121 4120 3850 3851 3860 3859 
4112 4113 4122 4121 3851 3852 3861 3860 
4113 4114 4123 4122 3852 3853 3862 3861 
4114 1302 1303 4123 3853 1273 1274 3862 
1042 4115 4124 1043 1013 3854 3863 1014 
4115 4116 4125 4124 3854 3855 3864 3863 
4116 4117 4126 4125 3855 3856 3865 3864 
4117 4118 4127 4126 3856 3857 3866 3865 
4118 4119 4128 4127 3857 3858 3867 3866 
4119 4120 4129 4128 3858 3859 3868 3867 
4120 4121 4130 4129 3859 3860 3869 3868 
4121 4122 4131 4130 3860 3861 3870 3869 
4122 4123 4132 4131 3861 3862 3871 3870 
4123 1303 1304 4132 3862 1274 1275 3871 
1043 4124 4133 1044 1014 3863 3872 1015 
4124 4125 4134 4133 3863 3864 3873 3872 
4125 4126 4135 4134 3864 3865 3874 3873 
4126 4127 4136 4135 3865 3866 3875 3874 
4127 4128 4137 4136 3866 3867 3876 3875 
4128 4129 4138 4137 3867 3868 3877 3876 
4129 4130 4139 4138 3868 3869 3878 3877 
4130 4131 4140 4139 3869 3870 3879 3878 
4131 4132 4141 4140 3870 3871 3880 3879 
4132 1304 1305 4141 3871 1275 1276 3880 
1044 4133 4142 1045 1015 3872 3881 1016 
4133 4134 4143 4142 3872 3873 3882 3881 
4134 4135 4144 4143 3873 3874 3883 3882 
4135 4136 4145 4144 3874 3875 3884 3883 
4136 4137 4146 4145 3875 3876 3885 3884 
4137 4138 4147 4146 3876 3877 3886 3885 
4138 4139 4148 4147 3877 3878 3887 3886 
4139 4140 4149 4148 3878 3879 3888 3887 
4140 4141 4150 4149 3879 3880 3889 3888 
4141 1305 1306 4150 3880 1276 1277 3889 
1045 4142 4151 1046 1016 3881 3890 1017 
4142 4143 4152 4151 3881 3882 3891 3890 
4143 4144 4153 4152 3882 3883 3892 3891 
4144 4145 4154 4153 3883 3884 3893 3892 
4145 4146 4155 4154 3884 3885 3894 3893 
4146 4147 4156 4155 3885 3886 3895 3894 
4147 4148 4157 4156 3886 3887 3896 3895 
4148 4149 4158 4157 3887 3888 3897 3896 
4149 4150 4159 4158 3888 3889 3898 3897 
4150 1306 1307 4159 3889 1277 1278 3898 
1046 4151 4160 1047 1017 3890 3899 1018 
4151 4152 4161 4160 3890 3891 3900 3899 
4152 4153 4162 4161 3891 3892 3901 3900 
4153 4154 4163 4162 3892 3893 3902 3901 
4154 4155 4164 4163 3893 3894 3903 3902 
4155 4156 4165 4164 3894 3895 3904 3903 
4156 4157 4166 4165 3895 3896 3905 3904 
4157 4158 4167 4166 3896 3897 3906 3905 
4158 4159 4168 4167 3897 3898 3907 3906 
4159 1307 1308 4168 3898 1278 1279 3907 
1047 4160 4169 1048 1018 3899 3908 1019 
4160 4161 4170 4169 3899 3900 3909 3908 
4161 4162 4171 4170 3900 3901 3910 3909 
4162 4163 4172 4171 3901 3902 3911 3910 
4163 4164 4173 4172 3902 3903 3912 3911 
4164 4165 4174 4173 3903 3904 3913 3912 
4165 4166 4175 4174 3904 3905 3914 3913 
4166 4167 4176 4175 3905 3906 3915 3914 
4167 4168 4177 4176 3906 3907 3916 3915 
4168 1308 1309 4177 3907 1279 1280 3916 
1048 4169 4178 1049 1019 3908 3917 1020 
4169 4170 4179 4178 3908 3909 3918 3917 
4170 4171 4180 4179 3909 3910 3919 3918 
4171 4172 4181 4180 3910 3911 3920 3919 
4172 4173 4182 4181 3911 3912 3921 3920 
4173 4174 4183 4182 3912 3913 3922 3921 
4174 4175 4184 4183 3913 3914 3923 3922 
4175 4176 4185 4184 3914 3915 3924 3923 
4176 4177 4186 4185 3915 3916 3925 3924 
4177 1309 1310 4186 3916 1280 1281 3925 
1049 4178 4187 1050 1020 3917 3926 1021 
4178 4179 4188 4187 3917 3918 3927 3926 
4179 4180 4189 4188 3918 3919 3928 3927 
4180 4181 4190 4189 3919 3920 3929 3928 
4181 4182 4191 4190 3920 3921 3930 3929 
4182 4183 4192 4191 3921 3922 3931 3930 
4183 4184 4193 4192 3922 3923 3932 3931 
4184 4185 4194 4193 3923 3924 3933 3932 
4185 4186 4195 4194 3924 3925 3934 3933 
4186 1310 1311 4195 3925 1281 1282 3934 
1050 4187 4196 1051 1021 3926 3935 1022 
4187 4188 4197 4196 3926 3927 3936 3935 
4188 4189 4198 4197 3927 3928 3937 3936 
4189 4190 4199 4198 3928 3929 3938 3937 
4190 4191 4200 4199 3929 3930 3939 3938 
4191 4192 4201 4200 3930 3931 3940 3939 
4192 4193 4202 4201 3931 3932 3941 3940 
4193 4194 4203 4202 3932 3933 3942 3941 
4194 4195 4204 4203 3933 3934 3943 3942 
4195 1311 1312 4204 3934 1282 1283 3943 
1051 4196 4205 1052 1022 3935 3944 1023 
4196 4197 4206 4205 3935 3936 3945 3944 
4197 4198 4207 4206 3936 3937 3946 3945 
4198 4199 4208 4207 3937 3938 3947 3946 
4199 4200 4209 4208 3938 3939 3948 3947 
4200 4201 4210 4209 3939 3940 3949 3948 
4201 4202 4211 4210 3940 3941 3950 3949 
4202 4203 4212 4211 3941 3942 3951 3950 
4203 4204 4213 4212 3942 3943 3952 3951 
4204 1312 1313 4213 3943 1283 1284 3952 
1052 4205 4214 1053 1023 3944 3953 1024 
4205 4206 4215 4214 3944 3945 3954 3953 
4206 4207 4216 4215 3945 3946 3955 3954 
4207 4208 4217 4216 3946 3947 3956 3955 
4208 4209 4218 4217 3947 3948 3957 3956 
4209 4210 4219 4218 3948 3949 3958 3957 
4210 4211 4220 4219 3949 3950 3959 3958 
4211 4212 4221 4220 3950 3951 3960 3959 
4212 4213 4222 4221 3951 3952 3961 3960 
4213 1313 1314 4222 3952 1284 1285 3961 
1053 4214 4223 1054 1024 3953 3962 1025 
4214 4215 4224 4223 3953 3954 3963 3962 
4215 4216 4225 4224 3954 3955 3964 3963 
4216 4217 4226 4225 3955 3956 3965 3964 
4217 4218 4227 4226 3956 3957 3966 3965 
4218 4219 4228 4227 3957 3958 3967 3966 
4219 4220 4229 4228 3958 3959 3968 3967 
4220 4221 4230 4229 3959 3960 3969 3968 
4221 4222 4231 4230 3960 3961 3970 3969 
4222 1314 1315 4231 3961 1285 1286 3970 
1054 4223 1469 172 1025 3962 1460 171 
4223 4224 1470 1469 3962 3963 1461 1460 
4224 4225 1471 1470 3963 3964 1462 1461 
4225 4226 1472 1471 3964 3965 1463 1462 
4226 4227 1473 1472 3965 3966 1464 1463 
4227 4228 1474 1473 3966 3967 1465 1464 
4228 4229 1475 1474 3967 3968 1466 1465 
4229 4230 1476 1475 3968 3969 1467 1466 
4230 4231 1477 1476 3969 3970 1468 1467 
4231 1315 182 1477 3970 1286 183 1468 
7 96 533 135 173 1388 3971 1026 
96 95 534 533 1388 1389 3972 3971 
95 94 535 534 1389 1390 3973 3972 
94 93 536 535 1390 1391 3974 3973 
93 92 537 536 1391 1392 3975 3974 
92 91 538 537 1392 1393 3976 3975 
91 90 539 538 1393 1394 3977 3976 
90 89 540 539 1394 1395 3978 3977 
89 88 541 540 1395 1396 3979 3978 
88 4 125 541 1396 199 1287 3979 
135 533 542 136 1026 3971 3980 1027 
533 534 543 542 3971 3972 3981 3980 
534 535 544 543 3972 3973 3982 3981 
535 536 545 544 3973 3974 3983 3982 
536 537 546 545 3974 3975 3984 3983 
537 538 547 546 3975 3976 3985 3984 
538 539 548 547 3976 3977 3986 3985 
539 540 549 548 3977 3978 3987 3986 
540 541 550 549 3978 3979 3988 3987 
541 125 124 550 3979 1287 1288 3988 
136 542 551 137 1027 3980 3989 1028 
542 543 552 551 3980 3981 3990 3989 
543 544 553 552 3981 3982 3991 3990 
544 545 554 553 3982 3983 3992 3991 
545 546 555 554 3983 3984 3993 3992 
546 547 556 555 3984 3985 3994 3993 
547 548 557 556 3985 3986 3995 3994 
548 549 558 557 3986 3987 3996 3995 
549 550 559 558 3987 3988 3997 3996 
550 124 123 559 3988 1288 1289 3997 
137 551 560 138 1028 3989 3998 1029 
551 552 561 560 3989 3990 3999 3998 
552 553 562 561 3990 3991 4000 3999 
553 554 563 562 3991 3992 4001 4000 
554 555 564 563 3992 3993 4002 4001 
555 556 565 564 3993 3994 4003 4002 
556 557 566 565 3994 3995 4004 4003 
557 558 567 566 3995 3996 4005 4004 
558 559 568 567 3996 3997 4006 4005 
559 123 122 568 3997 1289 1290 4006 
138 560 569 139 1029 3998 4007 1030 
560 561 570 569 3998 3999 4008 4007 
561 562 571 570 3999 4000 4009 4008 
562 563 572 571 4000 4001 4010 4009 
563 564 573 572 4001 4002 4011 4010 
564 565 574 573 4002 4003 4012 4011 
565 566 575 574 4003 4004 4013 4012 
566 567 576 575 4004 4005 4014 4013 
567 568 577 576 4005 4006 4015 4014 
568 122 121 577 4006 1290 1291 4015 
139 569 578 140 1030 4007 4016 1031 
569 570 579 578 4007 4008 4017 4016 
570 571 580 579 4008 4009 4018 4017 
571 572 581 580 4009 4010 4019 4018 
572 573 582 581 4010 4011 4020 4019 
573 574 583 582 4011 4012 4021 4020 
574 575 584 583 4012 4013 4022 4021 
575 576 585 584 4013 4014 4023 4022 
576 577 586 585 4014 4015 4024 4023 
577 121 120 586 4015 1291 1292 4024 
140 578 587 141 1031 4016 4025 1032 
578 579 588 587 4016 4017 4026 4025 
579 580 589 588 4017 4018 4027 4026 
580 581 590 589 4018 4019 4028 4027 
581 582 591 590 4019 4020 4029 4028 
582 583 592 591 4020 4021 4030 4029 
583 584 593 592 4021 4022 4031 4030 
584 585 594 593 4022 4023 4032 4031 
585 586 595 594 4023 4024 4033 4032 
586 120 119 595 4024 1292 1293 4033 
141 587 596 142 1032 4025 4034 1033 
587 588 597 596 4025 4026 4035 4034 
588 589 598 597 4026 4027 4036 4035 
589 590 599 598 4027 4028 4037 4036 
590 591 600 599 4028 4029 4038 4037 
591 592 601 600 4029 4030 4039 4038 
592 593 602 601 4030 4031 4040 4039 
593 594 603 602 4031 4032 4041 4040 
594 595 604 603 4032 4033 4042 4041 
595 119 118 604 4033 1293 1294 4042 
142 596 605 143 1033 4034 4043 1034 
596 597 606 605 4034 4035 4044 4043 
597 598 607 606 4035 4036 4045 4044 
598 599 608 607 4036 4037 4046 4045 
599 600 609 608 4037 4038 4047 4046 
600 601 610 609 4038 4039 4048 4047 
601 602 611 610 4039 4040 4049 4048 
602 603 612 611 4040 4041 4050 4049 
603 604 613 612 4041 4042 4051 4050 
604 118 117 613 4042 1294 1295 4051 
143 605 614 144 1034 4043 4052 1035 
605 606 615 614 4043 4044 4053 4052 
606 607 616 615 4044 4045 4054 4053 
607 608 617 616 4045 4046 4055 4054 
608 609 618 617 4046 4047 4056 4055 
609 610 619 618 4047 4048 4057 4056 
610 611 620 619 4048 4049 4058 4057 
611 612 621 620 4049 4050 4059 4058 
612 613 622 621 4050 4051 4060 4059 
613 117 116 622 4051 1295 1296 4060 
144 614 623 145 1035 4052 4061 1036 
614 615 624 623 4052 4053 4062 4061 
615 616 625 624 4053 4054 4063 4062 
616 617 626 625 4054 4055 4064 4063 
617 618 627 626 4055 4056 4065 4064 
618 619 628 627 4056 4057 4066 4065 
619 620 629 628 4057 4058 4067 4066 
620 621 630 629 4058 4059 4068 4067 
621 622 631 630 4059 4060 4069 4068 
622 116 115 631 4060 1296 1297 4069 
145 623 632 146 1036 4061 4070 1037 
623 624 633 632 4061 4062 4071 4070 
624 625 634 633 4062 4063 4072 4071 
625 626 635 634 4063 4064 4073 4072 
626 627 636 635 4064 4065 4074 4073 
627 628 637 636 4065 4066 4075 4074 
628 629 638 637 4066 4067 4076 4075 
629 630 639 638 4067 4068 4077 4076 
630 631 640 639 4068 4069 4078 4077 
631 115 114 640 4069 1297 1298 4078 
146 632 641 147 1037 4070 4079 1038 
632 633 642 641 4070 4071 4080 4079 
633 634 643 642 4071 4072 4081 4080 
634 635 644 643 4072 4073 4082 4081 
635 636 645 644 4073 4074 4083 4082 
636 637 646 645 4074 4075 4084 4083 
637 638 647 646 4075 4076 4085 4084 
638 639 648 647 4076 4077 4086 4085 
639 640 649 648 4077 4078 4087 4086 
640 114 113 649 4078 1298 1299 4087 
147 641 650 148 1038 4079 4088 1039 
641 642 651 650 4079 4080 4089 4088 
642 643 652 651 4080 4081 4090 4089 
643 644 653 652 4081 4082 4091 4090 
644 645 654 653 4082 4083 4092 4091 
645 646 655 654 4083 4084 4093 4092 
646 647 656 655 4084 4085 4094 4093 
647 648 657 656 4085 4086 4095 4094 
648 649 658 657 4086 4087 4096 4095 
649 113 112 658 4087 1299 1300 4096 
148 650 659 149 1039 4088 4097 1040 
650 651 660 659 4088 4089 4098 4097 
651 652 661 660 4089 4090 4099 4098 
652 653 662 661 4090 4091 4100 4099 
653 654 663 662 4091 4092 4101 4100 
654 655 664 663 4092 4093 4102 4101 
655 656 665 664 4093 4094 4103 4102 
656 657 666 665 4094 4095 4104 4103 
657 658 667 666 4095 4096 4105 4104 
658 112 111 667 4096 1300 1301 4105 
149 659 668 150 1040 4097 4106 1041 
659 660 669 668 4097 4098 4107 4106 
660 661 670 669 4098 4099 4108 4107 
661 662 671 670 4099 4100 4109 4108 
662 663 672 671 4100 4101 4110 4109 
663 664 673 672 4101 4102 4111 4110 
664 665 674 673 4102 4103 4112 4111 
665 666 675 674 4103 4104 4113 4112 
666 667 676 675 4104 4105 4114 4113 
667 111 110 676 4105 1301 1302 4114 
150 668 677 151 1041 4106 4115 1042 
668 669 678 677 4106 4107 4116 4115 
669 670 679 678 4107 4108 4117 4116 
670 671 680 679 4108 4109 4118 4117 
671 672 681 680 4109 4110 4119 4118 
672 673 682 681 4110 4111 4120 4119 
673 674 683 682 4111 4112 4121 4120 
674 675 684 683 4112 4113 4122 4121 
675 676 685 684 4113 4114 4123 4122 
676 110 109 685 4114 1302 1303 4123 
151 677 686 152 1042 4115 4124 1043 
677 678 687 686 4115 4116 4125 4124 
678 679 688 687 4116 4117 4126 4125 
679 680 689 688 4117 4118 4127 4126 
680 681 690 689 4118 4119 4128 4127 
681 682 691 690 4119 4120 4129 4128 
682 683 692 691 4120 4121 4130 4129 
683 684 693 692 4121 4122 4131 4130 
684 685 694 693 4122 4123 4132 4131 
685 109 108 694 4123 1303 1304 4132 
152 686 695 153 1043 4124 4133 1044 
686 687 696 695 4124 4125 4134 4133 
687 688 697 696 4125 4126 4135 4134 
688 689 698 697 4126 4127 4136 4135 
689 690 699 698 4127 4128 4137 4136 
690 691 700 699 4128 4129 4138 4137 
691 692 701 700 4129 4130 4139 4138 
692 693 702 701 4130 4131 4140 4139 
693 694 703 702 4131 4132 4141 4140 
694 108 107 703 4132 1304 1305 4141 
153 695 704 154 1044 4133 4142 1045 
695 696 705 704 4133 4134 4143 4142 
696 697 706 705 4134 4135 4144 4143 
697 698 707 706 4135 4136 4145 4144 
698 699 708 707 4136 4137 4146 4145 
699 700 709 708 4137 4138 4147 4146 
700 701 710 709 4138 4139 4148 4147 
701 702 711 710 4139 4140 4149 4148 
702 703 712 711 4140 4141 4150 4149 
703 107 106 712 4141 1305 1306 4150 
154 704 713 155 1045 4142 4151 1046 
704 705 714 713 4142 4143 4152 4151 
705 706 715 714 4143 4144 4153 4152 
706 707 716 715 4144 4145 4154 4153 
707 708 717 716 4145 4146 4155 4154 
708 709 718 717 4146 4147 4156 4155 
709 710 719 718 4147 4148 4157 4156 
710 711 720 719 4148 4149 4158 4157 
711 712 721 720 4149 4150 4159 4158 
712 106 105 721 4150 1306 1307 4159 
155 713 722 156 1046 4151 4160 1047 
713 714 723 722 4151 4152 4161 4160 
714 715 724 723 4152 4153 4162 4161 
715 716 725 724 4153 4154 4163 4162 
716 717 726 725 4154 4155 4164 4163 
717 718 727 726 4155 4156 4165 4164 
718 719 728 727 4156 4157 4166 4165 
719 720 729 728 4157 4158 4167 4166 
720 721 730 729 4158 4159 4168 4167 
721 105 104 730 4159 1307 1308 4168 
156 722 731 157 1047 4160 4169 1048 
722 723 732 731 4160 4161 4170 4169 
723 724 733 732 4161 4162 4171 4170 
724 725 734 733 4162 4163 4172 4171 
725 726 735 734 4163 4164 4173 4172 
726 727 736 735 4164 4165 4174 4173 
727 728 737 736 4165 4166 4175 4174 
728 729 738 737 4166 4167 4176 4175 
729 730 739 738 4167 4168 4177 4176 
730 104 103 739 4168 1308 1309 4177 
157 731 740 158 1048 4169 4178 1049 
731 732 741 740 4169 4170 4179 4178 
732 733 742 741 4170 4171 4180 4179 
733 734 743 742 4171 4172 4181 4180 
734 735 744 743 4172 4173 4182 4181 
735 736 745 744 4173 4174 4183 4182 
736 737 746 745 4174 4175 4184 4183 
737 738 747 746 4175 4176 4185 4184 
738 739 748 747 4176 4177 4186 4185 
739 103 102 748 4177 1309 1310 4186 
158 740 749 159 1049 4178 4187 1050 
740 741 750 749 4178 4179 4188 4187 
741 742 751 750 4179 4180 4189 4188 
742 743 752 751 4180 4181 4190 4189 
743 744 753 752 4181 4182 4191 4190 
744 745 754 753 4182 4183 4192 4191 
745 746 755 754 4183 4184 4193 4192 
746 747 756 755 4184 4185 4194 4193 
747 748 757 756 4185 4186 4195 4194 
748 102 101 757 4186 1310 1311 4195 
159 749 758 160 1050 4187 4196 1051 
749 750 759 758 4187 4188 4197 4196 
750 751 760 759 4188 4189 4198 4197 
751 752 761 760 4189 4190 4199 4198 
752 753 762 761 4190 4191 4200 4199 
753 754 763 762 4191 4192 4201 4200 
754 755 764 763 4192 4193 4202 4201 
755 756 765 764 4193 4194 4203 4202 
756 757 766 765 4194 4195 4204 4203 
757 101 100 766 4195 1311 1312 4204 
160 758 767 161 1051 4196 4205 1052 
758 759 768 767 4196 4197 4206 4205 
759 760 769 768 4197 4198 4207 4206 
760 761 770 769 4198 4199 4208 4207 
761 762 771 770 4199 4200 4209 4208 
762 763 772 771 4200 4201 4210 4209 
763 764 773 772 4201 4202 4211 4210 
764 765 774 773 4202 4203 4212 4211 
765 766 775 774 4203 4204 4213 4212 
766 100 99 775 4204 1312 1313 4213 
161 767 776 162 1052 4205 4214 1053 
767 768 777 776 4205 4206 4215 4214 
768 769 778 777 4206 4207 4216 4215 
769 770 779 778 4207 4208 4217 4216 
770 771 780 779 4208 4209 4218 4217 
771 772 781 780 4209 4210 4219 4218 
772 773 782 781 4210 4211 4220 4219 
773 774 783 782 4211 4212 4221 4220 
774 775 784 783 4212 4213 4222 4221 
775 99 98 784 4213 1313 1314 4222 
162 776 785 163 1053 4214 4223 1054 
776 777 786 785 4214 4215 4224 4223 
777 778 787 786 4215 4216 4225 4224 
778 779 788 787 4216 4217 4226 4225 
779 780 789 788 4217 4218 4227 4226 
780 781 790 789 4218 4219 4228 4227 
781 782 791 790 4219 4220 4229 4228 
782 783 792 791 4220 4221 4230 4229 
783 784 793 792 4221 4222 4231 4230 
784 98 97 793 4222 1314 1315 4231 
163 785 126 6 1054 4223 1469 172 
785 786 127 126 4223 4224 1470 1469 
786 787 128 127 4224 4225 1471 1470 
787 788 129 128 4225 4226 1472 1471 
788 789 130 129 4226 4227 1473 1472 
789 790 131 130 4227 4228 1474 1473 
790 791 132 131 4228 4229 1475 1474 
791 792 133 132 4229 4230 1476 1475 
792 793 134 133 4230 4231 1477 1476 
793 97 5 134 4231 1315 182 1477 
191 1324 4232 1640 1 20 1478 226 
1324 1323 4233 4232 20 19 1479 1478 
1323 1322 4234 4233 19 18 1480 1479 
1322 1321 4235 4234 18 17 1481 1480 
1321 1320 4236 4235 17 16 1482 1481 
1320 1319 4237 4236 16 15 1483 1482 
1319 1318 4238 4237 15 14 1484 1483 
1318 1317 4239 4238 14 13 1485 1484 
1317 1316 4240 4239 13 12 1486 1485 
1316 181 1721 4240 12 0 200 1486 
1640 4232 4241 1641 226 1478 1487 225 
4232 4233 4242 4241 1478 1479 1488 1487 
4233 4234 4243 4242 1479 1480 1489 1488 
4234 4235 4244 4243 1480 1481 1490 1489 
4235 4236 4245 4244 1481 1482 1491 1490 
4236 4237 4246 4245 1482 1483 1492 1491 
4237 4238 4247 4246 1483 1484 1493 1492 
4238 4239 4248 4247 1484 1485 1494 1493 
4239 4240 4249 4248 1485 1486 1495 1494 
4240 1721 1722 4249 1486 200 201 1495 
1641 4241 4250 1642 225 1487 1496 224 
4241 4242 4251 4250 1487 1488 1497 1496 
4242 4243 4252 4251 1488 1489 1498 1497 
4243 4244 4253 4252 1489 1490 1499 1498 
4244 4245 4254 4253 1490 1491 1500 1499 
4245 4246 4255 4254 1491 1492 1501 1500 
4246 4247 4256 4255 1492 1493 1502 1501 
4247 4248 4257 4256 1493 1494 1503 1502 
4248 4249 4258 4257 1494 1495 1504 1503 
4249 1722 1723 4258 1495 201 202 1504 
1642 4250 4259 1643 224 1496 1505 223 
4250 4251 4260 4259 1496 1497 1506 1505 
4251 4252 4261 4260 1497 1498 1507 1506 
4252 4253 4262 4261 1498 1499 1508 1507 
4253 4254 4263 4262 1499 1500 1509 1508 
4254 4255 4264 4263 1500 1501 1510 1509 
4255 4256 4265 4264 1501 1502 1511 1510 
4256 4257 4266 4265 1502 1503 1512 1511 
4257 4258 4267 4266 1503 1504 1513 1512 
4258 1723 1724 4267 1504 202 203 1513 
1643 4259 4268 1644 223 1505 1514 222 
4259 4260 4269 4268 1505 1506 1515 1514 
4260 4261 4270 4269 1506 1507 1516 1515 
4261 4262 4271 4270 1507 1508 1517 1516 
4262 4263 4272 4271 1508 1509 1518 1517 
4263 4264 4273 4272 1509 1510 1519 1518 
4264 4265 4274 4273 1510 1511 1520 1519 
4265 4266 4275 4274 1511 1512 1521 1520 
4266 4267 4276 4275 1512 1513 1522 1521 
4267 1724 1725 4276 1513 203 204 1522 
1644 4268 4277 1645 222 1514 1523 221 
4268 4269 4278 4277 1514 1515 1524 1523 
4269 4270 4279 4278 1515 1516 1525 1524 
4270 4271 4280 4279 1516 1517 1526 1525 
4271 4272 4281 4280 1517 1518 1527 1526 
4272 4273 4282 4281 1518 1519 1528 1527 
4273 4274 4283 4282 1519 1520 1529 1528 
4274 4275 4284 4283 1520 1521 1530 1529 
4275 4276 4285 4284 1521 1522 1531 1530 
4276 1725 1726 4285 1522 204 205 1531 
1645 4277 4286 1646 221 1523 1532 220 
4277 4278 4287 4286 1523 1524 1533 1532 
4278 4279 4288 4287 1524 1525 1534 1533 
4279 4280 4289 4288 1525 1526 1535 1534 
4280 4281 4290 4289 1526 1527 1536 1535 
4281 4282 4291 4290 1527 1528 1537 1536 
4282 4283 4292 4291 1528 1529 1538 1537 
4283 4284 4293 4292 1529 1530 1539 1538 
4284 4285 4294 4293 1530 1531 1540 1539 
4285 1726 1727 4294 1531 205 206 1540 
1646 4286 4295 1647 220 1532 1541 219 
4286 4287 4296 4295 1532 1533 1542 1541 
4287 4288 4297 4296 1533 1534 1543 1542 
4288 4289 4298 4297 1534 1535 1544 1543 
4289 4290 4299 4298 1535 1536 1545 1544 
4290 4291 4300 4299 1536 1537 1546 1545 
4291 4292 4301 4300 1537 1538 1547 1546 
4292 4293 4302 4301 1538 1539 1548 1547 
4293 4294 4303 4302 1539 1540 1549 1548 
4294 1727 1728 4303 1540 206 207 1549 
1647 4295 4304 1648 219 1541 1550 218 
4295 4296 4305 4304 1541 1542 1551 1550 
4296 4297 4306 4305 1542 1543 1552 1551 
4297 4298 4307 4306 1543 1544 1553 1552 
4298 4299 4308 4307 1544 1545 1554 1553 
4299 4300 4309 4308 1545 1546 1555 1554 
4300 4301 4310 4309 1546 1547 1556 1555 
4301 4302 4311 4310 1547 1548 1557 1556 
4302 4303 4312 4311 1548 1549 1558 1557 
4303 1728 1729 4312 1549 207 208 1558 
1648 4304 1802 254 218 1550 217 9 
4304 4305 1803 1802 1550 1551 216 217 
4305 4306 1804 1803 1551 1552 215 216 
4306 4307 1805 1804 1552 1553 214 215 
4307 4308 1806 1805 1553 1554 213 214 
4308 4309 1807 1806 1554 1555 212 213 
4309 4310 1808 1807 1555 1556 211 212 
4310 4311 1809 1808 1556 1557 210 211 
4311 4312 1810 1809 1557 1558 209 210 
4312 1729 271 1810 1558 208 8 209 
192 1333 4313 1649 191 1324 4232 1640 
1333 1332 4314 4313 1324 1323 4233 4232 
1332 1331 4315 4314 1323 1322 4234 4233 
1331 1330 4316 4315 1322 1321 4235 4234 
1330 1329 4317 4316 1321 1320 4236 4235 
1329 1328 4318 4317 1320 1319 4237 4236 
1328 1327 4319 4318 1319 1318 4238 4237 
1327 1326 4320 4319 1318 1317 4239 4238 
1326 1325 4321 4320 1317 1316 4240 4239 
1325 180 1730 4321 1316 181 1721 4240 
1649 4313 4322 1650 1640 4232 4241 1641 
4313 4314 4323 4322 4232 4233 4242 4241 
4314 4315 4324 4323 4233 4234 4243 4242 
4315 4316 4325 4324 4234 4235 4244 4243 
4316 4317 4326 4325 4235 4236 4245 4244 
4317 4318 4327 4326 4236 4237 4246 4245 
4318 4319 4328 4327 4237 4238 4247 4246 
4319 4320 4329 4328 4238 4239 4248 4247 
4320 4321 4330 4329 4239 4240 4249 4248 
4321 1730 1731 4330 4240 1721 1722 4249 
1650 4322 4331 1651 1641 4241 4250 1642 
4322 4323 4332 4331 4241 4242 4251 4250 
4323 4324 4333 4332 4242 4243 4252 4251 
4324 4325 4334 4333 4243 4244 4253 4252 
4325 4326 4335 4334 4244 4245 4254 4253 
4326 4327 4336 4335 4245 4246 4255 4254 
4327 4328 4337 4336 4246 4247 4256 4255 
4328 4329 4338 4337 4247 4248 4257 4256 
4329 4330 4339 4338 4248 4249 4258 4257 
4330 1731 1732 4339 4249 1722 1723 4258 
1651 4331 4340 1652 1642 4250 4259 1643 
4331 4332 4341 4340 4250 4251 4260 4259 
4332 4333 4342 4341 4251 4252 4261 4260 
4333 4334 4343 4342 4252 4253 4262 4261 
4334 4335 4344 4343 4253 4254 4263 4262 
4335 4336 4345 4344 4254 4255 4264 4263 
4336 4337 4346 4345 4255 4256 4265 4264 
4337 4338 4347 4346 4256 4257 4266 4265 
4338 4339 4348 4347 4257 4258 4267 4266 
4339 1732 1733 4348 4258 1723 1724 4267 
1652 4340 4349 1653 1643 4259 4268 1644 
4340 4341 4350 4349 4259 4260 4269 4268 
4341 4342 4351 4350 4260 4261 4270 4269 
4342 4343 4352 4351 4261 4262 4271 4270 
4343 4344 4353 4352 4262 4263 4272 4271 
4344 4345 4354 4353 4263 4264 4273 4272 
4345 4346 4355 4354 4264 4265 4274 4273 
4346 4347 4356 4355 4265 4266 4275 4274 
4347 4348 4357 4356 4266 4267 4276 4275 
4348 1733 1734 4357 4267 1724 1725 4276 
1653 4349 4358 1654 1644 4268 4277 1645 
4349 4350 4359 4358 4268 4269 4278 4277 
4350 4351 4360 4359 4269 4270 4279 4278 
4351 4352 4361 4360 4270 4271 4280 4279 
4352 4353 4362 4361 4271 4272 4281 4280 
4353 4354 4363 4362 4272 4273 4282 4281 
4354 4355 4364 4363 4273 4274 4283 4282 
4355 4356 4365 4364 4274 4275 4284 4283 
4356 4357 4366 4365 4275 4276 4285 4284 
4357 1734 1735 4366 4276 1725 1726 4285 
1654 4358 4367 1655 1645 4277 4286 1646 
4358 4359 4368 4367 4277 4278 4287 4286 
4359 4360 4369 4368 4278 4279 4288 4287 
4360 4361 4370 4369 4279 4280 4289 4288 
4361 4362 4371 4370 4280 4281 4290 4289 
4362 4363 4372 4371 4281 4282 4291 4290 
4363 4364 4373 4372 4282 4283 4292 4291 
4364 4365 4374 4373 4283 4284 4293 4292 
4365 4366 4375 4374 4284 4285 4294 4293 
4366 1735 1736 4375 4285 1726 1727 4294 
1655 4367 4376 1656 1646 4286 4295 1647 
4367 4368 4377 4376 4286 4287 4296 4295 
4368 4369 4378 4377 4287 4288 4297 4296 
4369 4370 4379 4378 4288 4289 4298 4297 
4370 4371 4380 4379 4289 4290 4299 4298 
4371 4372 4381 4380 4290 4291 4300 4299 
4372 4373 4382 4381 4291 4292 4301 4300 
4373 4374 4383 4382 4292 4293 4302 4301 
4374 4375 4384 4383 4293 4294 4303 4302 
4375 1736 1737 4384 4294 1727 1728 4303 
1656 4376 4385 1657 1647 4295 4304 1648 
4376 4377 4386 4385 4295 4296 4305 4304 
4377 4378 4387 4386 4296 4297 4306 4305 
4378 4379 4388 4387 4297 4298 4307 4306 
4379 4380 4389 4388 4298 4299 4308 4307 
4380 4381 4390 4389 4299 4300 4309 4308 
4381 4382 4391 4390 4300 4301 4310 4309 
4382 4383 4392 4391 4301 4302 4311 4310 
4383 4384 4393 4392 4302 4303 4312 4311 
4384 1737 1738 4393 4303 1728 1729 4312 
1657 4385 1811 255 1648 4304 1802 254 
4385 4386 1812 1811 4304 4305 1803 1802 
4386 4387 1813 1812 4305 4306 1804 1803 
4387 4388 1814 1813 4306 4307 1805 1804 
4388 4389 1815 1814 4307 4308 1806 1805 
4389 4390 1816 1815 4308 4309 1807 1806 
4390 4391 1817 1816 4309 4310 1808 1807 
4391 4392 1818 1817 4310 4311 1809 1808 
4392 4393 1819 1818 4311 4312 1810 1809 
4393 1738 270 1819 4312 1729 271 1810 
193 1342 4394 1658 192 1333 4313 1649 
1342 1341 4395 4394 1333 1332 4314 4313 
1341 1340 4396 4395 1332 1331 4315 4314 
1340 1339 4397 4396 1331 1330 4316 4315 
1339 1338 4398 4397 1330 1329 4317 4316 
1338 1337 4399 4398 1329 1328 4318 4317 
1337 1336 4400 4399 1328 1327 4319 4318 
1336 1335 4401 4400 1327 1326 4320 4319 
1335 1334 4402 4401 1326 1325 4321 4320 
1334 179 1739 4402 1325 180 1730 4321 
1658 4394 4403 1659 1649 4313 4322 1650 
4394 4395 4404 4403 4313 4314 4323 4322 
4395 4396 4405 4404 4314 4315 4324 4323 
4396 4397 4406 4405 4315 4316 4325 4324 
4397 4398 4407 4406 4316 4317 4326 4325 
4398 4399 4408 4407 4317 4318 4327 4326 
4399 4400 4409 4408 4318 4319 4328 4327 
4400 4401 4410 4409 4319 4320 4329 4328 
4401 4402 4411 4410 4320 4321 4330 4329 
4402 1739 1740 4411 4321 1730 1731 4330 
1659 4403 4412 1660 1650 4322 4331 1651 
4403 4404 4413 4412 4322 4323 4332 4331 
4404 4405 4414 4413 4323 4324 4333 4332 
4405 4406 4415 4414 4324 4325 4334 4333 
4406 4407 4416 4415 4325 4326 4335 4334 
4407 4408 4417 4416 4326 4327 4336 4335 
4408 4409 4418 4417 4327 4328 4337 4336 
4409 4410 4419 4418 4328 4329 4338 4337 
4410 4411 4420 4419 4329 4330 4339 4338 
4411 1740 1741 4420 4330 1731 1732 4339 
1660 4412 4421 1661 1651 4331 4340 1652 
4412 4413 4422 4421 4331 4332 4341 4340 
4413 4414 4423 4422 4332 4333 4342 4341 
4414 4415 4424 4423 4333 4334 4343 4342 
4415 4416 4425 4424 4334 4335 4344 4343 
4416 4417 4426 4425 4335 4336 4345 4344 
4417 4418 4427 4426 4336 4337 4346 4345 
4418 4419 4428 4427 4337 4338 4347 4346 
4419 4420 4429 4428 4338 4339 4348 4347 
4420 1741 1742 4429 4339 1732 1733 4348 
1661 4421 4430 1662 1652 4340 4349 1653 
4421 4422 4431 4430 4340 4341 4350 4349 
4422 4423 4432 4431 4341 4342 4351 4350 
4423 4424 4433 4432 4342 4343 4352 4351 
4424 4425 4434 4433 4343 4344 4353 4352 
4425 4426 4435 4434 4344 4345 4354 4353 
4426 4427 4436 4435 4345 4346 4355 4354 
4427 4428 4437 4436 4346 4347 4356 4355 
4428 4429 4438 4437 4347 4348 4357 4356 
4429 1742 1743 4438 4348 1733 1734 4357 
1662 4430 4439 1663 1653 4349 4358 1654 
4430 4431 4440 4439 4349 4350 4359 4358 
4431 4432 4441 4440 4350 4351 4360 4359 
4432 4433 4442 4441 4351 4352 4361 4360 
4433 4434 4443 4442 4352 4353 4362 4361 
4434 4435 4444 4443 4353 4354 4363 4362 
4435 4436 4445 4444 4354 4355 4364 4363 
4436 4437 4446 4445 4355 4356 4365 4364 
4437 4438 4447 4446 4356 4357 4366 4365 
4438 1743 1744 4447 4357 1734 1735 4366 
1663 4439 4448 1664 1654 4358 4367 1655 
4439 4440 4449 4448 4358 4359 4368 4367 
4440 4441 4450 4449 4359 4360 4369 4368 
4441 4442 4451 4450 4360 4361 4370 4369 
4442 4443 4452 4451 4361 4362 4371 4370 
4443 4444 4453 4452 4362 4363 4372 4371 
4444 4445 4454 4453 4363 4364 4373 4372 
4445 4446 4455 4454 4364 4365 4374 4373 
4446 4447 4456 4455 4365 4366 4375 4374 
4447 1744 1745 4456 4366 1735 1736 4375 
1664 4448 4457 1665 1655 4367 4376 1656 
4448 4449 4458 4457 4367 4368 4377 4376 
4449 4450 4459 4458 4368 4369 4378 4377 
4450 4451 4460 4459 4369 4370 4379 4378 
4451 4452 4461 4460 4370 4371 4380 4379 
4452 4453 4462 4461 4371 4372 4381 4380 
4453 4454 4463 4462 4372 4373 4382 4381 
4454 4455 4464 4463 4373 4374 4383 4382 
4455 4456 4465 4464 4374 4375 4384 4383 
4456 1745 1746 4465 4375 1736 1737 4384 
1665 4457 4466 1666 1656 4376 4385 1657 
4457 4458 4467 4466 4376 4377 4386 4385 
4458 4459 4468 4467 4377 4378 4387 4386 
4459 4460 4469 4468 4378 4379 4388 4387 
4460 4461 4470 4469 4379 4380 4389 4388 
4461 4462 4471 4470 4380 4381 4390 4389 
4462 4463 4472 4471 4381 4382 4391 4390 
4463 4464 4473 4472 4382 4383 4392 4391 
4464 4465 4474 4473 4383 4384 4393 4392 
4465 1746 1747 4474 4384 1737 1738 4393 
1666 4466 1820 256 1657 4385 1811 255 
4466 4467 1821 1820 4385 4386 1812 1811 
4467 4468 1822 1821 4386 4387 1813 1812 
4468 4469 1823 1822 4387 4388 1814 1813 
4469 4470 1824 1823 4388 4389 1815 1814 
4470 4471 1825 1824 4389 4390 1816 1815 
4471 4472 1826 1825 4390 4391 1817 1816 
4472 4473 1827 1826 4391 4392 1818 1817 
4473 4474 1828 1827 4392 4393 1819 1818 
4474 1747 269 1828 4393 1738 270 1819 
194 1351 4475 1667 193 1342 4394 1658 
1351 1350 4476 4475 1342 1341 4395 4394 
1350 1349 4477 4476 1341 1340 4396 4395 
1349 1348 4478 4477 1340 1339 4397 4396 
1348 1347 4479 4478 1339 1338 4398 4397 
1347 1346 4480 4479 1338 1337 4399 4398 
1346 1345 4481 4480 1337 1336 4400 4399 
1345 1344 4482 4481 1336 1335 4401 4400 
1344 1343 4483 4482 1335 1334 4402 4401 
1343 178 1748 4483 1334 179 1739 4402 
1667 4475 4484 1668 1658 4394 4403 1659 
4475 4476 4485 4484 4394 4395 4404 4403 
4476 4477 4486 4485 4395 4396 4405 4404 
4477 4478 4487 4486 4396 4397 4406 4405 
4478 4479 4488 4487 4397 4398 4407 4406 
4479 4480 4489 4488 4398 4399 4408 4407 
4480 4481 4490 4489 4399 4400 4409 4408 
4481 4482 4491 4490 4400 4401 4410 4409 
4482 4483 4492 4491 4401 4402 4411 4410 
4483 1748 1749 4492 4402 1739 1740 4411 
1668 4484 4493 1669 1659 4403 4412 1660 
4484 4485 4494 4493 4403 4404 4413 4412 
4485 4486 4495 4494 4404 4405 4414 4413 
4486 4487 4496 4495 4405 4406 4415 4414 
4487 4488 4497 4496 4406 4407 4416 4415 
4488 4489 4498 4497 4407 4408 4417 4416 
4489 4490 4499 4498 4408 4409 4418 4417 
4490 4491 4500 4499 4409 4410 4419 4418 
4491 4492 4501 4500 4410 4411 4420 4419 
4492 1749 1750 4501 4411 1740 1741 4420 
1669 4493 4502 1670 1660 4412 4421 1661 
4493 4494 4503 4502 4412 4413 4422 4421 
4494 4495 4504 4503 4413 4414 4423 4422 
4495 4496 4505 4504 4414 4415 4424 4423 
4496 4497 4506 4505 4415 4416 4425 4424 
4497 4498 4507 4506 4416 4417 4426 4425 
4498 4499 4508 4507 4417 4418 4427 4426 
4499 4500 4509 4508 4418 4419 4428 4427 
4500 4501 4510 4509 4419 4420 4429 4428 
4501 1750 1751 4510 4420 1741 1742 4429 
1670 4502 4511 1671 1661 4421 4430 1662 
4502 4503 4512 4511 4421 4422 4431 4430 
4503 4504 4513 4512 4422 4423 4432 4431 
4504 4505 4514 4513 4423 4424 4433 4432 
4505 4506 4515 4514 4424 4425 4434 4433 
4506 4507 4516 4515 4425 4426 4435 4434 
4507 4508 4517 4516 4426 4427 4436 4435 
4508 4509 4518 4517 4427 4428 4437 4436 
4509 4510 4519 4518 4428 4429 4438 4437 
4510 1751 1752 4519 4429 1742 1743 4438 
1671 4511 4520 1672 1662 4430 4439 1663 
4511 4512 4521 4520 4430 4431 4440 4439 
4512 4513 4522 4521 4431 4432 4441 4440 
4513 4514 4523 4522 4432 4433 4442 4441 
4514 4515 4524 4523 4433 4434 4443 4442 
4515 4516 4525 4524 4434 4435 4444 4443 
4516 4517 4526 4525 4435 4436 4445 4444 
4517 4518 4527 4526 4436 4437 4446 4445 
4518 4519 4528 4527 4437 4438 4447 4446 
4519 1752 1753 4528 4438 1743 1744 4447 
1672 4520 4529 1673 1663 4439 4448 1664 
4520 4521 4530 4529 4439 4440 4449 4448 
4521 4522 4531 4530 4440 4441 4450 4449 
4522 4523 4532 4531 4441 4442 4451 4450 
4523 4524 4533 4532 4442 4443 4452 4451 
4524 4525 4534 4533 4443 4444 4453 4452 
4525 4526 4535 4534 4444 4445 4454 4453 
4526 4527 4536 4535 4445 4446 4455 4454 
4527 4528 4537 4536 4446 4447 4456 4455 
4528 1753 1754 4537 4447 1744 1745 4456 
1673 4529 4538 1674 1664 4448 4457 1665 
4529 4530 4539 4538 4448 4449 4458 4457 
4530 4531 4540 4539 4449 4450 4459 4458 
4531 4532 4541 4540 4450 4451 4460 4459 
4532 4533 4542 4541 4451 4452 4461 4460 
4533 4534 4543 4542 4452 4453 4462 4461 
4534 4535 4544 4543 4453 4454 4463 4462 
4535 4536 4545 4544 4454 4455 4464 4463 
4536 4537 4546 4545 4455 4456 4465 4464 
4537 1754 1755 4546 4456 1745 1746 4465 
1674 4538 4547 1675 1665 4457 4466 1666 
4538 4539 4548 4547 4457 4458 4467 4466 
4539 4540 4549 4548 4458 4459 4468 4467 
4540 4541 4550 4549 4459 4460 4469 4468 
4541 4542 4551 4550 4460 4461 4470 4469 
4542 4543 4552 4551 4461 4462 4471 4470 
4543 4544 4553 4552 4462 4463 4472 4471 
4544 4545 4554 4553 4463 4464 4473 4472 
4545 4546 4555 4554 4464 4465 4474 4473 
4546 1755 1756 4555 4465 1746 1747 4474 
1675 4547 1829 257 1666 4466 1820 256 
4547 4548 1830 1829 4466 4467 1821 1820 
4548 4549 1831 1830 4467 4468 1822 1821 
4549 4550 1832 1831 4468 4469 1823 1822 
4550 4551 1833 1832 4469 4470 1824 1823 
4551 4552 1834 1833 4470 4471 1825 1824 
4552 4553 1835 1834 4471 4472 1826 1825 
4553 4554 1836 1835 4472 4473 1827 1826 
4554 4555 1837 1836 4473 4474 1828 1827 
4555 1756 268 1837 4474 1747 269 1828 
195 1360 4556 1676 194 1351 4475 1667 
1360 1359 4557 4556 1351 1350 4476 4475 
1359 1358 4558 4557 1350 1349 4477 4476 
1358 1357 4559 4558 1349 1348 4478 4477 
1357 1356 4560 4559 1348 1347 4479 4478 
1356 1355 4561 4560 1347 1346 4480 4479 
1355 1354 4562 4561 1346 1345 4481 4480 
1354 1353 4563 4562 1345 1344 4482 4481 
1353 1352 4564 4563 1344 1343 4483 4482 
1352 177 1757 4564 1343 178 1748 4483 
1676 4556 4565 1677 1667 4475 4484 1668 
4556 4557 4566 4565 4475 4476 4485 4484 
4557 4558 4567 4566 4476 4477 4486 4485 
4558 4559 4568 4567 4477 4478 4487 4486 
4559 4560 4569 4568 4478 4479 4488 4487 
4560 4561 4570 4569 4479 4480 4489 4488 
4561 4562 4571 4570 4480 4481 4490 4489 
4562 4563 4572 4571 4481 4482 4491 4490 
4563 4564 4573 4572 4482 4483 4492 4491 
4564 1757 1758 4573 4483 1748 1749 4492 
1677 4565 4574 1678 1668 4484 4493 1669 
4565 4566 4575 4574 4484 4485 4494 4493 
4566 4567 4576 4575 4485 4486 4495 4494 
4567 4568 4577 4576 4486 4487 4496 4495 
4568 4569 4578 4577 4487 4488 4497 4496 
4569 4570 4579 4578 4488 4489 4498 4497 
4570 4571 4580 4579 4489 4490 4499 4498 
4571 4572 4581 4580 4490 4491 4500 4499 
4572 4573 4582 4581 4491 4492 4501 4500 
4573 1758 1759 4582 4492 1749 1750 4501 
1678 4574 4583 1679 1669 4493 4502 1670 
4574 4575 4584 4583 4493 4494 4503 4502 
4575 4576 4585 4584 4494 4495 4504 4503 
4576 4577 4586 4585 4495 4496 4505 4504 
4577 4578 4587 4586 4496 4497 4506 4505 
4578 4579 4588 4587 4497 4498 4507 4506 
4579 4580 4589 4588 4498 4499 4508 4507 
4580 4581 4590 4589 4499 4500 4509 4508 
4581 4582 4591 4590 4500 4501 4510 4509 
4582 1759 1760 4591 4501 1750 1751 4510 
1679 4583 4592 1680 1670 4502 4511 1671 
4583 4584 4593 4592 4502 4503 4512 4511 
4584 4585 4594 4593 4503 4504 4513 4512 
4585 4586 4595 4594 4504 4505 4514 4513 
4586 4587 4596 4595 4505 4506 4515 4514 
4587 4588 4597 4596 4506 4507 4516 4515 
4588 4589 4598 4597 4507 4508 4517 4516 
4589 4590 4599 4598 4508 4509 4518 4517 
4590 4591 4600 4599 4509 4510 4519 4518 
4591 1760 1761 4600 4510 1751 1752 4519 
1680 4592 4601 1681 1671 4511 4520 1672 
4592 4593 4602 4601 4511 4512 4521 4520 
4593 4594 4603 4602 4512 4513 4522 4521 
4594 4595 4604 4603 4513 4514 4523 4522 
4595 4596 4605 4604 4514 4515 4524 4523 
4596 4597 4606 4605 4515 4516 4525 4524 
4597 4598 4607 4606 4516 4517 4526 4525 
4598 4599 4608 4607 4517 4518 4527 4526 
4599 4600 4609 4608 4518 4519 4528 4527 
4600 1761 1762 4609 4519 1752 1753 4528 
1681 4601 4610 1682 1672 4520 4529 1673 
4601 4602 4611 4610 4520 4521 4530 4529 
4602 4603 4612 4611 4521 4522 4531 4530 
4603 4604 4613 4612 4522 4523 4532 4531 
4604 4605 4614 4613 4523 4524 4533 4532 
4605 4606 4615 4614 4524 4525 4534 4533 
4606 4607 4616 4615 4525 4526 4535 4534 
4607 4608 4617 4616 4526 4527 4536 4535 
4608 4609 4618 4617 4527 4528 4537 4536 
4609 1762 1763 4618 4528 1753 1754 4537 
1682 4610 4619 1683 1673 4529 4538 1674 
4610 4611 4620 4619 4529 4530 4539 4538 
4611 4612 4621 4620 4530 4531 4540 4539 
4612 4613 4622 4621 4531 4532 4541 4540 
4613 4614 4623 4622 4532 4533 4542 4541 
4614 4615 4624 4623 4533 4534 4543 4542 
4615 4616 4625 4624 4534 4535 4544 4543 
4616 4617 4626 4625 4535 4536 4545 4544 
4617 4618 4627 4626 4536 4537 4546 4545 
4618 1763 1764 4627 4537 1754 1755 4546 
1683 4619 4628 1684 1674 4538 4547 1675 
4619 4620 4629 4628 4538 4539 4548 4547 
4620 4621 4630 4629 4539 4540 4549 4548 
4621 4622 4631 4630 4540 4541 4550 4549 
4622 4623 4632 4631 4541 4542 4551 4550 
4623 4624 4633 4632 4542 4543 4552 4551 
4624 4625 4634 4633 4543 4544 4553 4552 
4625 4626 4635 4634 4544 4545 4554 4553 
4626 4627 4636 4635 4545 4546 4555 4554 
4627 1764 1765 4636 4546 1755 1756 4555 
1684 4628 1838 258 1675 4547 1829 257 
4628 4629 1839 1838 4547 4548 1830 1829 
4629 4630 1840 1839 4548 4549 1831 1830 
4630 4631 1841 1840 4549 4550 1832 1831 
4631 4632 1842 1841 4550 4551 1833 1832 
4632 4633 1843 1842 4551 4552 1834 1833 
4633 4634 1844 1843 4552 4553 1835 1834 
4634 4635 1845 1844 4553 4554 1836 1835 
4635 4636 1846 1845 4554 4555 1837 1836 
4636 1765 267 1846 4555 1756 268 1837 
196 1369 4637 1685 195 1360 4556 1676 
1369 1368 4638 4637 1360 1359 4557 4556 
1368 1367 4639 4638 1359 1358 4558 4557 
1367 1366 4640 4639 1358 1357 4559 4558 
1366 1365 4641 4640 1357 1356 4560 4559 
1365 1364 4642 4641 1356 1355 4561 4560 
1364 1363 4643 4642 1355 1354 4562 4561 
1363 1362 4644 4643 1354 1353 4563 4562 
1362 1361 4645 4644 1353 1352 4564 4563 
1361 176 1766 4645 1352 177 1757 4564 
1685 4637 4646 1686 1676 4556 4565 1677 
4637 4638 4647 4646 4556 4557 4566 4565 
4638 4639 4648 4647 4557 4558 4567 4566 
4639 4640 4649 4648 4558 4559 4568 4567 
4640 4641 4650 4649 4559 4560 4569 4568 
4641 4642 4651 4650 4560 4561 4570 4569 
4642 4643 4652 4651 4561 4562 4571 4570 
4643 4644 4653 4652 4562 4563 4572 4571 
4644 4645 4654 4653 4563 4564 4573 4572 
4645 1766 1767 4654 4564 1757 1758 4573 
1686 4646 4655 1687 1677 4565 4574 1678 
4646 4647 4656 4655 4565 4566 4575 4574 
4647 4648 4657 4656 4566 4567 4576 4575 
4648 4649 4658 4657 4567 4568 4577 4576 
4649 4650 4659 4658 4568 4569 4578 4577 
4650 4651 4660 4659 4569 4570 4579 4578 
4651 4652 4661 4660 4570 4571 4580 4579 
4652 4653 4662 4661 4571 4572 4581 4580 
4653 4654 4663 4662 4572 4573 4582 4581 
4654 1767 1768 4663 4573 1758 1759 4582 
1687 4655 4664 1688 1678 4574 4583 1679 
4655 4656 4665 4664 4574 4575 4584 4583 
4656 4657 4666 4665 4575 4576 4585 4584 
4657 4658 4667 4666 4576 4577 4586 4585 
4658 4659 4668 4667 4577 4578 4587 4586 
4659 4660 4669 4668 4578 4579 4588 4587 
4660 4661 4670 4669 4579 4580 4589 4588 
4661 4662 4671 4670 4580 4581 4590 4589 
4662 4663 4672 4671 4581 4582 4591 4590 
4663 1768 1769 4672 4582 1759 1760 4591 
1688 4664 4673 1689 1679 4583 4592 1680 
4664 4665 4674 4673 4583 4584 4593 4592 
4665 4666 4675 4674 4584 4585 4594 4593 
4666 4667 4676 4675 4585 4586 4595 4594 
4667 4668 4677 4676 4586 4587 4596 4595 
4668 4669 4678 4677 4587 4588 4597 4596 
4669 4670 4679 4678 4588 4589 4598 4597 
4670 4671 4680 4679 4589 4590 4599 4598 
4671 4672 4681 4680 4590 4591 4600 4599 
4672 1769 1770 4681 4591 1760 1761 4600 
1689 4673 4682 1690 1680 4592 4601 1681 
4673 4674 4683 4682 4592 4593 4602 4601 
4674 4675 4684 4683 4593 4594 4603 4602 
4675 4676 4685 4684 4594 4595 4604 4603 
4676 4677 4686 4685 4595 4596 4605 4604 
4677 4678 4687 4686 4596 4597 4606 4605 
4678 4679 4688 4687 4597 4598 4607 4606 
4679 4680 4689 4688 4598 4599 4608 4607 
4680 4681 4690 4689 4599 4600 4609 4608 
4681 1770 1771 4690 4600 1761 1762 4609 
1690 4682 4691 1691 1681 4601 4610 1682 
4682 4683 4692 4691 4601 4602 4611 4610 
4683 4684 4693 4692 4602 4603 4612 4611 
4684 4685 4694 4693 4603 4604 4613 4612 
4685 4686 4695 4694 4604 4605 4614 4613 
4686 4687 4696 4695 4605 4606 4615 4614 
4687 4688 4697 4696 4606 4607 4616 4615 
4688 4689 4698 4697 4607 4608 4617 4616 
4689 4690 4699 4698 4608 4609 4618 4617 
4690 1771 1772 4699 4609 1762 1763 4618 
1691 4691 4700 1692 1682 4610 4619 1683 
4691 4692 4701 4700 4610 4611 4620 4619 
4692 4693 4702 4701 4611 4612 4621 4620 
4693 4694 4703 4702 4612 4613 4622 4621 
4694 4695 4704 4703 4613 4614 4623 4622 
4695 4696 4705 4704 4614 4615 4624 4623 
4696 4697 4706 4705 4615 4616 4625 4624 
4697 4698 4707 4706 4616 4617 4626 4625 
4698 4699 4708 4707 4617 4618 4627 4626 
4699 1772 1773 4708 4618 1763 1764 4627 
1692 4700 4709 1693 1683 4619 4628 1684 
4700 4701 4710 4709 4619 4620 4629 4628 
4701 4702 4711 4710 4620 4621 4630 4629 
4702 4703 4712 4711 4621 4622 4631 4630 
4703 4704 4713 4712 4622 4623 4632 4631 
4704 4705 4714 4713 4623 4624 4633 4632 
4705 4706 4715 4714 4624 4625 4634 4633 
4706 4707 4716 4715 4625 4626 4635 4634 
4707 4708 4717 4716 4626 4627 4636 4635 
4708 1773 1774 4717 4627 1764 1765 4636 
1693 4709 1847 259 1684 4628 1838 258 
4709 4710 1848 1847 4628 4629 1839 1838 
4710 4711 1849 1848 4629 4630 1840 1839 
4711 4712 1850 1849 4630 4631 1841 1840 
4712 4713 1851 1850 4631 4632 1842 1841 
4713 4714 1852 1851 4632 4633 1843 1842 
4714 4715 1853 1852 4633 4634 1844 1843 
4715 4716 1854 1853 4634 4635 1845 1844 
4716 4717 1855 1854 4635 4636 1846 1845 
4717 1774 266 1855 4636 1765 267 1846 
197 1378 4718 1694 196 1369 4637 1685 
1378 1377 4719 4718 1369 1368 4638 4637 
1377 1376 4720 4719 1368 1367 4639 4638 
1376 1375 4721 4720 1367 1366 4640 4639 
1375 1374 4722 4721 1366 1365 4641 4640 
1374 1373 4723 4722 1365 1364 4642 4641 
1373 1372 4724 4723 1364 1363 4643 4642 
1372 1371 4725 4724 1363 1362 4644 4643 
1371 1370 4726 4725 1362 1361 4645 4644 
1370 175 1775 4726 1361 176 1766 4645 
1694 4718 4727 1695 1685 4637 4646 1686 
4718 4719 4728 4727 4637 4638 4647 4646 
4719 4720 4729 4728 4638 4639 4648 4647 
4720 4721 4730 4729 4639 4640 4649 4648 
4721 4722 4731 4730 4640 4641 4650 4649 
4722 4723 4732 4731 4641 4642 4651 4650 
4723 4724 4733 4732 4642 4643 4652 4651 
4724 4725 4734 4733 4643 4644 4653 4652 
4725 4726 4735 4734 4644 4645 4654 4653 
4726 1775 1776 4735 4645 1766 1767 4654 
1695 4727 4736 1696 1686 4646 4655 1687 
4727 4728 4737 4736 4646 4647 4656 4655 
4728 4729 4738 4737 4647 4648 4657 4656 
4729 4730 4739 4738 4648 4649 4658 4657 
4730 4731 4740 4739 4649 4650 4659 4658 
4731 4732 4741 4740 4650 4651 4660 4659 
4732 4733 4742 4741 4651 4652 4661 4660 
4733 4734 4743 4742 4652 4653 4662 4661 
4734 4735 4744 4743 4653 4654 4663 4662 
4735 1776 1777 4744 4654 1767 1768 4663 
1696 4736 4745 1697 1687 4655 4664 1688 
4736 4737 4746 4745 4655 4656 4665 4664 
4737 4738 4747 4746 4656 4657 4666 4665 
4738 4739 4748 4747 4657 4658 4667 4666 
4739 4740 4749 4748 4658 4659 4668 4667 
4740 4741 4750 4749 4659 4660 4669 4668 
4741 4742 4751 4750 4660 4661 4670 4669 
4742 4743 4752 4751 4661 4662 4671 4670 
4743 4744 4753 4752 4662 4663 4672 4671 
4744 1777 1778 4753 4663 1768 1769 4672 
1697 4745 4754 1698 1688 4664 4673 1689 
4745 4746 4755 4754 4664 4665 4674 4673 
4746 4747 4756 4755 4665 4666 4675 4674 
4747 4748 4757 4756 4666 4667 4676 4675 
4748 4749 4758 4757 4667 4668 4677 4676 
4749 4750 4759 4758 4668 4669 4678 4677 
4750 4751 4760 4759 4669 4670 4679 4678 
4751 4752 4761 4760 4670 4671 4680 4679 
4752 4753 4762 4761 4671 4672 4681 4680 
4753 1778 1779 4762 4672 1769 1770 4681 
1698 4754 4763 1699 1689 4673 4682 1690 
4754 4755 4764 4763 4673 4674 4683 4682 
4755 4756 4765 4764 4674 4675 4684 4683 
4756 4757 4766 4765 4675 4676 4685 4684 
4757 4758 4767 4766 4676 4677 4686 4685 
4758 4759 4768 4767 4677 4678 4687 4686 
4759 4760 4769 4768 4678 4679 4688 4687 
4760 4761 4770 4769 4679 4680 4689 4688 
4761 4762 4771 4770 4680 4681 4690 4689 
4762 1779 1780 4771 4681 1770 1771 4690 
1699 4763 4772 1700 1690 4682 4691 1691 
4763 4764 4773 4772 4682 4683 4692 4691 
4764 4765 4774 4773 4683 4684 4693 4692 
4765 4766 4775 4774 4684 4685 4694 4693 
4766 4767 4776 4775 4685 4686 4695 4694 
4767 4768 4777 4776 4686 4687 4696 4695 
4768 4769 4778 4777 4687 4688 4697 4696 
4769 4770 4779 4778 4688 4689 4698 4697 
4770 4771 4780 4779 4689 4690 4699 4698 
4771 1780 1781 4780 4690 1771 1772 4699 
1700 4772 4781 1701 1691 4691 4700 1692 
4772 4773 4782 4781 4691 4692 4701 4700 
4773 4774 4783 4782 4692 4693 4702 4701 
4774 4775 4784 4783 4693 4694 4703 4702 
4775 4776 4785 4784 4694 4695 4704 4703 
4776 4777 4786 4785 4695 4696 4705 4704 
4777 4778 4787 4786 4696 4697 4706 4705 
4778 4779 4788 4787 4697 4698 4707 4706 
4779 4780 4789 4788 4698 4699 4708 4707 
4780 1781 1782 4789 4699 1772 1773 4708 
1701 4781 4790 1702 1692 4700 4709 1693 
4781 4782 4791 4790 4700 4701 4710 4709 
4782 4783 4792 4791 4701 4702 4711 4710 
4783 4784 4793 4792 4702 4703 4712 4711 
4784 4785 4794 4793 4703 4704 4713 4712 
4785 4786 4795 4794 4704 4705 4714 4713 
4786 4787 4796 4795 4705 4706 4715 4714 
4787 4788 4797 4796 4706 4707 4716 4715 
4788 4789 4798 4797 4707 4708 4717 4716 
4789 1782 1783 4798 4708 1773 1774 4717 
1702 4790 1856 260 1693 4709 1847 259 
4790 4791 1857 1856 4709 4710 1848 1847 
4791 4792 1858 1857 4710 4711 1849 1848 
4792 4793 1859 1858 4711 4712 1850 1849 
4793 4794 1860 1859 4712 4713 1851 1850 
4794 4795 1861 1860 4713 4714 1852 1851 
4795 4796 1862 1861 4714 4715 1853 1852 
4796 4797 1863 1862 4715 4716 1854 1853 
4797 4798 1864 1863 4716 4717 1855 1854 
4798 1783 265 1864 4717 1774 266 1855 
198 1387 4799 1703 197 1378 4718 1694 
1387 1386 4800 4799 1378 1377 4719 4718 
1386 1385 4801 4800 1377 1376 4720 4719 
1385 1384 4802 4801 1376 1375 4721 4720 
1384 1383 4803 4802 1375 1374 4722 4721 
1383 1382 4804 4803 1374 1373 4723 4722 
1382 1381 4805 4804 1373 1372 4724 4723 
1381 1380 4806 4805 1372 1371 4725 4724 
1380 1379 4807 4806 1371 1370 4726 4725 
1379 174 1784 4807 1370 175 1775 4726 
1703 4799 4808 1704 1694 4718 4727 1695 
4799 4800 4809 4808 4718 4719 4728 4727 
4800 4801 4810 4809 4719 4720 4729 4728 
4801 4802 4811 4810 4720 4721 4730 4729 
4802 4803 4812 4811 4721 4722 4731 4730 
4803 4804 4813 4812 4722 4723 4732 4731 
4804 4805 4814 4813 4723 4724 4733 4732 
4805 4806 4815 4814 4724 4725 4734 4733 
4806 4807 4816 4815 4725 4726 4735 4734 
4807 1784 1785 4816 4726 1775 1776 4735 
1704 4808 4817 1705 1695 4727 4736 1696 
4808 4809 4818 4817 4727 4728 4737 4736 
4809 4810 4819 4818 4728 4729 4738 4737 
4810 4811 4820 4819 4729 4730 4739 4738 
4811 4812 4821 4820 4730 4731 4740 4739 
4812 4813 4822 4821 4731 4732 4741 4740 
4813 4814 4823 4822 4732 4733 4742 4741 
4814 4815 4824 4823 4733 4734 4743 4742 
4815 4816 4825 4824 4734 4735 4744 4743 
4816 1785 1786 4825 4735 1776 1777 4744 
1705 4817 4826 1706 1696 4736 4745 1697 
4817 4818 4827 4826 4736 4737 4746 4745 
4818 4819 4828 4827 4737 4738 4747 4746 
4819 4820 4829 4828 4738 4739 4748 4747 
4820 4821 4830 4829 4739 4740 4749 4748 
4821 4822 4831 4830 4740 4741 4750 4749 
4822 4823 4832 4831 4741 4742 4751 4750 
4823 4824 4833 4832 4742 4743 4752 4751 
4824 4825 4834 4833 4743 4744 4753 4752 
4825 1786 1787 4834 4744 1777 1778 4753 
1706 4826 4835 1707 1697 4745 4754 1698 
4826 4827 4836 4835 4745 4746 4755 4754 
4827 4828 4837 4836 4746 4747 4756 4755 
4828 4829 4838 4837 4747 4748 4757 4756 
4829 4830 4839 4838 4748 4749 4758 4757 
4830 4831 4840 4839 4749 4750 4759 4758 
4831 4832 4841 4840 4750 4751 4760 4759 
4832 4833 4842 4841 4751 4752 4761 4760 
4833 4834 4843 4842 4752 4753 4762 4761 
4834 1787 1788 4843 4753 1778 1779 4762 
1707 4835 4844 1708 1698 4754 4763 1699 
4835 4836 4845 4844 4754 4755 4764 4763 
4836 4837 4846 4845 4755 4756 4765 4764 
4837 4838 4847 4846 4756 4757 4766 4765 
4838 4839 4848 4847 4757 4758 4767 4766 
4839 4840 4849 4848 4758 4759 4768 4767 
4840 4841 4850 4849 4759 4760 4769 4768 
4841 4842 4851 4850 4760 4761 4770 4769 
4842 4843 4852 4851 4761 4762 4771 4770 
4843 1788 1789 4852 4762 1779 1780 4771 
1708 4844 4853 1709 1699 4763 4772 1700 
4844 4845 4854 4853 4763 4764 4773 4772 
4845 4846 4855 4854 4764 4765 4774 4773 
4846 4847 4856 4855 4765 4766 4775 4774 
4847 4848 4857 4856 4766 4767 4776 4775 
4848 4849 4858 4857 4767 4768 4777 4776 
4849 4850 4859 4858 4768 4769 4778 4777 
4850 4851 4860 4859 4769 4770 4779 4778 
4851 4852 4861 4860 4770 4771 4780 4779 
4852 1789 1790 4861 4771 1780 1781 4780 
1709 4853 4862 1710 1700 4772 4781 1701 
4853 4854 4863 4862 4772 4773 4782 4781 
4854 4855 4864 4863 4773 4774 4783 4782 
4855 4856 4865 4864 4774 4775 4784 4783 
4856 4857 4866 4865 4775 4776 4785 4784 
4857 4858 4867 4866 4776 4777 4786 4785 
4858 4859 4868 4867 4777 4778 4787 4786 
4859 4860 4869 4868 4778 4779 4788 4787 
4860 4861 4870 4869 4779 4780 4789 4788 
4861 1790 1791 4870 4780 1781 1782 4789 
1710 4862 4871 1711 1701 4781 4790 1702 
4862 4863 4872 4871 4781 4782 4791 4790 
4863 4864 4873 4872 4782 4783 4792 4791 
4864 4865 4874 4873 4783 4784 4793 4792 
4865 4866 4875 4874 4784 4785 4794 4793 
4866 4867 4876 4875 4785 4786 4795 4794 
4867 4868 4877 4876 4786 4787 4796 4795 
4868 4869 4878 4877 4787 4788 4797 4796 
4869 4870 4879 4878 4788 4789 4798 4797 
4870 1791 1792 4879 4789 1782 1783 4798 
1711 4871 1865 261 1702 4790 1856 260 
4871 4872 1866 1865 4790 4791 1857 1856 
4872 4873 1867 1866 4791 4792 1858 1857 
4873 4874 1868 1867 4792 4793 1859 1858 
4874 4875 1869 1868 4793 4794 1860 1859 
4875 4876 1870 1869 4794 4795 1861 1860 
4876 4877 1871 1870 4795 4796 1862 1861 
4877 4878 1872 1871 4796 4797 1863 1862 
4878 4879 1873 1872 4797 4798 1864 1863 
4879 1792 264 1873 4798 1783 265 1864 
199 1396 4880 1712 198 1387 4799 1703 
1396 1395 4881 4880 1387 1386 4800 4799 
1395 1394 4882 4881 1386 1385 4801 4800 
1394 1393 4883 4882 1385 1384 4802 4801 
1393 1392 4884 4883 1384 1383 4803 4802 
1392 1391 4885 4884 1383 1382 4804 4803 
1391 1390 4886 4885 1382 1381 4805 4804 
1390 1389 4887 4886 1381 1380 4806 4805 
1389 1388 4888 4887 1380 1379 4807 4806 
1388 173 1793 4888 1379 174 1784 4807 
1712 4880 4889 1713 1703 4799 4808 1704 
4880 4881 4890 4889 4799 4800 4809 4808 
4881 4882 4891 4890 4800 4801 4810 4809 
4882 4883 4892 4891 4801 4802 4811 4810 
4883 4884 4893 4892 4802 4803 4812 4811 
4884 4885 4894 4893 4803 4804 4813 4812 
4885 4886 4895 4894 4804 4805 4814 4813 
4886 4887 4896 4895 4805 4806 4815 4814 
4887 4888 4897 4896 4806 4807 4816 4815 
4888 1793 1794 4897 4807 1784 1785 4816 
1713 4889 4898 1714 1704 4808 4817 1705 
4889 4890 4899 4898 4808 4809 4818 4817 
4890 4891 4900 4899 4809 4810 4819 4818 
4891 4892 4901 4900 4810 4811 4820 4819 
4892 4893 4902 4901 4811 4812 4821 4820 
4893 4894 4903 4902 4812 4813 4822 4821 
4894 4895 4904 4903 4813 4814 4823 4822 
4895 4896 4905 4904 4814 4815 4824 4823 
4896 4897 4906 4905 4815 4816 4825 4824 
4897 1794 1795 4906 4816 1785 1786 4825 
1714 4898 4907 1715 1705 4817 4826 1706 
4898 4899 4908 4907 4817 4818 4827 4826 
4899 4900 4909 4908 4818 4819 4828 4827 
4900 4901 4910 4909 4819 4820 4829 4828 
4901 4902 4911 4910 4820 4821 4830 4829 
4902 4903 4912 4911 4821 4822 4831 4830 
4903 4904 4913 4912 4822 4823 4832 4831 
4904 4905 4914 4913 4823 4824 4833 4832 
4905 4906 4915 4914 4824 4825 4834 4833 
4906 1795 1796 4915 4825 1786 1787 4834 
1715 4907 4916 1716 1706 4826 4835 1707 
4907 4908 4917 4916 4826 4827 4836 4835 
4908 4909 4918 4917 4827 4828 4837 4836 
4909 4910 4919 4918 4828 4829 4838 4837 
4910 4911 4920 4919 4829 4830 4839 4838 
4911 4912 4921 4920 4830 4831 4840 4839 
4912 4913 4922 4921 4831 4832 4841 4840 
4913 4914 4923 4922 4832 4833 4842 4841 
4914 4915 4924 4923 4833 4834 4843 4842 
4915 1796 1797 4924 4834 1787 1788 4843 
1716 4916 4925 1717 1707 4835 4844 1708 
4916 4917 4926 4925 4835 4836 4845 4844 
4917 4918 4927 4926 4836 4837 4846 4845 
4918 4919 4928 4927 4837 4838 4847 4846 
4919 4920 4929 4928 4838 4839 4848 4847 
4920 4921 4930 4929 4839 4840 4849 4848 
4921 4922 4931 4930 4840 4841 4850 4849 
4922 4923 4932 4931 4841 4842 4851 4850 
4923 4924 4933 4932 4842 4843 4852 4851 
4924 1797 1798 4933 4843 1788 1789 4852 
1717 4925 4934 1718 1708 4844 4853 1709 
4925 4926 4935 4934 4844 4845 4854 4853 
4926 4927 4936 4935 4845 4846 4855 4854 
4927 4928 4937 4936 4846 4847 4856 4855 
4928 4929 4938 4937 4847 4848 4857 4856 
4929 4930 4939 4938 4848 4849 4858 4857 
4930 4931 4940 4939 4849 4850 4859 4858 
4931 4932 4941 4940 4850 4851 4860 4859 
4932 4933 4942 4941 4851 4852 4861 4860 
4933 1798 1799 4942 4852 1789 1790 4861 
1718 4934 4943 1719 1709 4853 4862 1710 
4934 4935 4944 4943 4853 4854 4863 4862 
4935 4936 4945 4944 4854 4855 4864 4863 
4936 4937 4946 4945 4855 4856 4865 4864 
4937 4938 4947 4946 4856 4857 4866 4865 
4938 4939 4948 4947 4857 4858 4867 4866 
4939 4940 4949 4948 4858 4859 4868 4867 
4940 4941 4950 4949 4859 4860 4869 4868 
4941 4942 4951 4950 4860 4861 4870 4869 
4942 1799 1800 4951 4861 1790 1791 4870 
1719 4943 4952 1720 1710 4862 4871 1711 
4943 4944 4953 4952 4862 4863 4872 4871 
4944 4945 4954 4953 4863 4864 4873 4872 
4945 4946 4955 4954 4864 4865 4874 4873 
4946 4947 4956 4955 4865 4866 4875 4874 
4947 4948 4957 4956 4866 4867 4876 4875 
4948 4949 4958 4957 4867 4868 4877 4876 
4949 4950 4959 4958 4868 4869 4878 4877 
4950 4951 4960 4959 4869 4870 4879 4878 
4951 1800 1801 4960 4870 1791 1792 4879 
1720 4952 1874 262 1711 4871 1865 261 
4952 4953 1875 1874 4871 4872 1866 1865 
4953 4954 1876 1875 4872 4873 1867 1866 
4954 4955 1877 1876 4873 4874 1868 1867 
4955 4956 1878 1877 4874 4875 1869 1868 
4956 4957 1879 1878 4875 4876 1870 1869 
4957 4958 1880 1879 4876 4877 1871 1870 
4958 4959 1881 1880 4877 4878 1872 1871 
4959 4960 1882 1881 4878 4879 1873 1872 
4960 1801 263 1882 4879 1792 264 1873 
4 88 1559 245 199 1396 4880 1712 
88 89 1560 1559 1396 1395 4881 4880 
89 90 1561 1560 1395 1394 4882 4881 
90 91 1562 1561 1394 1393 4883 4882 
91 92 1563 1562 1393 1392 4884 4883 
92 93 1564 1563 1392 1391 4885 4884 
93 94 1565 1564 1391 1390 4886 4885 
94 95 1566 1565 1390 1389 4887 4886 
95 96 1567 1566 1389 1388 4888 4887 
96 7 235 1567 1388 173 1793 4888 
245 1559 1568 246 1712 4880 4889 1713 
1559 1560 1569 1568 4880 4881 4890 4889 
1560 1561 1570 1569 4881 4882 4891 4890 
1561 1562 1571 1570 4882 4883 4892 4891 
1562 1563 1572 1571 4883 4884 4893 4892 
1563 1564 1573 1572 4884 4885 4894 4893 
1564 1565 1574 1573 4885 4886 4895 4894 
1565 1566 1575 1574 4886 4887 4896 4895 
1566 1567 1576 1575 4887 4888 4897 4896 
1567 235 234 1576 4888 1793 1794 4897 
246 1568 1577 247 1713 4889 4898 1714 
1568 1569 1578 1577 4889 4890 4899 4898 
1569 1570 1579 1578 4890 4891 4900 4899 
1570 1571 1580 1579 4891 4892 4901 4900 
1571 1572 1581 1580 4892 4893 4902 4901 
1572 1573 1582 1581 4893 4894 4903 4902 
1573 1574 1583 1582 4894 4895 4904 4903 
1574 1575 1584 1583 4895 4896 4905 4904 
1575 1576 1585 1584 4896 4897 4906 4905 
1576 234 233 1585 4897 1794 1795 4906 
247 1577 1586 248 1714 4898 4907 1715 
1577 1578 1587 1586 4898 4899 4908 4907 
1578 1579 1588 1587 4899 4900 4909 4908 
1579 1580 1589 1588 4900 4901 4910 4909 
1580 1581 1590 1589 4901 4902 4911 4910 
1581 1582 1591 1590 4902 4903 4912 4911 
1582 1583 1592 1591 4903 4904 4913 4912 
1583 1584 1593 1592 4904 4905 4914 4913 
1584 1585 1594 1593 4905 4906 4915 4914 
1585 233 232 1594 4906 1795 1796 4915 
248 1586 1595 249 1715 4907 4916 1716 
1586 1587 1596 1595 4907 4908 4917 4916 
1587 1588 1597 1596 4908 4909 4918 4917 
1588 1589 1598 1597 4909 4910 4919 4918 
1589 1590 1599 1598 4910 4911 4920 4919 
1590 1591 1600 1599 4911 4912 4921 4920 
1591 1592 1601 1600 4912 4913 4922 4921 
1592 1593 1602 1601 4913 4914 4923 4922 
1593 1594 1603 1602 4914 4915 4924 4923 
1594 232 231 1603 4915 1796 1797 4924 
249 1595 1604 250 1716 4916 4925 1717 
1595 1596 1605 1604 4916 4917 4926 4925 
1596 1597 1606 1605 4917 4918 4927 4926 
1597 1598 1607 1606 4918 4919 4928 4927 
1598 1599 1608 1607 4919 4920 4929 4928 
1599 1600 1609 1608 4920 4921 4930 4929 
1600 1601 1610 1609 4921 4922 4931 4930 
1601 1602 1611 1610 4922 4923 4932 4931 
1602 1603 1612 1611 4923 4924 4933 4932 
1603 231 230 1612 4924 1797 1798 4933 
250 1604 1613 251 1717 4925 4934 1718 
1604 1605 1614 1613 4925 4926 4935 4934 
1605 1606 1615 1614 4926 4927 4936 4935 
1606 1607 1616 1615 4927 4928 4937 4936 
1607 1608 1617 1616 4928 4929 4938 4937 
1608 1609 1618 1617 4929 4930 4939 4938 
1609 1610 1619 1618 4930 4931 4940 4939 
1610 1611 1620 1619 4931 4932 4941 4940 
1611 1612 1621 1620 4932 4933 4942 4941 
1612 230 229 1621 4933 1798 1799 4942 
251 1613 1622 252 1718 4934 4943 1719 
1613 1614 1623 1622 4934 4935 4944 4943 
1614 1615 1624 1623 4935 4936 4945 4944 
1615 1616 1625 1624 4936 4937 4946 4945 
1616 1617 1626 1625 4937 4938 4947 4946 
1617 1618 1627 1626 4938 4939 4948 4947 
1618 1619 1628 1627 4939 4940 4949 4948 
1619 1620 1629 1628 4940 4941 4950 4949 
1620 1621 1630 1629 4941 4942 4951 4950 
1621 229 228 1630 4942 1799 1800 4951 
252 1622 1631 253 1719 4943 4952 1720 
1622 1623 1632 1631 4943 4944 4953 4952 
1623 1624 1633 1632 4944 4945 4954 4953 
1624 1625 1634 1633 4945 4946 4955 4954 
1625 1626 1635 1634 4946 4947 4956 4955 
1626 1627 1636 1635 4947 4948 4957 4956 
1627 1628 1637 1636 4948 4949 4958 4957 
1628 1629 1638 1637 4949 4950 4959 4958 
1629 1630 1639 1638 4950 4951 4960 4959 
1630 228 227 1639 4951 1800 1801 4960 
253 1631 236 11 1720 4952 1874 262 
1631 1632 237 236 4952 4953 1875 1874 
1632 1633 238 237 4953 4954 1876 1875 
1633 1634 239 238 4954 4955 1877 1876 
1634 1635 240 239 4955 4956 1878 1877 
1635 1636 241 240 4956 4957 1879 1878 
1636 1637 242 241 4957 4958 1880 1879 
1637 1638 243 242 4958 4959 1881 1880 
1638 1639 244 243 4959 4960 1882 1881 
1639 227 10 244 4960 1801 263 1882 
</DataArray>
<DataArray type="UInt32" Name="offsets" NumberOfComponents="1" format="ascii" >
8
16
24
32
40
48
56
64
72
80
88
96
104
112
120
128
136
144
152
160
168
176
184
192
200
208
216
224
232
240
248
256
264
272
280
288
296
304
312
320
328
336
344
352
360
368
376
384
392
400
408
416
424
432
440
448
456
464
472
480
488
496
504
512
520
528
536
544
552
560
568
576
584
592
600
608
616
624
632
640
648
656
664
672
680
688
696
704
712
720
728
736
744
752
760
768
776
784
792
800
808
816
824
832
840
848
856
864
872
880
888
896
904
912
920
928
936
944
952
960
968
976
984
992
1000
1008
1016
1024
1032
1040
1048
1056
1064
1072
1080
1088
1096
1104
1112
1120
1128
1136
1144
1152
1160
1168
1176
1184
1192
1200
1208
1216
1224
1232
1240
1248
1256
1264
1272
1280
1288
1296
1304
1312
1320
1328
1336
1344
1352
1360
1368
1376
1384
1392
1400
1408
1416
1424
1432
1440
1448
1456
1464
1472
1480
1488
1496
1504
1512
1520
1528
1536
1544
1552
1560
1568
1576
1584
1592
1600
1608
1616
1624
1632
1640
1648
1656
1664
1672
1680
1688
1696
1704
1712
1720
1728
1736
1744
1752
1760
1768
1776
1784
1792
1800
1808
1816
1824
1832
1840
1848
1856
1864
1872
1880
1888
1896
1904
1912
1920
1928
1936
1944
1952
1960
1968
1976
1984
1992
2000
2008
2016
2024
2032
2040
2048
2056
2064
2072
2080
2088
2096
2104
2112
2120
2128
2136
2144
2152
2160
2168
2176
2184
2192
2200
2208
2216
2224
2232
2240
2248
2256
2264
2272
2280
2288
2296
2304
2312
2320
2328
2336
2344
2352
2360
2368
2376
2384
2392
2400
2408
2416
2424
2432
2440
2448
2456
2464
2472
2480
2488
2496
2504
2512
2520
2528
2536
2544
2552
2560
2568
2576
2584
2592
2600
2608
2616
2624
2632
2640
2648
2656
2664
2672
2680
2688
2696
2704
2712
2720
2728
2736
2744
2752
2760
2768
2776
2784
2792
2800
2808
2816
2824
2832
2840
2848
2856
2864
2872
2880
2888
2896
2904
2912
2920
2928
2936
2944
2952
2960
2968
2976
2984
2992
3000
3008
3016
3024
3032
3040
3048
3056
3064
3072
3080
3088
3096
3104
3112
3120
3128
3136
3144
3152
3160
3168
3176
3184
3192
3200
3208
3216
3224
3232
3240
3248
3256
3264
3272
3280
3288
3296
3304
3312
3320
3328
3336
3344
3352
3360
3368
3376
3384
3392
3400
3408
3416
3424
3432
3440
3448
3456
3464
3472
3480
3488
3496
3504
3512
3520
3528
3536
3544
3552
3560
3568
3576
3584
3592
3600
3608
3616
3624
3632
3640
3648
3656
3664
3672
3680
3688
3696
3704
3712
3720
3728
3736
3744
3752
3760
3768
3776
3784
3792
3800
3808
3816
3824
3832
3840
3848
3856
3864
3872
3880
3888
3896
3904
3912
3920
3928
3936
3944
3952
3960
3968
3976
3984
3992
4000
4008
4016
4024
4032
4040
4048
4056
4064
4072
4080
4088
4096
4104
4112
4120
4128
4136
4144
4152
4160
4168
4176
4184
4192
4200
4208
4216
4224
4232
4240
4248
4256
4264
4272
4280
4288
4296
4304
4312
4320
4328
4336
4344
4352
4360
4368
4376
4384
4392
4400
4408
4416
4424
4432
4440
4448
4456
4464
4472
4480
4488
4496
4504
4512
4520
4528
4536
4544
4552
4560
4568
4576
4584
4592
4600
4608
4616
4624
4632
4640
4648
4656
4664
4672
4680
4688
4696
4704
4712
4720
4728
4736
4744
4752
4760
4768
4776
4784
4792
4800
4808
4816
4824
4832
4840
4848
4856
4864
4872
4880
4888
4896
4904
4912
4920
4928
4936
4944
4952
4960
4968
4976
4984
4992
5000
5008
5016
5024
5032
5040
5048
5056
5064
5072
5080
5088
5096
5104
5112
5120
5128
5136
5144
5152
5160
5168
5176
5184
5192
5200
5208
5216
5224
5232
5240
5248
5256
5264
5272
5280
5288
5296
5304
5312
5320
5328
5336
5344
5352
5360
5368
5376
5384
5392
5400
5408
5416
5424
5432
5440
5448
5456
5464
5472
5480
5488
5496
5504
5512
5520
5528
5536
5544
5552
5560
5568
5576
5584
5592
5600
5608
5616
5624
5632
5640
5648
5656
5664
5672
5680
5688
5696
5704
5712
5720
5728
5736
5744
5752
5760
5768
5776
5784
5792
5800
5808
5816
5824
5832
5840
5848
5856
5864
5872
5880
5888
5896
5904
5912
5920
5928
5936
5944
5952
5960
5968
5976
5984
5992
6000
6008
6016
6024
6032
6040
6048
6056
6064
6072
6080
6088
6096
6104
6112
6120
6128
6136
6144
6152
6160
6168
6176
6184
6192
6200
6208
6216
6224
6232
6240
6248
6256
6264
6272
6280
6288
6296
6304
6312
6320
6328
6336
6344
6352
6360
6368
6376
6384
6392
6400
6408
6416
6424
6432
6440
6448
6456
6464
6472
6480
6488
6496
6504
6512
6520
6528
6536
6544
6552
6560
6568
6576
6584
6592
6600
6608
6616
6624
6632
6640
6648
6656
6664
6672
6680
6688
6696
6704
6712
6720
6728
6736
6744
6752
6760
6768
6776
6784
6792
6800
6808
6816
6824
6832
6840
6848
6856
6864
6872
6880
6888
6896
6904
6912
6920
6928
6936
6944
6952
6960
6968
6976
6984
6992
7000
7008
7016
7024
7032
7040
7048
7056
7064
7072
7080
7088
7096
7104
7112
7120
7128
7136
7144
7152
7160
7168
7176
7184
7192
7200
7208
7216
7224
7232
7240
7248
7256
7264
7272
7280
7288
7296
7304
7312
7320
7328
7336
7344
7352
7360
7368
7376
7384
7392
7400
7408
7416
7424
7432
7440
7448
7456
7464
7472
7480
7488
7496
7504
7512
7520
7528
7536
7544
7552
7560
7568
7576
7584
7592
7600
7608
7616
7624
7632
7640
7648
7656
7664
7672
7680
7688
7696
7704
7712
7720
7728
7736
7744
7752
7760
7768
7776
7784
7792
7800
7808
7816
7824
7832
7840
7848
7856
7864
7872
7880
7888
7896
7904
7912
7920
7928
7936
7944
7952
7960
7968
7976
7984
7992
8000
8008
8016
8024
8032
8040
8048
8056
8064
8072
8080
8088
8096
8104
8112
8120
8128
8136
8144
8152
8160
8168
8176
8184
8192
8200
8208
8216
8224
8232
8240
8248
8256
8264
8272
8280
8288
8296
8304
8312
8320
8328
8336
8344
8352
8360
8368
8376
8384
8392
8400
8408
8416
8424
8432
8440
8448
8456
8464
8472
8480
8488
8496
8504
8512
8520
8528
8536
8544
8552
8560
8568
8576
8584
8592
8600
8608
8616
8624
8632
8640
8648
8656
8664
8672
8680
8688
8696
8704
8712
8720
8728
8736
8744
8752
8760
8768
8776
8784
8792
8800
8808
8816
8824
8832
8840
8848
8856
8864
8872
8880
8888
8896
8904
8912
8920
8928
8936
8944
8952
8960
8968
8976
8984
8992
9000
9008
9016
9024
9032
9040
9048
9056
9064
9072
9080
9088
9096
9104
9112
9120
9128
9136
9144
9152
9160
9168
9176
9184
9192
9200
9208
9216
9224
9232
9240
9248
9256
9264
9272
9280
9288
9296
9304
9312
9320
9328
9336
9344
9352
9360
9368
9376
9384
9392
9400
9408
9416
9424
9432
9440
9448
9456
9464
9472
9480
9488
9496
9504
9512
9520
9528
9536
9544
9552
9560
9568
9576
9584
9592
9600
9608
9616
9624
9632
9640
9648
9656
9664
9672
9680
9688
9696
9704
9712
9720
9728
9736
9744
9752
9760
9768
9776
9784
9792
9800
9808
9816
9824
9832
9840
9848
9856
9864
9872
9880
9888
9896
9904
9912
9920
9928
9936
9944
9952
9960
9968
9976
9984
9992
10000
10008
10016
10024
10032
10040
10048
10056
10064
10072
10080
10088
10096
10104
10112
10120
10128
10136
10144
10152
10160
10168
10176
10184
10192
10200
10208
10216
10224
10232
10240
10248
10256
10264
10272
10280
10288
10296
10304
10312
10320
10328
10336
10344
10352
10360
10368
10376
10384
10392
10400
10408
10416
10424
10432
10440
10448
10456
10464
10472
10480
10488
10496
10504
10512
10520
10528
10536
10544
10552
10560
10568
10576
10584
10592
10600
10608
10616
10624
10632
10640
10648
10656
10664
10672
10680
10688
10696
10704
10712
10720
10728
10736
10744
10752
10760
10768
10776
10784
10792
10800
10808
10816
10824
10832
10840
10848
10856
10864
10872
10880
10888
10896
10904
10912
10920
10928
10936
10944
10952
10960
10968
10976
10984
10992
11000
11008
11016
11024
11032
11040
11048
11056
11064
11072
11080
11088
11096
11104
11112
11120
11128
11136
11144
11152
11160
11168
11176
11184
11192
11200
11208
11216
11224
11232
11240
11248
11256
11264
11272
11280
11288
11296
11304
11312
11320
11328
11336
11344
11352
11360
11368
11376
11384
11392
11400
11408
11416
11424
11432
11440
11448
11456
11464
11472
11480
11488
11496
11504
11512
11520
11528
11536
11544
11552
11560
11568
11576
11584
11592
11600
11608
11616
11624
11632
11640
11648
11656
11664
11672
11680
11688
11696
11704
11712
11720
11728
11736
11744
11752
11760
11768
11776
11784
11792
11800
11808
11816
11824
11832
11840
11848
11856
11864
11872
11880
11888
11896
11904
11912
11920
11928
11936
11944
11952
11960
11968
11976
11984
11992
12000
12008
12016
12024
12032
12040
12048
12056
12064
12072
12080
12088
12096
12104
12112
12120
12128
12136
12144
12152
12160
12168
12176
12184
12192
12200
12208
12216
12224
12232
12240
12248
12256
12264
12272
12280
12288
12296
12304
12312
12320
12328
12336
12344
12352
12360
12368
12376
12384
12392
12400
12408
12416
12424
12432
12440
12448
12456
12464
12472
12480
12488
12496
12504
12512
12520
12528
12536
12544
12552
12560
12568
12576
12584
12592
12600
12608
12616
12624
12632
12640
12648
12656
12664
12672
12680
12688
12696
12704
12712
12720
12728
12736
12744
12752
12760
12768
12776
12784
12792
12800
12808
12816
12824
12832
12840
12848
12856
12864
12872
12880
12888
12896
12904
12912
12920
12928
12936
12944
12952
12960
12968
12976
12984
12992
13000
13008
13016
13024
13032
13040
13048
13056
13064
13072
13080
13088
13096
13104
13112
13120
13128
13136
13144
13152
13160
13168
13176
13184
13192
13200
13208
13216
13224
13232
13240
13248
13256
13264
13272
13280
13288
13296
13304
13312
13320
13328
13336
13344
13352
13360
13368
13376
13384
13392
13400
13408
13416
13424
13432
13440
13448
13456
13464
13472
13480
13488
13496
13504
13512
13520
13528
13536
13544
13552
13560
13568
13576
13584
13592
13600
13608
13616
13624
13632
13640
13648
13656
13664
13672
13680
13688
13696
13704
13712
13720
13728
13736
13744
13752
13760
13768
13776
13784
13792
13800
13808
13816
13824
13832
13840
13848
13856
13864
13872
13880
13888
13896
13904
13912
13920
13928
13936
13944
13952
13960
13968
13976
13984
13992
14000
14008
14016
14024
14032
14040
14048
14056
14064
14072
14080
14088
14096
14104
14112
14120
14128
14136
14144
14152
14160
14168
14176
14184
14192
14200
14208
14216
14224
14232
14240
14248
14256
14264
14272
14280
14288
14296
14304
14312
14320
14328
14336
14344
14352
14360
14368
14376
14384
14392
14400
14408
14416
14424
14432
14440
14448
14456
14464
14472
14480
14488
14496
14504
14512
14520
14528
14536
14544
14552
14560
14568
14576
14584
14592
14600
14608
14616
14624
14632
14640
14648
14656
14664
14672
14680
14688
14696
14704
14712
14720
14728
14736
14744
14752
14760
14768
14776
14784
14792
14800
14808
14816
14824
14832
14840
14848
14856
14864
14872
14880
14888
14896
14904
14912
14920
14928
14936
14944
14952
14960
14968
14976
14984
14992
15000
15008
15016
15024
15032
15040
15048
15056
15064
15072
15080
15088
15096
15104
15112
15120
15128
15136
15144
15152
15160
15168
15176
15184
15192
15200
15208
15216
15224
15232
15240
15248
15256
15264
15272
15280
15288
15296
15304
15312
15320
15328
15336
15344
15352
15360
15368
15376
15384
15392
15400
15408
15416
15424
15432
15440
15448
15456
15464
15472
15480
15488
15496
15504
15512
15520
15528
15536
15544
15552
15560
15568
15576
15584
15592
15600
15608
15616
15624
15632
15640
15648
15656
15664
15672
15680
15688
15696
15704
15712
15720
15728
15736
15744
15752
15760
15768
15776
15784
15792
15800
15808
15816
15824
15832
15840
15848
15856
15864
15872
15880
15888
15896
15904
15912
15920
15928
15936
15944
15952
15960
15968
15976
15984
15992
16000
16008
16016
16024
16032
16040
16048
16056
16064
16072
16080
16088
16096
16104
16112
16120
16128
16136
16144
16152
16160
16168
16176
16184
16192
16200
16208
16216
16224
16232
16240
16248
16256
16264
16272
16280
16288
16296
16304
16312
16320
16328
16336
16344
16352
16360
16368
16376
16384
16392
16400
16408
16416
16424
16432
16440
16448
16456
16464
16472
16480
16488
16496
16504
16512
16520
16528
16536
16544
16552
16560
16568
16576
16584
16592
16600
16608
16616
16624
16632
16640
16648
16656
16664
16672
16680
16688
16696
16704
16712
16720
16728
16736
16744
16752
16760
16768
16776
16784
16792
16800
16808
16816
16824
16832
16840
16848
16856
16864
16872
16880
16888
16896
16904
16912
16920
16928
16936
16944
16952
16960
16968
16976
16984
16992
17000
17008
17016
17024
17032
17040
17048
17056
17064
17072
17080
17088
17096
17104
17112
17120
17128
17136
17144
17152
17160
17168
17176
17184
17192
17200
17208
17216
17224
17232
17240
17248
17256
17264
17272
17280
17288
17296
17304
17312
17320
17328
17336
17344
17352
17360
17368
17376
17384
17392
17400
17408
17416
17424
17432
17440
17448
17456
17464
17472
17480
17488
17496
17504
17512
17520
17528
17536
17544
17552
17560
17568
17576
17584
17592
17600
17608
17616
17624
17632
17640
17648
17656
17664
17672
17680
17688
17696
17704
17712
17720
17728
17736
17744
17752
17760
17768
17776
17784
17792
17800
17808
17816
17824
17832
17840
17848
17856
17864
17872
17880
17888
17896
17904
17912
17920
17928
17936
17944
17952
17960
17968
17976
17984
17992
18000
18008
18016
18024
18032
18040
18048
18056
18064
18072
18080
18088
18096
18104
18112
18120
18128
18136
18144
18152
18160
18168
18176
18184
18192
18200
18208
18216
18224
18232
18240
18248
18256
18264
18272
18280
18288
18296
18304
18312
18320
18328
18336
18344
18352
18360
18368
18376
18384
18392
18400
18408
18416
18424
18432
18440
18448
18456
18464
18472
18480
18488
18496
18504
18512
18520
18528
18536
18544
18552
18560
18568
18576
18584
18592
18600
18608
18616
18624
18632
18640
18648
18656
18664
18672
18680
18688
18696
18704
18712
18720
18728
18736
18744
18752
18760
18768
18776
18784
18792
18800
18808
18816
18824
18832
18840
18848
18856
18864
18872
18880
18888
18896
18904
18912
18920
18928
18936
18944
18952
18960
18968
18976
18984
18992
19000
19008
19016
19024
19032
19040
19048
19056
19064
19072
19080
19088
19096
19104
19112
19120
19128
19136
19144
19152
19160
19168
19176
19184
19192
19200
19208
19216
19224
19232
19240
19248
19256
19264
19272
19280
19288
19296
19304
19312
19320
19328
19336
19344
19352
19360
19368
19376
19384
19392
19400
19408
19416
19424
19432
19440
19448
19456
19464
19472
19480
19488
19496
19504
19512
19520
19528
19536
19544
19552
19560
19568
19576
19584
19592
19600
19608
19616
19624
19632
19640
19648
19656
19664
19672
19680
19688
19696
19704
19712
19720
19728
19736
19744
19752
19760
19768
19776
19784
19792
19800
19808
19816
19824
19832
19840
19848
19856
19864
19872
19880
19888
19896
19904
19912
19920
19928
19936
19944
19952
19960
19968
19976
19984
19992
20000
20008
20016
20024
20032
20040
20048
20056
20064
20072
20080
20088
20096
20104
20112
20120
20128
20136
20144
20152
20160
20168
20176
20184
20192
20200
20208
20216
20224
20232
20240
20248
20256
20264
20272
20280
20288
20296
20304
20312
20320
20328
20336
20344
20352
20360
20368
20376
20384
20392
20400
20408
20416
20424
20432
20440
20448
20456
20464
20472
20480
20488
20496
20504
20512
20520
20528
20536
20544
20552
20560
20568
20576
20584
20592
20600
20608
20616
20624
20632
20640
20648
20656
20664
20672
20680
20688
20696
20704
20712
20720
20728
20736
20744
20752
20760
20768
20776
20784
20792
20800
20808
20816
20824
20832
20840
20848
20856
20864
20872
20880
20888
20896
20904
20912
20920
20928
20936
20944
20952
20960
20968
20976
20984
20992
21000
21008
21016
21024
21032
21040
21048
21056
21064
21072
21080
21088
21096
21104
21112
21120
21128
21136
21144
21152
21160
21168
21176
21184
21192
21200
21208
21216
21224
21232
21240
21248
21256
21264
21272
21280
21288
21296
21304
21312
21320
21328
21336
21344
21352
21360
21368
21376
21384
21392
21400
21408
21416
21424
21432
21440
21448
21456
21464
21472
21480
21488
21496
21504
21512
21520
21528
21536
21544
21552
21560
21568
21576
21584
21592
21600
21608
21616
21624
21632
21640
21648
21656
21664
21672
21680
21688
21696
21704
21712
21720
21728
21736
21744
21752
21760
21768
21776
21784
21792
21800
21808
21816
21824
21832
21840
21848
21856
21864
21872
21880
21888
21896
21904
21912
21920
21928
21936
21944
21952
21960
21968
21976
21984
21992
22000
22008
22016
22024
22032
22040
22048
22056
22064
22072
22080
22088
22096
22104
22112
22120
22128
22136
22144
22152
22160
22168
22176
22184
22192
22200
22208
22216
22224
22232
22240
22248
22256
22264
22272
22280
22288
22296
22304
22312
22320
22328
22336
22344
22352
22360
22368
22376
22384
22392
22400
22408
22416
22424
22432
22440
22448
22456
22464
22472
22480
22488
22496
22504
22512
22520
22528
22536
22544
22552
22560
22568
22576
22584
22592
22600
22608
22616
22624
22632
22640
22648
22656
22664
22672
22680
22688
22696
22704
22712
22720
22728
22736
22744
22752
22760
22768
22776
22784
22792
22800
22808
22816
22824
22832
22840
22848
22856
22864
22872
22880
22888
22896
22904
22912
22920
22928
22936
22944
22952
22960
22968
22976
22984
22992
23000
23008
23016
23024
23032
23040
23048
23056
23064
23072
23080
23088
23096
23104
23112
23120
23128
23136
23144
23152
23160
23168
23176
23184
23192
23200
23208
23216
23224
23232
23240
23248
23256
23264
23272
23280
23288
23296
23304
23312
23320
23328
23336
23344
23352
23360
23368
23376
23384
23392
23400
23408
23416
23424
23432
23440
23448
23456
23464
23472
23480
23488
23496
23504
23512
23520
23528
23536
23544
23552
23560
23568
23576
23584
23592
23600
23608
23616
23624
23632
23640
23648
23656
23664
23672
23680
23688
23696
23704
23712
23720
23728
23736
23744
23752
23760
23768
23776
23784
23792
23800
23808
23816
23824
23832
23840
23848
23856
23864
23872
23880
23888
23896
23904
23912
23920
23928
23936
23944
23952
23960
23968
23976
23984
23992
24000
24008
24016
24024
24032
24040
24048
24056
24064
24072
24080
24088
24096
24104
24112
24120
24128
24136
24144
24152
24160
24168
24176
24184
24192
24200
24208
24216
24224
24232
24240
24248
24256
24264
24272
24280
24288
24296
24304
24312
24320
24328
24336
24344
24352
24360
24368
24376
24384
24392
24400
24408
24416
24424
24432
24440
24448
24456
24464
24472
24480
24488
24496
24504
24512
24520
24528
24536
24544
24552
24560
24568
24576
24584
24592
24600
24608
24616
24624
24632
24640
24648
24656
24664
24672
24680
24688
24696
24704
24712
24720
24728
24736
24744
24752
24760
24768
24776
24784
24792
24800
24808
24816
24824
24832
24840
24848
24856
24864
24872
24880
24888
24896
24904
24912
24920
24928
24936
24944
24952
24960
24968
24976
24984
24992
25000
25008
25016
25024
25032
25040
25048
25056
25064
25072
25080
25088
25096
25104
25112
25120
25128
25136
25144
25152
25160
25168
25176
25184
25192
25200
25208
25216
25224
25232
25240
25248
25256
25264
25272
25280
25288
25296
25304
25312
25320
25328
25336
25344
25352
25360
25368
25376
25384
25392
25400
25408
25416
25424
25432
25440
25448
25456
25464
25472
25480
25488
25496
25504
25512
25520
25528
25536
25544
25552
25560
25568
25576
25584
25592
25600
25608
25616
25624
25632
25640
25648
25656
25664
25672
25680
25688
25696
25704
25712
25720
25728
25736
25744
25752
25760
25768
25776
25784
25792
25800
25808
25816
25824
25832
25840
25848
25856
25864
25872
25880
25888
25896
25904
25912
25920
25928
25936
25944
25952
25960
25968
25976
25984
25992
26000
26008
26016
26024
26032
26040
26048
26056
26064
26072
26080
26088
26096
26104
26112
26120
26128
26136
26144
26152
26160
26168
26176
26184
26192
26200
26208
26216
26224
26232
26240
26248
26256
26264
26272
26280
26288
26296
26304
26312
26320
26328
26336
26344
26352
26360
26368
26376
26384
26392
26400
26408
26416
26424
26432
26440
26448
26456
26464
26472
26480
26488
26496
26504
26512
26520
26528
26536
26544
26552
26560
26568
26576
26584
26592
26600
26608
26616
26624
26632
26640
26648
26656
26664
26672
26680
26688
26696
26704
26712
26720
26728
26736
26744
26752
26760
26768
26776
26784
26792
26800
26808
26816
26824
26832
26840
26848
26856
26864
26872
26880
26888
26896
26904
26912
26920
26928
26936
26944
26952
26960
26968
26976
26984
26992
27000
27008
27016
27024
27032
27040
27048
27056
27064
27072
27080
27088
27096
27104
27112
27120
27128
27136
27144
27152
27160
27168
27176
27184
27192
27200
27208
27216
27224
27232
27240
27248
27256
27264
27272
27280
27288
27296
27304
27312
27320
27328
27336
27344
27352
27360
27368
27376
27384
27392
27400
27408
27416
27424
27432
27440
27448
27456
27464
27472
27480
27488
27496
27504
27512
27520
27528
27536
27544
27552
27560
27568
27576
27584
27592
27600
27608
27616
27624
27632
27640
27648
27656
27664
27672
27680
27688
27696
27704
27712
27720
27728
27736
27744
27752
27760
27768
27776
27784
27792
27800
27808
27816
27824
27832
27840
27848
27856
27864
27872
27880
27888
27896
27904
27912
27920
27928
27936
27944
27952
27960
27968
27976
27984
27992
28000
28008
28016
28024
28032
28040
28048
28056
28064
28072
28080
28088
28096
28104
28112
28120
28128
28136
28144
28152
28160
28168
28176
28184
28192
28200
28208
28216
28224
28232
28240
28248
28256
28264
28272
28280
28288
28296
28304
28312
28320
28328
28336
28344
28352
28360
28368
28376
28384
28392
28400
28408
28416
28424
28432
28440
28448
28456
28464
28472
28480
28488
28496
28504
28512
28520
28528
28536
28544
28552
28560
28568
28576
28584
28592
28600
28608
28616
28624
28632
28640
28648
28656
28664
28672
28680
28688
28696
28704
28712
28720
28728
28736
28744
28752
28760
28768
28776
28784
28792
28800
28808
28816
28824
28832
28840
28848
28856
28864
28872
28880
28888
28896
28904
28912
28920
28928
28936
28944
28952
28960
28968
28976
28984
28992
29000
29008
29016
29024
29032
29040
29048
29056
29064
29072
29080
29088
29096
29104
29112
29120
29128
29136
29144
29152
29160
29168
29176
29184
29192
29200
29208
29216
29224
29232
29240
29248
29256
29264
29272
29280
29288
29296
29304
29312
29320
29328
29336
29344
29352
29360
29368
29376
29384
29392
29400
29408
29416
29424
29432
29440
29448
29456
29464
29472
29480
29488
29496
29504
29512
29520
29528
29536
29544
29552
29560
29568
29576
29584
29592
29600
29608
29616
29624
29632
29640
29648
29656
29664
29672
29680
29688
29696
29704
29712
29720
29728
29736
29744
29752
29760
29768
29776
29784
29792
29800
29808
29816
29824
29832
29840
29848
29856
29864
29872
29880
29888
29896
29904
29912
29920
29928
29936
29944
29952
29960
29968
29976
29984
29992
30000
30008
30016
30024
30032
30040
30048
30056
30064
30072
30080
30088
30096
30104
30112
30120
30128
30136
30144
30152
30160
30168
30176
30184
30192
30200
30208
30216
30224
30232
30240
30248
30256
30264
30272
30280
30288
30296
30304
30312
30320
30328
30336
30344
30352
30360
30368
30376
30384
30392
30400
30408
30416
30424
30432
30440
30448
30456
30464
30472
30480
30488
30496
30504
30512
30520
30528
30536
30544
30552
30560
30568
30576
30584
30592
30600
30608
30616
30624
30632
30640
30648
30656
30664
30672
30680
30688
30696
30704
30712
30720
30728
30736
30744
30752
30760
30768
30776
30784
30792
30800
30808
30816
30824
30832
30840
30848
30856
30864
30872
30880
30888
30896
30904
30912
30920
30928
30936
30944
30952
30960
30968
30976
30984
30992
31000
31008
31016
31024
31032
31040
31048
31056
31064
31072
31080
31088
31096
31104
31112
31120
31128
31136
31144
31152
31160
31168
31176
31184
31192
31200
31208
31216
31224
31232
31240
31248
31256
31264
31272
31280
31288
31296
31304
31312
31320
31328
31336
31344
31352
31360
31368
31376
31384
31392
31400
31408
31416
31424
31432
31440
31448
31456
31464
31472
31480
31488
31496
31504
31512
31520
31528
31536
31544
31552
31560
31568
31576
31584
31592
31600
31608
31616
31624
31632
31640
31648
31656
31664
31672
31680
31688
31696
31704
31712
31720
31728
31736
31744
31752
31760
31768
31776
31784
31792
31800
31808
31816
31824
31832
31840
31848
31856
31864
31872
31880
31888
31896
31904
31912
31920
31928
31936
31944
31952
31960
31968
31976
31984
31992
32000
</DataArray>
<DataArray type="UInt8" Name="types" NumberOfComponents="1" format="ascii" >
12
12
12
12
12
12
12
12
12
12
12
12
12
12
12
12
12
12
12
12
12
12
12
12
12
12
12
12
12
12
12
12
12
12
12
12
12
12
12
12
12
12
12
12
12
12
12
12
12
12
12
12
12
12
12
12
12
12
12
12
12
12
12
12
12
12
12
12
12
12
12
12
12
12
12
12
12
12
12
12
12
12
12
12
12
12
12
12
12
12
12
12
12
12
12
12
12
12
12
12
12
12
12
12
12
12
12
12
12
12
12
12
12
12
12
12
12
12
12
12
12
12
12
12
12
12
12
12
12
12
12
12
12
12
12
12
12
12
12
12
12
12
12
12
12
12
12
12
12
12
12
12
12
12
12
12
12
12
12
12
12
12
12
12
12
12
12
12
12
12
12
12
12
12
12
12
12
12
12
12
12
12
12
12
12
12
12
12
12
12
12
12
12
12
12
12
12
12
12
12
12
12
12
12
12
12
12
12
12
12
12
12
12
12
12
12
12
12
12
12
12
12
12
12
12
12
12
12
12
12
12
12
12
12
12
12
12
12
12
12
12
12
12
12
12
12
12
12
12
12
12
12
12
12
12
12
12
12
12
12
12
12
12
12
12
12
12
12
12
12
12
12
12
12
12
12
12
12
12
12
12
12
12
12
12
12
12
12
12
12
12
12
12
12
12
12
12
12
12
12
12
12
12
12
12
12
12
12
12
12
12
12
12
12
12
12
12
12
12
12
12
12
12
12
12
12
12
12
12
12
12
12
12
12
12
12
12
12
12
12
12
12
12
12
12
12
12
12
12
12
12
12
12
12
12
12
12
12
12
12
12
12
12
12
12
12
12
12
12
12
12
12
12
12
12
12
12
12
12
12
12
12
12
12
12
12
12
12
12
12
12
12
12
12
12
12
12
12
12
12
12
12
12
12
12
12
12
12
12
12
12
12
12
12
12
12
12
12
12
12
12
12
12
12
12
12
12
12
12
12
12
12
12
12
12
12
12
12
12
12
12
12
12
12
12
12
12
12
12
12
12
12
12
12
12
12
12
12
12
12
12
12
12
12
12
12
12
12
12
12
12
12
12
12
12
12
12
12
12
12
12
12
12
12
12
12
12
12
12
12
12
12
12
12
12
12
12
12
12
12
12
12
12
12
12
12
12
12
12
12
12
12
12
12
12
12
12
12
12
12
12
12
12
12
12
12
12
12
12
12
12
12
12
12
12
12
12
12
12
12
12
12
12
12
12
12
12
12
12
12
12
12
12
12
12
12
12
12
12
12
12
12
12
12
12
12
12
12
12
12
12
12
12
12
12
12
12
12
12
12
12
12
12
12
12
12
12
12
12
12
12
12
12
12
12
12
12
12
12
12
12
12
12
12
12
12
12
12
12
12
12
12
12
12
12
12
12
12
12
12
12
12
12
12
12
12
12
12
12
12
12
12
12
12
12
12
12
12
12
12
12
12
12
12
12
12
12
12
12
12
12
12
12
12
12
12
12
12
12
12
12
12
12
12
12
12
12
12
12
12
12
12
12
12
12
12
12
12
12
12
12
12
12
12
12
12
12
12
12
12
12
12
12
12
12
12
12
12
12
12
12
12
12
12
12
12
12
12
12
12
12
12
12
12
12
12
12
12
12
12
12
12
12
12
12
12
12
12
12
12
12
12
12
12
12
12
12
12
12
12
12
12
12
12
12
12
12
12
12
12
12
12
12
12
12
12
12
12
12
12
12
12
12
12
12
12
12
12
12
12
12
12
12
12
12
12
12
12
12
12
12
12
12
12
12
12
12
12
12
12
12
12
12
12
12
12
12
12
12
12
12
12
12
12
12
12
12
12
12
12
12
12
12
12
12
12
12
12
12
12
12
12
12
12
12
12
12
12
12
12
12
12
12
12
12
12
12
12
12
12
12
12
12
12
12
12
12
12
12
12
12
12
12
12
12
12
12
12
12
12
12
12
12
12
12
12
12
12
12
12
12
12
12
12
12
12
12
12
12
12
12
12
12
12
12
12
12
12
12
12
12
12
12
12
12
12
12
12
12
12
12
12
12
12
12
12
12
12
12
12
12
12
12
12
12
12
12
12
12
12
12
12
12
12
12
12
12
12
12
12
12
12
12
12
12
12
12
12
12
12
12
12
12
12
12
12
12
12
12
12
12
12
12
12
12
12
12
12
12
12
12
12
12
12
12
12
12
12
12
12
12
12
12
12
12
12
12
12
12
12
12
12
12
12
12
12
12
12
12
12
12
12
12
12
12
12
12
12
12
12
12
12
12
12
12
12
12
12
12
12
12
12
12
12
12
12
12
12
12
12
12
12
12
12
12
12
12
12
12
12
12
12
12
12
12
12
12
12
12
12
12
12
12
12
12
12
12
12
12
12
12
12
12
12
12
12
12
12
12
12
12
12
12
12
12
12
12
12
12
12
12
12
12
12
12
12
12
12
12
12
12
12
12
12
12
12
12
12
12
12
12
12
12
12
12
12
12
12
12
12
12
12
12
12
12
12
12
12
12
12
12
12
12
12
12
12
12
12
12
12
12
12
12
12
12
12
12
12
12
12
12
12
12
12
12
12
12
12
12
12
12
12
12
12
12
12
12
12
12
12
12
12
12
12
12
12
12
12
12
12
12
12
12
12
12
12
12
12
12
12
12
12
12
12
12
12
12
12
12
12
12
12
12
12
12
12
12
12
12
12
12
12
12
12
12
12
12
12
12
12
12
12
12
12
12
12
12
12
12
12
12
12
12
12
12
12
12
12
12
12
12
12
12
12
12
12
12
12
12
12
12
12
12
12
12
12
12
12
12
12
12
12
12
12
12
12
12
12
12
12
12
12
12
12
12
12
12
12
12
12
12
12
12
12
12
12
12
12
12
12
12
12
12
12
12
12
12
12
12
12
12
12
12
12
12
12
12
12
12
12
12
12
12
12
12
12
12
12
12
12
12
12
12
12
12
12
12
12
12
12
12
12
12
12
12
12
12
12
12
12
12
12
12
12
12
12
12
12
12
12
12
12
12
12
12
12
12
12
12
12
12
12
12
12
12
12
12
12
12
12
12
12
12
12
12
12
12
12
12
12
12
12
12
12
12
12
12
12
12
12
12
12
12
12
12
12
12
12
12
12
12
12
12
12
12
12
12
12
12
12
12
12
12
12
12
12
12
12
12
12
12
12
12
12
12
12
12
12
12
12
12
12
12
12
12
12
12
12
12
12
12
12
12
12
12
12
12
12
12
12
12
12
12
12
12
12
12
12
12
12
12
12
12
12
12
12
12
12
12
12
12
12
12
12
12
12
12
12
12
12
12
12
12
12
12
12
12
12
12
12
12
12
12
12
12
12
12
12
12
12
12
12
12
12
12
12
12
12
12
12
12
12
12
12
12
12
12
12
12
12
12
12
12
12
12
12
12
12
12
12
12
12
12
12
12
12
12
12
12
12
12
12
12
12
12
12
12
12
12
12
12
12
12
12
12
12
12
12
12
12
12
12
12
12
12
12
12
12
12
12
12
12
12
12
12
12
12
12
12
12
12
12
12
12
12
12
12
12
12
12
12
12
12
12
12
12
12
12
12
12
12
12
12
12
12
12
12
12
12
12
12
12
12
12
12
12
12
12
12
12
12
12
12
12
12
12
12
12
12
12
12
12
12
12
12
12
12
12
12
12
12
12
12
12
12
12
12
12
12
12
12
12
12
12
12
12
12
12
12
12
12
12
12
12
12
12
12
12
12
12
12
12
12
12
12
12
12
12
12
12
12
12
12
12
12
12
12
12
12
12
12
12
12
12
12
12
12
12
12
12
12
12
12
12
12
12
12
12
12
12
12
12
12
12
12
12
12
12
12
12
12
12
12
12
12
12
12
12
12
12
12
12
12
12
12
12
12
12
12
12
12
12
12
12
12
12
12
12
12
12
12
12
12
12
12
12
12
12
12
12
12
12
12
12
12
12
12
12
12
12
12
12
12
12
12
12
12
12
12
12
12
12
12
12
12
12
12
12
12
12
12
12
12
12
12
12
12
12
12
12
12
12
12
12
12
12
12
12
12
12
12
12
12
12
12
12
12
12
12
12
12
12
12
12
12
12
12
12
12
12
12
12
12
12
12
12
12
12
12
12
12
12
12
12
12
12
12
12
12
12
12
12
12
12
12
12
12
12
12
12
12
12
12
12
12
12
12
12
12
12
12
12
12
12
12
12
12
12
12
12
12
12
12
12
12
12
12
12
12
12
12
12
12
12
12
12
12
12
12
12
12
12
12
12
12
12
12
12
12
12
12
12
12
12
12
12
12
12
12
12
12
12
12
12
12
12
12
12
12
12
12
12
12
12
12
12
12
12
12
12
12
12
12
12
12
12
12
12
12
12
12
12
12
12
12
12
12
12
12
12
12
12
12
12
12
12
12
12
12
12
12
12
12
12
12
12
12
12
12
12
12
12
12
12
12
12
12
12
12
12
12
12
12
12
12
12
12
12
12
12
12
12
12
12
12
12
12
12
12
12
12
12
12
12
12
12
12
12
12
12
12
12
12
12
12
12
12
12
12
12
12
12
12
12
12
12
12
12
12
12
12
12
12
12
12
12
12
12
12
12
12
12
12
12
12
12
12
12
12
12
12
12
12
12
12
12
12
12
12
12
12
12
12
12
12
12
12
12
12
12
12
12
12
12
12
12
12
12
12
12
12
12
12
12
12
12
12
12
12
12
12
12
12
12
12
12
12
12
12
12
12
12
12
12
12
12
12
12
12
12
12
12
12
12
12
12
12
12
12
12
12
12
12
12
12
12
12
12
12
12
12
12
12
12
12
12
12
12
12
12
12
12
12
12
12
12
12
12
12
12
12
12
12
12
12
12
12
12
12
12
12
12
12
12
12
12
12
12
12
12
12
12
12
12
12
12
12
12
12
12
12
12
12
12
12
12
12
12
12
12
12
12
12
12
12
12
12
12
12
12
12
12
12
12
12
12
12
12
12
12
12
12
12
12
12
12
12
12
12
12
12
12
12
12
12
12
12
12
12
12
12
12
12
12
12
12
12
12
12
12
12
12
12
12
12
12
12
12
12
12
12
12
12
12
12
12
12
12
12
12
12
12
12
12
12
12
12
12
12
12
12
12
12
12
12
12
12
12
12
12
12
12
12
12
12
12
12
12
12
12
12
12
12
12
12
12
12
12
12
12
12
12
12
12
12
12
12
12
12
12
12
12
12
12
12
12
12
12
12
12
12
12
12
12
12
12
12
12
12
12
12
12
12
12
12
12
12
12
12
12
12
12
12
12
12
12
12
12
12
12
12
12
12
12
12
12
12
12
12
12
12
12
12
12
12
12
12
12
12
12
12
12
12
12
12
12
12
12
12
12
12
12
12
12
12
12
12
12
12
12
12
12
12
12
12
12
12
12
12
12
12
12
12
12
12
12
12
12
12
12
12
12
12
12
12
12
12
12
12
12
12
12
12
12
12
12
12
12
12
12
12
12
12
12
12
12
12
12
12
12
12
12
12
12
12
12
12
12
12
12
12
12
12
12
12
12
12
12
12
12
12
12
12
12
12
12
12
12
12
12
12
12
12
12
12
12
12
12
12
12
12
12
12
12
12
12
12
12
12
12
12
12
12
12
12
12
12
12
12
12
12
12
12
12
12
12
12
12
12
12
12
12
12
12
12
12
12
12
12
12
12
12
12
12
12
12
12
12
12
12
12
12
12
12
12
12
12
12
12
12
12
12
12
12
12
12
12
12
12
12
12
12
12
12
12
12
12
12
12
12
12
12
12
12
12
12
12
12
12
12
12
12
12
12
12
12
12
12
12
12
12
12
12
12
12
12
12
12
12
12
12
12
12
12
12
12
12
12
12
12
12
12
12
12
12
12
12
12
12
12
12
12
12
12
12
12
12
12
12
12
12
12
12
12
12
12
12
12
12
12
12
12
12
12
12
12
12
12
12
12
12
12
12
12
12
12
12
12
12
12
12
12
12
12
12
12
12
12
12
12
12
12
12
12
12
12
12
12
12
12
12
12
12
12
12
12
12
12
12
12
12
12
12
12
12
12
12
12
12
12
12
12
12
12
12
12
12
12
12
12
12
12
12
12
12
12
12
12
12
12
12
12
12
12
12
12
12
12
12
12
12
12
12
12
12
12
12
12
12
12
12
12
12
12
12
12
12
12
12
12
12
12
12
12
12
12
12
12
12
12
12
12
12
12
12
12
12
12
12
12
12
12
12
12
12
12
12
12
12
12
12
12
12
12
12
12
12
12
12
12
12
12
12
12
12
12
12
12
12
12
12
12
12
12
12
12
12
12
12
12
12
12
12
12
12
12
12
12
12
12
12
12
12
12
12
12
12
12
12
12
12
12
12
12
12
12
12
12
12
12
12
12
12
12
12
12
12
12
12
12
12
12
12
12
12
12
12
12
12
12
12
12
12
12
12
12
12
12
12
12
12
12
12
12
12
12
12
12
12
12
12
12
12
12
12
12
12
12
12
12
12
12
12
12
12
12
12
12
12
12
12
12
12
12
12
12
12
12
12
12
12
12
12
12
12
12
12
12
12
12
12
12
12
12
12
12
12
12
12
12
12
12
12
12
12
12
12
12
12
12
12
12
12
12
12
12
12
12
12
12
12
12
12
12
12
12
12
12
12
12
12
12
12
12
12
12
12
12
12
12
12
12
12
12
12
12
12
12
12
12
12
12
12
12
12
12
12
12
12
12
12
12
12
12
12
12
12
12
12
12
12
12
12
12
12
12
12
12
12
12
12
12
12
12
12
12
12
12
12
12
12
12
12
12
12
12
12
12
12
12
12
12
12
12
12
12
12
12
12
12
12
12
12
12
12
12
12
12
12
12
12
12
12
12
12
12
12
12
12
12
12
12
12
12
12
12
12
12
12
12
12
12
12
12
12
12
12
12
12
12
12
12
12
12
12
12
12
12
12
12
12
12
12
12
12
12
12
12
12
12
12
12
12
12
12
12
12
12
12
12
12
12
12
12
12
12
12
12
12
12
12
12
12
12
12
12
12
12
12
12
12
12
12
12
12
12
12
12
12
12
12
12
12
12
12
12
12
12
12
12
12
12
12
12
12
12
12
12
12
12
12
12
12
12
12
12
12
12
12
12
12
12
12
12
12
12
12
12
12
12
12
12
12
12
12
12
12
12
12
12
12
12
12
12
12
12
12
12
12
12
12
12
12
12
12
12
12
12
12
12
12
12
12
12
12
12
12
12
12
12
12
12
12
12
12
12
12
12
12
12
12
12
12
12
12
12
12
12
12
12
12
12
12
12
12
12
12
12
12
12
12
12
12
12
12
12
12
12
12
12
12
12
12
12
12
12
12
12
12
12
12
12
12
12
12
12
12
12
12
12
12
12
12
12
12
12
12
12
12
12
12
12
12
12
12
12
12
12
12
12
12
12
12
12
12
12
12
12
12
12
12
12
12
12
12
12
12
12
12
12
12
12
12
12
12
12
12
12
12
12
12
12
12
12
12
12
12
12
12
12
12
12
12
12
12
12
12
12
12
12
12
12
12
12
12
12
12
12
12
12
12
12
12
12
12
12
12
12
12
12
12
12
12
12
12
12
12
12
12
12
12
12
12
12
12
12
12
12
12
12
12
12
12
12
12
12
12
12
12
12
12
12
12
12
12
12
12
12
12
12
12
12
12
12
12
12
12
12
12
12
12
12
12
12
12
12
12
12
12
12
12
12
12
12
12
12
12
12
12
12
12
12
12
12
12
12
12
12
12
12
12
12
12
12
12
12
12
12
12
12
12
12
12
12
12
12
12
12
12
12
12
12
12
12
12
12
12
12
12
12
12
12
12
12
12
12
12
12
12
12
12
12
12
12
12
12
12
12
12
12
12
12
12
12
12
12
12
12
12
12
12
12
12
12
12
12
12
12
12
12
12
12
12
12
12
12
12
12
12
12
12
12
12
12
12
12
12
12
12
12
12
12
12
12
12
12
12
12
12
12
12
12
12
12
12
12
12
12
12
12
12
12
12
12
12
12
12
12
12
12
12
12
12
12
12
12
12
12
12
12
12
12
12
12
12
12
12
12
12
12
12
12
12
12
12
12
12
12
12
12
12
12
12
12
12
12
12
12
12
12
12
12
12
12
12
12
12
12
12
12
12
12
12
12
12
12
12
12
12
12
12
12
12
12
12
12
12
12
12
12
12
12
12
12
12
12
12
12
12
12
12
12
12
12
12
12
12
12
12
12
12
12
12
12
12
12
12
12
12
12
12
12
12
12
12
12
12
12
12
12
12
12
12
12
12
12
12
12
12
12
12
12
12
12
12
12
12
12
12
12
12
12
12
12
12
12
12
12
12
12
12
12
12
12
12
12
12
12
12
12
12
12
12
12
12
12
12
12
12
12
12
12
12
12
12
12
12
12
12
12
12
12
12
12
12
12
12
12
12
12
12
12
12
12
12
12
12
12
12
12
12
12
12
12
12
12
12
12
12
12
12
12
12
12
12
12
12
12
12
12
12
12
12
12
12
12
12
12
12
12
12
12
12
12
12
12
12
12
12
12
12
12
12
12
12
12
12
12
12
12
12
12
12
12
12
12
12
12
12
12
12
12
12
12
12
12
12
12
12
12
12
12
12
12
12
12
12
12
12
12
12
12
12
12
12
12
12
12
12
12
12
12
12
12
12
12
12
12
12
12
12
12
12
12
12
12
12
12
12
12
12
12
12
12
12
12
12
12
12
12
12
12
12
12
12
12
12
12
12
12
12
12
12
12
12
12
12
12
12
12
12
12
12
12
12
12
12
12
12
12
12
12
12
12
12
12
12
12
12
12
12
12
12
12
12
12
12
12
12
12
12
12
12
12
12
12
12
12
12
12
12
12
12
12
12
12
12
12
12
12
12
12
12
12
12
12
12
12
12
12
12
12
12
12
12
12
12
12
12
12
12
12
12
12
12
12
12
12
12
12
12
12
12
12
12
12
12
12
12
12
12
12
12
12
12
12
12
12
12
12
12
12
12
12
12
12
12
12
12
12
12
12
12
12
12
12
12
12
12
12
</DataArray>
</Cells>
<Points>
<DataArray type="Float64" Name="coordinates" NumberOfComponents="3" format="ascii" >
0 0 5
5 0 5
5 0 20
0 0 20
5 5 5
5 5 20
0 5 20
0 5 5
0 0 0
5 0 0
0 5 0
5 5 0
0.5 0 5
1 0 5
1.5 0 5
2 0 5
2.5 0 5
3 0 5
3.5 0 5
4 0 5
4.5 0 5
5 0 5.5
5 0 6
5 0 6.5
5 0 7
5 0 7.5
5 0 8
5 0 8.5
5 0 9
5 0 9.5
5 0 10
5 0 10.5
5 0 11
5 0 11.5
5 0 12
5 0 12.5
5 0 13
5 0 13.5
5 0 14
5 0 14.5
5 0 15
5 0 15.5
5 0 16
5 0 16.5
5 0 17
5 0 17.5
5 0 18
5 0 18.5
5 0 19
5 0 19.5
4.5 0 20
4 0 20
3.5 0 20
3 0 20
2.5 0 20
2 0 20
1.5 0 20
1 0 20
0.5 0 20
0 0 19.5
0 0 19
0 0 18.5
0 0 18
0 0 17.5
0 0 17
0 0 16.5
0 0 16
0 0 15.5
0 0 15
0 0 14.5
0 0 14
0 0 13.5
0 0 13
0 0 12.5
0 0 12
0 0 11.5
0 0 11
0 0 10.5
0 0 10
0 0 9.5
0 0 9
0 0 8.5
0 0 8
0 0 7.5
0 0 7
0 0 6.5
0 0 6
0 0 5.5
4.5 5 5
4 5 5
3.5 5 5
3 5 5
2.5 5 5
2 5 5
1.5 5 5
1 5 5
0.5 5 5
5 5 19.5
5 5 19
5 5 18.5
5 5 18
5 5 17.5
5 5 17
5 5 16.5
5 5 16
5 5 15.5
5 5 15
5 5 14.5
5 5 14
5 5 13.5
5 5 13
5 5 12.5
5 5 12
5 5 11.5
5 5 11
5 5 10.5
5 5 10
5 5 9.5
5 5 9
5 5 8.5
5 5 8
5 5 7.5
5 5 7
5 5 6.5
5 5 6
5 5 5.5
0.5 5 20
1 5 20
1.5 5 20
2 5 20
2.5 5 20
3 5 20
3.5 5 20
4 5 20
4.5 5 20
0 5 5.5
0 5 6
0 5 6.5
0 5 7
0 5 7.5
0 5 8
0 5 8.5
0 5 9
0 5 9.5
0 5 10
0 5 10.5
0 5 11
0 5 11.5
0 5 12
0 5 12.5
0 5 13
0 5 13.5
0 5 14
0 5 14.5
0 5 15
0 5 15.5
0 5 16
0 5 16.5
0 5 17
0 5 17.5
0 5 18
0 5 18.5
0 5 19
0 5 19.5
0 0.5 20
0 1 20
0 1.5 20
0 2 20
0 2.5 20
0 3 20
0 3.5 20
0 4 20
0 4.5 20
0 4.5 5
0 4 5
0 3.5 5
0 3 5
0 2.5 5
0 2 5
0 1.5 5
0 1 5
0 0.5 5
5 4.5 20
5 4 20
5 3.5 20
5 3 20
5 2.5 20
5 2 20
5 1.5 20
5 1 20
5 0.5 20
5 0.5 5
5 1 5
5 1.5 5
5 2 5
5 2.5 5
5 3 5
5 3.5 5
5 4 5
5 4.5 5
0 0 4.5
0 0 4
0 0 3.5
0 0 3
0 0 2.5
0 0 2
0 0 1.5
0 0 1
0 0 0.5
0.5 0 0
1 0 0
1.5 0 0
2 0 0
2.5 0 0
3 0 0
3.5 0 0
4 0 0
4.5 0 0
5 0 0.5
5 0 1
5 0 1.5
5 0 2
5 0 2.5
5 0 3
5 0 3.5
5 0 4
5 0 4.5
0 5 0.5
0 5 1
0 5 1.5
0 5 2
0 5 2.5
0 5 3
0 5 3.5
0 5 4
0 5 4.5
4.5 5 0
4 5 0
3.5 5 0
3 5 0
2.5 5 0
2 5 0
1.5 5 0
1 5 0
0.5 5 0
5 5 4.5
5 5 4
5 5 3.5
5 5 3
5 5 2.5
5 5 2
5 5 1.5
5 5 1
5 5 0.5
5 0.5 0
5 1 0
5 1.5 0
5 2 0
5 2.5 0
5 3 0
5 3.5 0
5 4 0
5 4.5 0
0 4.5 0
0 4 0
0 3.5 0
0 3 0
0 2.5 0
0 2 0
0 1.5 0
0 1 0
0 0.5 0
0.5 0 5.5
1 0 5.5
1.5 0 5.5
2 0 5.5
2.5 0 5.5
3 0 5.5
3.5 0 5.5
4 0 5.5
4.5 0 5.5
0.5 0 6
1 0 6
1.5 0 6
2 0 6
2.5 0 6
3 0 6
3.5 0 6
4 0 6
4.5 0 6
0.5 0 6.5
1 0 6.5
1.5 0 6.5
2 0 6.5
2.5 0 6.5
3 0 6.5
3.5 0 6.5
4 0 6.5
4.5 0 6.5
0.5 0 7
1 0 7
1.5 0 7
2 0 7
2.5 0 7
3 0 7
3.5 0 7
4 0 7
4.5 0 7
0.5 0 7.5
1 0 7.5
1.5 0 7.5
2 0 7.5
2.5 0 7.5
3 0 7.5
3.5 0 7.5
4 0 7.5
4.5 0 7.5
0.5 0 8
1 0 8
1.5 0 8
2 0 8
2.5 0 8
3 0 8
3.5 0 8
4 0 8
4.5 0 8
0.5 0 8.5
1 0 8.5
1.5 0 8.5
2 0 8.5
2.5 0 8.5
3 0 8.5
3.5 0 8.5
4 0 8.5
4.5 0 8.5
0.5 0 9
1 0 9
1.5 0 9
2 0 9
2.5 0 9
3 0 9
3.5 0 9
4 0 9
4.5 0 9
0.5 0 9.5
1 0 9.5
1.5 0 9.5
2 0 9.5
2.5 0 9.5
3 0 9.5
3.5 0 9.5
4 0 9.5
4.5 0 9.5
0.5 0 10
1 0 10
1.5 0 10
2 0 10
2.5 0 10
3 0 10
3.5 0 10
4 0 10
4.5 0 10
0.5 0 10.5
1 0 10.5
1.5 0 10.5
2 0 10.5
2.5 0 10.5
3 0 10.5
3.5 0 10.5
4 0 10.5
4.5 0 10.5
0.5 0 11
1 0 11
1.5 0 11
2 0 11
2.5 0 11
3 0 11
3.5 0 11
4 0 11
4.5 0 11
0.5 0 11.5
1 0 11.5
1.5 0 11.5
2 0 11.5
2.5 0 11.5
3 0 11.5
3.5 0 11.5
4 0 11.5
4.5 0 11.5
0.5 0 12
1 0 12
1.5 0 12
2 0 12
2.5 0 12
3 0 12
3.5 0 12
4 0 12
4.5 0 12
0.5 0 12.5
1 0 12.5
1.5 0 12.5
2 0 12.5
2.5 0 12.5
3 0 12.5
3.5 0 12.5
4 0 12.5
4.5 0 12.5
0.5 0 13
1 0 13
1.5 0 13
2 0 13
2.5 0 13
3 0 13
3.5 0 13
4 0 13
4.5 0 13
0.5 0 13.5
1 0 13.5
1.5 0 13.5
2 0 13.5
2.5 0 13.5
3 0 13.5
3.5 0 13.5
4 0 13.5
4.5 0 13.5
0.5 0 14
1 0 14
1.5 0 14
2 0 14
2.5 0 14
3 0 14
3.5 0 14
4 0 14
4.5 0 14
0.5 0 14.5
1 0 14.5
1.5 0 14.5
2 0 14.5
2.5 0 14.5
3 0 14.5
3.5 0 14.5
4 0 14.5
4.5 0 14.5
0.5 0 15
1 0 15
1.5 0 15
2 0 15
2.5 0 15
3 0 15
3.5 0 15
4 0 15
4.5 0 15
0.5 0 15.5
1 0 15.5
1.5 0 15.5
2 0 15.5
2.5 0 15.5
3 0 15.5
3.5 0 15.5
4 0 15.5
4.5 0 15.5
0.5 0 16
1 0 16
1.5 0 16
2 0 16
2.5 0 16
3 0 16
3.5 0 16
4 0 16
4.5 0 16
0.5 0 16.5
1 0 16.5
1.5 0 16.5
2 0 16.5
2.5 0 16.5
3 0 16.5
3.5 0 16.5
4 0 16.5
4.5 0 16.5
0.5 0 17
1 0 17
1.5 0 17
2 0 17
2.5 0 17
3 0 17
3.5 0 17
4 0 17
4.5 0 17
0.5 0 17.5
1 0 17.5
1.5 0 17.5
2 0 17.5
2.5 0 17.5
3 0 17.5
3.5 0 17.5
4 0 17.5
4.5 0 17.5
0.5 0 18
1 0 18
1.5 0 18
2 0 18
2.5 0 18
3 0 18
3.5 0 18
4 0 18
4.5 0 18
0.5 0 18.5
1 0 18.5
1.5 0 18.5
2 0 18.5
2.5 0 18.5
3 0 18.5
3.5 0 18.5
4 0 18.5
4.5 0 18.5
0.5 0 19
1 0 19
1.5 0 19
2 0 19
2.5 0 19
3 0 19
3.5 0 19
4 0 19
4.5 0 19
0.5 0 19.5
1 0 19.5
1.5 0 19.5
2 0 19.5
2.5 0 19.5
3 0 19.5
3.5 0 19.5
4 0 19.5
4.5 0 19.5
0.5 5 5.5
1 5 5.5
1.5 5 5.5
2 5 5.5
2.5 5 5.5
3 5 5.5
3.5 5 5.5
4 5 5.5
4.5 5 5.5
0.5 5 6
1 5 6
1.5 5 6
2 5 6
2.5 5 6
3 5 6
3.5 5 6
4 5 6
4.5 5 6
0.5 5 6.5
1 5 6.5
1.5 5 6.5
2 5 6.5
2.5 5 6.5
3 5 6.5
3.5 5 6.5
4 5 6.5
4.5 5 6.5
0.5 5 7
1 5 7
1.5 5 7
2 5 7
2.5 5 7
3 5 7
3.5 5 7
4 5 7
4.5 5 7
0.5 5 7.5
1 5 7.5
1.5 5 7.5
2 5 7.5
2.5 5 7.5
3 5 7.5
3.5 5 7.5
4 5 7.5
4.5 5 7.5
0.5 5 8
1 5 8
1.5 5 8
2 5 8
2.5 5 8
3 5 8
3.5 5 8
4 5 8
4.5 5 8
0.5 5 8.5
1 5 8.5
1.5 5 8.5
2 5 8.5
2.5 5 8.5
3 5 8.5
3.5 5 8.5
4 5 8.5
4.5 5 8.5
0.5 5 9
1 5 9
1.5 5 9
2 5 9
2.5 5 9
3 5 9
3.5 5 9
4 5 9
4.5 5 9
0.5 5 9.5
1 5 9.5
1.5 5 9.5
2 5 9.5
2.5 5 9.5
3 5 9.5
3.5 5 9.5
4 5 9.5
4.5 5 9.5
0.5 5 10
1 5 10
1.5 5 10
2 5 10
2.5 5 10
3 5 10
3.5 5 10
4 5 10
4.5 5 10
0.5 5 10.5
1 5 10.5
1.5 5 10.5
2 5 10.5
2.5 5 10.5
3 5 10.5
3.5 5 10.5
4 5 10.5
4.5 5 10.5
0.5 5 11
1 5 11
1.5 5 11
2 5 11
2.5 5 11
3 5 11
3.5 5 11
4 5 11
4.5 5 11
0.5 5 11.5
1 5 11.5
1.5 5 11.5
2 5 11.5
2.5 5 11.5
3 5 11.5
3.5 5 11.5
4 5 11.5
4.5 5 11.5
0.5 5 12
1 5 12
1.5 5 12
2 5 12
2.5 5 12
3 5 12
3.5 5 12
4 5 12
4.5 5 12
0.5 5 12.5
1 5 12.5
1.5 5 12.5
2 5 12.5
2.5 5 12.5
3 5 12.5
3.5 5 12.5
4 5 12.5
4.5 5 12.5
0.5 5 13
1 5 13
1.5 5 13
2 5 13
2.5 5 13
3 5 13
3.5 5 13
4 5 13
4.5 5 13
0.5 5 13.5
1 5 13.5
1.5 5 13.5
2 5 13.5
2.5 5 13.5
3 5 13.5
3.5 5 13.5
4 5 13.5
4.5 5 13.5
0.5 5 14
1 5 14
1.5 5 14
2 5 14
2.5 5 14
3 5 14
3.5 5 14
4 5 14
4.5 5 14
0.5 5 14.5
1 5 14.5
1.5 5 14.5
2 5 14.5
2.5 5 14.5
3 5 14.5
3.5 5 14.5
4 5 14.5
4.5 5 14.5
0.5 5 15
1 5 15
1.5 5 15
2 5 15
2.5 5 15
3 5 15
3.5 5 15
4 5 15
4.5 5 15
0.5 5 15.5
1 5 15.5
1.5 5 15.5
2 5 15.5
2.5 5 15.5
3 5 15.5
3.5 5 15.5
4 5 15.5
4.5 5 15.5
0.5 5 16
1 5 16
1.5 5 16
2 5 16
2.5 5 16
3 5 16
3.5 5 16
4 5 16
4.5 5 16
0.5 5 16.5
1 5 16.5
1.5 5 16.5
2 5 16.5
2.5 5 16.5
3 5 16.5
3.5 5 16.5
4 5 16.5
4.5 5 16.5
0.5 5 17
1 5 17
1.5 5 17
2 5 17
2.5 5 17
3 5 17
3.5 5 17
4 5 17
4.5 5 17
0.5 5 17.5
1 5 17.5
1.5 5 17.5
2 5 17.5
2.5 5 17.5
3 5 17.5
3.5 5 17.5
4 5 17.5
4.5 5 17.5
0.5 5 18
1 5 18
1.5 5 18
2 5 18
2.5 5 18
3 5 18
3.5 5 18
4 5 18
4.5 5 18
0.5 5 18.5
1 5 18.5
1.5 5 18.5
2 5 18.5
2.5 5 18.5
3 5 18.5
3.5 5 18.5
4 5 18.5
4.5 5 18.5
0.5 5 19
1 5 19
1.5 5 19
2 5 19
2.5 5 19
3 5 19
3.5 5 19
4 5 19
4.5 5 19
0.5 5 19.5
1 5 19.5
1.5 5 19.5
2 5 19.5
2.5 5 19.5
3 5 19.5
3.5 5 19.5
4 5 19.5
4.5 5 19.5
0 0.5 5.5
0 0.5 6
0 0.5 6.5
0 0.5 7
0 0.5 7.5
0 0.5 8
0 0.5 8.5
0 0.5 9
0 0.5 9.5
0 0.5 10
0 0.5 10.5
0 0.5 11
0 0.5 11.5
0 0.5 12
0 0.5 12.5
0 0.5 13
0 0.5 13.5
0 0.5 14
0 0.5 14.5
0 0.5 15
0 0.5 15.5
0 0.5 16
0 0.5 16.5
0 0.5 17
0 0.5 17.5
0 0.5 18
0 0.5 18.5
0 0.5 19
0 0.5 19.5
0 1 5.5
0 1 6
0 1 6.5
0 1 7
0 1 7.5
0 1 8
0 1 8.5
0 1 9
0 1 9.5
0 1 10
0 1 10.5
0 1 11
0 1 11.5
0 1 12
0 1 12.5
0 1 13
0 1 13.5
0 1 14
0 1 14.5
0 1 15
0 1 15.5
0 1 16
0 1 16.5
0 1 17
0 1 17.5
0 1 18
0 1 18.5
0 1 19
0 1 19.5
0 1.5 5.5
0 1.5 6
0 1.5 6.5
0 1.5 7
0 1.5 7.5
0 1.5 8
0 1.5 8.5
0 1.5 9
0 1.5 9.5
0 1.5 10
0 1.5 10.5
0 1.5 11
0 1.5 11.5
0 1.5 12
0 1.5 12.5
0 1.5 13
0 1.5 13.5
0 1.5 14
0 1.5 14.5
0 1.5 15
0 1.5 15.5
0 1.5 16
0 1.5 16.5
0 1.5 17
0 1.5 17.5
0 1.5 18
0 1.5 18.5
0 1.5 19
0 1.5 19.5
0 2 5.5
0 2 6
0 2 6.5
0 2 7
0 2 7.5
0 2 8
0 2 8.5
0 2 9
0 2 9.5
0 2 10
0 2 10.5
0 2 11
0 2 11.5
0 2 12
0 2 12.5
0 2 13
0 2 13.5
0 2 14
0 2 14.5
0 2 15
0 2 15.5
0 2 16
0 2 16.5
0 2 17
0 2 17.5
0 2 18
0 2 18.5
0 2 19
0 2 19.5
0 2.5 5.5
0 2.5 6
0 2.5 6.5
0 2.5 7
0 2.5 7.5
0 2.5 8
0 2.5 8.5
0 2.5 9
0 2.5 9.5
0 2.5 10
0 2.5 10.5
0 2.5 11
0 2.5 11.5
0 2.5 12
0 2.5 12.5
0 2.5 13
0 2.5 13.5
0 2.5 14
0 2.5 14.5
0 2.5 15
0 2.5 15.5
0 2.5 16
0 2.5 16.5
0 2.5 17
0 2.5 17.5
0 2.5 18
0 2.5 18.5
0 2.5 19
0 2.5 19.5
0 3 5.5
0 3 6
0 3 6.5
0 3 7
0 3 7.5
0 3 8
0 3 8.5
0 3 9
0 3 9.5
0 3 10
0 3 10.5
0 3 11
0 3 11.5
0 3 12
0 3 12.5
0 3 13
0 3 13.5
0 3 14
0 3 14.5
0 3 15
0 3 15.5
0 3 16
0 3 16.5
0 3 17
0 3 17.5
0 3 18
0 3 18.5
0 3 19
0 3 19.5
0 3.5 5.5
0 3.5 6
0 3.5 6.5
0 3.5 7
0 3.5 7.5
0 3.5 8
0 3.5 8.5
0 3.5 9
0 3.5 9.5
0 3.5 10
0 3.5 10.5
0 3.5 11
0 3.5 11.5
0 3.5 12
0 3.5 12.5
0 3.5 13
0 3.5 13.5
0 3.5 14
0 3.5 14.5
0 3.5 15
0 3.5 15.5
0 3.5 16
0 3.5 16.5
0 3.5 17
0 3.5 17.5
0 3.5 18
0 3.5 18.5
0 3.5 19
0 3.5 19.5
0 4 5.5
0 4 6
0 4 6.5
0 4 7
0 4 7.5
0 4 8
0 4 8.5
0 4 9
0 4 9.5
0 4 10
0 4 10.5
0 4 11
0 4 11.5
0 4 12
0 4 12.5
0 4 13
0 4 13.5
0 4 14
0 4 14.5
0 4 15
0 4 15.5
0 4 16
0 4 16.5
0 4 17
0 4 17.5
0 4 18
0 4 18.5
0 4 19
0 4 19.5
0 4.5 5.5
0 4.5 6
0 4.5 6.5
0 4.5 7
0 4.5 7.5
0 4.5 8
0 4.5 8.5
0 4.5 9
0 4.5 9.5
0 4.5 10
0 4.5 10.5
0 4.5 11
0 4.5 11.5
0 4.5 12
0 4.5 12.5
0 4.5 13
0 4.5 13.5
0 4.5 14
0 4.5 14.5
0 4.5 15
0 4.5 15.5
0 4.5 16
0 4.5 16.5
0 4.5 17
0 4.5 17.5
0 4.5 18
0 4.5 18.5
0 4.5 19
0 4.5 19.5
5 0.5 5.5
5 0.5 6
5 0.5 6.5
5 0.5 7
5 0.5 7.5
5 0.5 8
5 0.5 8.5
5 0.5 9
5 0.5 9.5
5 0.5 10
5 0.5 10.5
5 0.5 11
5 0.5 11.5
5 0.5 12
5 0.5 12.5
5 0.5 13
5 0.5 13.5
5 0.5 14
5 0.5 14.5
5 0.5 15
5 0.5 15.5
5 0.5 16
5 0.5 16.5
5 0.5 17
5 0.5 17.5
5 0.5 18
5 0.5 18.5
5 0.5 19
5 0.5 19.5
5 1 5.5
5 1 6
5 1 6.5
5 1 7
5 1 7.5
5 1 8
5 1 8.5
5 1 9
5 1 9.5
5 1 10
5 1 10.5
5 1 11
5 1 11.5
5 1 12
5 1 12.5
5 1 13
5 1 13.5
5 1 14
5 1 14.5
5 1 15
5 1 15.5
5 1 16
5 1 16.5
5 1 17
5 1 17.5
5 1 18
5 1 18.5
5 1 19
5 1 19.5
5 1.5 5.5
5 1.5 6
5 1.5 6.5
5 1.5 7
5 1.5 7.5
5 1.5 8
5 1.5 8.5
5 1.5 9
5 1.5 9.5
5 1.5 10
5 1.5 10.5
5 1.5 11
5 1.5 11.5
5 1.5 12
5 1.5 12.5
5 1.5 13
5 1.5 13.5
5 1.5 14
5 1.5 14.5
5 1.5 15
5 1.5 15.5
5 1.5 16
5 1.5 16.5
5 1.5 17
5 1.5 17.5
5 1.5 18
5 1.5 18.5
5 1.5 19
5 1.5 19.5
5 2 5.5
5 2 6
5 2 6.5
5 2 7
5 2 7.5
5 2 8
5 2 8.5
5 2 9
5 2 9.5
5 2 10
5 2 10.5
5 2 11
5 2 11.5
5 2 12
5 2 12.5
5 2 13
5 2 13.5
5 2 14
5 2 14.5
5 2 15
5 2 15.5
5 2 16
5 2 16.5
5 2 17
5 2 17.5
5 2 18
5 2 18.5
5 2 19
5 2 19.5
5 2.5 5.5
5 2.5 6
5 2.5 6.5
5 2.5 7
5 2.5 7.5
5 2.5 8
5 2.5 8.5
5 2.5 9
5 2.5 9.5
5 2.5 10
5 2.5 10.5
5 2.5 11
5 2.5 11.5
5 2.5 12
5 2.5 12.5
5 2.5 13
5 2.5 13.5
5 2.5 14
5 2.5 14.5
5 2.5 15
5 2.5 15.5
5 2.5 16
5 2.5 16.5
5 2.5 17
5 2.5 17.5
5 2.5 18
5 2.5 18.5
5 2.5 19
5 2.5 19.5
5 3 5.5
5 3 6
5 3 6.5
5 3 7
5 3 7.5
5 3 8
5 3 8.5
5 3 9
5 3 9.5
5 3 10
5 3 10.5
5 3 11
5 3 11.5
5 3 12
5 3 12.5
5 3 13
5 3 13.5
5 3 14
5 3 14.5
5 3 15
5 3 15.5
5 3 16
5 3 16.5
5 3 17
5 3 17.5
5 3 18
5 3 18.5
5 3 19
5 3 19.5
5 3.5 5.5
5 3.5 6
5 3.5 6.5
5 3.5 7
5 3.5 7.5
5 3.5 8
5 3.5 8.5
5 3.5 9
5 3.5 9.5
5 3.5 10
5 3.5 10.5
5 3.5 11
5 3.5 11.5
5 3.5 12
5 3.5 12.5
5 3.5 13
5 3.5 13.5
5 3.5 14
5 3.5 14.5
5 3.5 15
5 3.5 15.5
5 3.5 16
5 3.5 16.5
5 3.5 17
5 3.5 17.5
5 3.5 18
5 3.5 18.5
5 3.5 19
5 3.5 19.5
5 4 5.5
5 4 6
5 4 6.5
5 4 7
5 4 7.5
5 4 8
5 4 8.5
5 4 9
5 4 9.5
5 4 10
5 4 10.5
5 4 11
5 4 11.5
5 4 12
5 4 12.5
5 4 13
5 4 13.5
5 4 14
5 4 14.5
5 4 15
5 4 15.5
5 4 16
5 4 16.5
5 4 17
5 4 17.5
5 4 18
5 4 18.5
5 4 19
5 4 19.5
5 4.5 5.5
5 4.5 6
5 4.5 6.5
5 4.5 7
5 4.5 7.5
5 4.5 8
5 4.5 8.5
5 4.5 9
5 4.5 9.5
5 4.5 10
5 4.5 10.5
5 4.5 11
5 4.5 11.5
5 4.5 12
5 4.5 12.5
5 4.5 13
5 4.5 13.5
5 4.5 14
5 4.5 14.5
5 4.5 15
5 4.5 15.5
5 4.5 16
5 4.5 16.5
5 4.5 17
5 4.5 17.5
5 4.5 18
5 4.5 18.5
5 4.5 19
5 4.5 19.5
0.5 0.5 5
1 0.5 5
1.5 0.5 5
2 0.5 5
2.5 0.5 5
3 0.5 5
3.5 0.5 5
4 0.5 5
4.5 0.5 5
0.5 1 5
1 1 5
1.5 1 5
2 1 5
2.5 1 5
3 1 5
3.5 1 5
4 1 5
4.5 1 5
0.5 1.5 5
1 1.5 5
1.5 1.5 5
2 1.5 5
2.5 1.5 5
3 1.5 5
3.5 1.5 5
4 1.5 5
4.5 1.5 5
0.5 2 5
1 2 5
1.5 2 5
2 2 5
2.5 2 5
3 2 5
3.5 2 5
4 2 5
4.5 2 5
0.5 2.5 5
1 2.5 5
1.5 2.5 5
2 2.5 5
2.5 2.5 5
3 2.5 5
3.5 2.5 5
4 2.5 5
4.5 2.5 5
0.5 3 5
1 3 5
1.5 3 5
2 3 5
2.5 3 5
3 3 5
3.5 3 5
4 3 5
4.5 3 5
0.5 3.5 5
1 3.5 5
1.5 3.5 5
2 3.5 5
2.5 3.5 5
3 3.5 5
3.5 3.5 5
4 3.5 5
4.5 3.5 5
0.5 4 5
1 4 5
1.5 4 5
2 4 5
2.5 4 5
3 4 5
3.5 4 5
4 4 5
4.5 4 5
0.5 4.5 5
1 4.5 5
1.5 4.5 5
2 4.5 5
2.5 4.5 5
3 4.5 5
3.5 4.5 5
4 4.5 5
4.5 4.5 5
0.5 0.5 20
1 0.5 20
1.5 0.5 20
2 0.5 20
2.5 0.5 20
3 0.5 20
3.5 0.5 20
4 0.5 20
4.5 0.5 20
0.5 1 20
1 1 20
1.5 1 20
2 1 20
2.5 1 20
3 1 20
3.5 1 20
4 1 20
4.5 1 20
0.5 1.5 20
1 1.5 20
1.5 1.5 20
2 1.5 20
2.5 1.5 20
3 1.5 20
3.5 1.5 20
4 1.5 20
4.5 1.5 20
0.5 2 20
1 2 20
1.5 2 20
2 2 20
2.5 2 20
3 2 20
3.5 2 20
4 2 20
4.5 2 20
0.5 2.5 20
1 2.5 20
1.5 2.5 20
2 2.5 20
2.5 2.5 20
3 2.5 20
3.5 2.5 20
4 2.5 20
4.5 2.5 20
0.5 3 20
1 3 20
1.5 3 20
2 3 20
2.5 3 20
3 3 20
3.5 3 20
4 3 20
4.5 3 20
0.5 3.5 20
1 3.5 20
1.5 3.5 20
2 3.5 20
2.5 3.5 20
3 3.5 20
3.5 3.5 20
4 3.5 20
4.5 3.5 20
0.5 4 20
1 4 20
1.5 4 20
2 4 20
2.5 4 20
3 4 20
3.5 4 20
4 4 20
4.5 4 20
0.5 4.5 20
1 4.5 20
1.5 4.5 20
2 4.5 20
2.5 4.5 20
3 4.5 20
3.5 4.5 20
4 4.5 20
4.5 4.5 20
4.5 0 4.5
4 0 4.5
3.5 0 4.5
3 0 4.5
2.5 0 4.5
2 0 4.5
1.5 0 4.5
1 0 4.5
0.5 0 4.5
4.5 0 4
4 0 4
3.5 0 4
3 0 4
2.5 0 4
2 0 4
1.5 0 4
1 0 4
0.5 0 4
4.5 0 3.5
4 0 3.5
3.5 0 3.5
3 0 3.5
2.5 0 3.5
2 0 3.5
1.5 0 3.5
1 0 3.5
0.5 0 3.5
4.5 0 3
4 0 3
3.5 0 3
3 0 3
2.5 0 3
2 0 3
1.5 0 3
1 0 3
0.5 0 3
4.5 0 2.5
4 0 2.5
3.5 0 2.5
3 0 2.5
2.5 0 2.5
2 0 2.5
1.5 0 2.5
1 0 2.5
0.5 0 2.5
4.5 0 2
4 0 2
3.5 0 2
3 0 2
2.5 0 2
2 0 2
1.5 0 2
1 0 2
0.5 0 2
4.5 0 1.5
4 0 1.5
3.5 0 1.5
3 0 1.5
2.5 0 1.5
2 0 1.5
1.5 0 1.5
1 0 1.5
0.5 0 1.5
4.5 0 1
4 0 1
3.5 0 1
3 0 1
2.5 0 1
2 0 1
1.5 0 1
1 0 1
0.5 0 1
4.5 0 0.5
4 0 0.5
3.5 0 0.5
3 0 0.5
2.5 0 0.5
2 0 0.5
1.5 0 0.5
1 0 0.5
0.5 0 0.5
4.5 5 4.5
4 5 4.5
3.5 5 4.5
3 5 4.5
2.5 5 4.5
2 5 4.5
1.5 5 4.5
1 5 4.5
0.5 5 4.5
4.5 5 4
4 5 4
3.5 5 4
3 5 4
2.5 5 4
2 5 4
1.5 5 4
1 5 4
0.5 5 4
4.5 5 3.5
4 5 3.5
3.5 5 3.5
3 5 3.5
2.5 5 3.5
2 5 3.5
1.5 5 3.5
1 5 3.5
0.5 5 3.5
4.5 5 3
4 5 3
3.5 5 3
3 5 3
2.5 5 3
2 5 3
1.5 5 3
1 5 3
0.5 5 3
4.5 5 2.5
4 5 2.5
3.5 5 2.5
3 5 2.5
2.5 5 2.5
2 5 2.5
1.5 5 2.5
1 5 2.5
0.5 5 2.5
4.5 5 2
4 5 2
3.5 5 2
3 5 2
2.5 5 2
2 5 2
1.5 5 2
1 5 2
0.5 5 2
4.5 5 1.5
4 5 1.5
3.5 5 1.5
3 5 1.5
2.5 5 1.5
2 5 1.5
1.5 5 1.5
1 5 1.5
0.5 5 1.5
4.5 5 1
4 5 1
3.5 5 1
3 5 1
2.5 5 1
2 5 1
1.5 5 1
1 5 1
0.5 5 1
4.5 5 0.5
4 5 0.5
3.5 5 0.5
3 5 0.5
2.5 5 0.5
2 5 0.5
1.5 5 0.5
1 5 0.5
0.5 5 0.5
5 0.5 4.5
5 0.5 4
5 0.5 3.5
5 0.5 3
5 0.5 2.5
5 0.5 2
5 0.5 1.5
5 0.5 1
5 0.5 0.5
5 1 4.5
5 1 4
5 1 3.5
5 1 3
5 1 2.5
5 1 2
5 1 1.5
5 1 1
5 1 0.5
5 1.5 4.5
5 1.5 4
5 1.5 3.5
5 1.5 3
5 1.5 2.5
5 1.5 2
5 1.5 1.5
5 1.5 1
5 1.5 0.5
5 2 4.5
5 2 4
5 2 3.5
5 2 3
5 2 2.5
5 2 2
5 2 1.5
5 2 1
5 2 0.5
5 2.5 4.5
5 2.5 4
5 2.5 3.5
5 2.5 3
5 2.5 2.5
5 2.5 2
5 2.5 1.5
5 2.5 1
5 2.5 0.5
5 3 4.5
5 3 4
5 3 3.5
5 3 3
5 3 2.5
5 3 2
5 3 1.5
5 3 1
5 3 0.5
5 3.5 4.5
5 3.5 4
5 3.5 3.5
5 3.5 3
5 3.5 2.5
5 3.5 2
5 3.5 1.5
5 3.5 1
5 3.5 0.5
5 4 4.5
5 4 4
5 4 3.5
5 4 3
5 4 2.5
5 4 2
5 4 1.5
5 4 1
5 4 0.5
5 4.5 4.5
5 4.5 4
5 4.5 3.5
5 4.5 3
5 4.5 2.5
5 4.5 2
5 4.5 1.5
5 4.5 1
5 4.5 0.5
0 0.5 4.5
0 0.5 4
0 0.5 3.5
0 0.5 3
0 0.5 2.5
0 0.5 2
0 0.5 1.5
0 0.5 1
0 0.5 0.5
0 1 4.5
0 1 4
0 1 3.5
0 1 3
0 1 2.5
0 1 2
0 1 1.5
0 1 1
0 1 0.5
0 1.5 4.5
0 1.5 4
0 1.5 3.5
0 1.5 3
0 1.5 2.5
0 1.5 2
0 1.5 1.5
0 1.5 1
0 1.5 0.5
0 2 4.5
0 2 4
0 2 3.5
0 2 3
0 2 2.5
0 2 2
0 2 1.5
0 2 1
0 2 0.5
0 2.5 4.5
0 2.5 4
0 2.5 3.5
0 2.5 3
0 2.5 2.5
0 2.5 2
0 2.5 1.5
0 2.5 1
0 2.5 0.5
0 3 4.5
0 3 4
0 3 3.5
0 3 3
0 3 2.5
0 3 2
0 3 1.5
0 3 1
0 3 0.5
0 3.5 4.5
0 3.5 4
0 3.5 3.5
0 3.5 3
0 3.5 2.5
0 3.5 2
0 3.5 1.5
0 3.5 1
0 3.5 0.5
0 4 4.5
0 4 4
0 4 3.5
0 4 3
0 4 2.5
0 4 2
0 4 1.5
0 4 1
0 4 0.5
0 4.5 4.5
0 4.5 4
0 4.5 3.5
0 4.5 3
0 4.5 2.5
0 4.5 2
0 4.5 1.5
0 4.5 1
0 4.5 0.5
4.5 0.5 0
4 0.5 0
3.5 0.5 0
3 0.5 0
2.5 0.5 0
2 0.5 0
1.5 0.5 0
1 0.5 0
0.5 0.5 0
4.5 1 0
4 1 0
3.5 1 0
3 1 0
2.5 1 0
2 1 0
1.5 1 0
1 1 0
0.5 1 0
4.5 1.5 0
4 1.5 0
3.5 1.5 0
3 1.5 0
2.5 1.5 0
2 1.5 0
1.5 1.5 0
1 1.5 0
0.5 1.5 0
4.5 2 0
4 2 0
3.5 2 0
3 2 0
2.5 2 0
2 2 0
1.5 2 0
1 2 0
0.5 2 0
4.5 2.5 0
4 2.5 0
3.5 2.5 0
3 2.5 0
2.5 2.5 0
2 2.5 0
1.5 2.5 0
1 2.5 0
0.5 2.5 0
4.5 3 0
4 3 0
3.5 3 0
3 3 0
2.5 3 0
2 3 0
1.5 3 0
1 3 0
0.5 3 0
4.5 3.5 0
4 3.5 0
3.5 3.5 0
3 3.5 0
2.5 3.5 0
2 3.5 0
1.5 3.5 0
1 3.5 0
0.5 3.5 0
4.5 4 0
4 4 0
3.5 4 0
3 4 0
2.5 4 0
2 4 0
1.5 4 0
1 4 0
0.5 4 0
4.5 4.5 0
4 4.5 0
3.5 4.5 0
3 4.5 0
2.5 4.5 0
2 4.5 0
1.5 4.5 0
1 4.5 0
0.5 4.5 0
0.5 0.5 5.5
1 0.5 5.5
1.5 0.5 5.5
2 0.5 5.5
2.5 0.5 5.5
3 0.5 5.5
3.5 0.5 5.5
4 0.5 5.5
4.5 0.5 5.5
0.5 0.5 6
1 0.5 6
1.5 0.5 6
2 0.5 6
2.5 0.5 6
3 0.5 6
3.5 0.5 6
4 0.5 6
4.5 0.5 6
0.5 0.5 6.5
1 0.5 6.5
1.5 0.5 6.5
2 0.5 6.5
2.5 0.5 6.5
3 0.5 6.5
3.5 0.5 6.5
4 0.5 6.5
4.5 0.5 6.5
0.5 0.5 7
1 0.5 7
1.5 0.5 7
2 0.5 7
2.5 0.5 7
3 0.5 7
3.5 0.5 7
4 0.5 7
4.5 0.5 7
0.5 0.5 7.5
1 0.5 7.5
1.5 0.5 7.5
2 0.5 7.5
2.5 0.5 7.5
3 0.5 7.5
3.5 0.5 7.5
4 0.5 7.5
4.5 0.5 7.5
0.5 0.5 8
1 0.5 8
1.5 0.5 8
2 0.5 8
2.5 0.5 8
3 0.5 8
3.5 0.5 8
4 0.5 8
4.5 0.5 8
0.5 0.5 8.5
1 0.5 8.5
1.5 0.5 8.5
2 0.5 8.5
2.5 0.5 8.5
3 0.5 8.5
3.5 0.5 8.5
4 0.5 8.5
4.5 0.5 8.5
0.5 0.5 9
1 0.5 9
1.5 0.5 9
2 0.5 9
2.5 0.5 9
3 0.5 9
3.5 0.5 9
4 0.5 9
4.5 0.5 9
0.5 0.5 9.5
1 0.5 9.5
1.5 0.5 9.5
2 0.5 9.5
2.5 0.5 9.5
3 0.5 9.5
3.5 0.5 9.5
4 0.5 9.5
4.5 0.5 9.5
0.5 0.5 10
1 0.5 10
1.5 0.5 10
2 0.5 10
2.5 0.5 10
3 0.5 10
3.5 0.5 10
4 0.5 10
4.5 0.5 10
0.5 0.5 10.5
1 0.5 10.5
1.5 0.5 10.5
2 0.5 10.5
2.5 0.5 10.5
3 0.5 10.5
3.5 0.5 10.5
4 0.5 10.5
4.5 0.5 10.5
0.5 0.5 11
1 0.5 11
1.5 0.5 11
2 0.5 11
2.5 0.5 11
3 0.5 11
3.5 0.5 11
4 0.5 11
4.5 0.5 11
0.5 0.5 11.5
1 0.5 11.5
1.5 0.5 11.5
2 0.5 11.5
2.5 0.5 11.5
3 0.5 11.5
3.5 0.5 11.5
4 0.5 11.5
4.5 0.5 11.5
0.5 0.5 12
1 0.5 12
1.5 0.5 12
2 0.5 12
2.5 0.5 12
3 0.5 12
3.5 0.5 12
4 0.5 12
4.5 0.5 12
0.5 0.5 12.5
1 0.5 12.5
1.5 0.5 12.5
2 0.5 12.5
2.5 0.5 12.5
3 0.5 12.5
3.5 0.5 12.5
4 0.5 12.5
4.5 0.5 12.5
0.5 0.5 13
1 0.5 13
1.5 0.5 13
2 0.5 13
2.5 0.5 13
3 0.5 13
3.5 0.5 13
4 0.5 13
4.5 0.5 13
0.5 0.5 13.5
1 0.5 13.5
1.5 0.5 13.5
2 0.5 13.5
2.5 0.5 13.5
3 0.5 13.5
3.5 0.5 13.5
4 0.5 13.5
4.5 0.5 13.5
0.5 0.5 14
1 0.5 14
1.5 0.5 14
2 0.5 14
2.5 0.5 14
3 0.5 14
3.5 0.5 14
4 0.5 14
4.5 0.5 14
0.5 0.5 14.5
1 0.5 14.5
1.5 0.5 14.5
2 0.5 14.5
2.5 0.5 14.5
3 0.5 14.5
3.5 0.5 14.5
4 0.5 14.5
4.5 0.5 14.5
0.5 0.5 15
1 0.5 15
1.5 0.5 15
2 0.5 15
2.5 0.5 15
3 0.5 15
3.5 0.5 15
4 0.5 15
4.5 0.5 15
0.5 0.5 15.5
1 0.5 15.5
1.5 0.5 15.5
2 0.5 15.5
2.5 0.5 15.5
3 0.5 15.5
3.5 0.5 15.5
4 0.5 15.5
4.5 0.5 15.5
0.5 0.5 16
1 0.5 16
1.5 0.5 16
2 0.5 16
2.5 0.5 16
3 0.5 16
3.5 0.5 16
4 0.5 16
4.5 0.5 16
0.5 0.5 16.5
1 0.5 16.5
1.5 0.5 16.5
2 0.5 16.5
2.5 0.5 16.5
3 0.5 16.5
3.5 0.5 16.5
4 0.5 16.5
4.5 0.5 16.5
0.5 0.5 17
1 0.5 17
1.5 0.5 17
2 0.5 17
2.5 0.5 17
3 0.5 17
3.5 0.5 17
4 0.5 17
4.5 0.5 17
0.5 0.5 17.5
1 0.5 17.5
1.5 0.5 17.5
2 0.5 17.5
2.5 0.5 17.5
3 0.5 17.5
3.5 0.5 17.5
4 0.5 17.5
4.5 0.5 17.5
0.5 0.5 18
1 0.5 18
1.5 0.5 18
2 0.5 18
2.5 0.5 18
3 0.5 18
3.5 0.5 18
4 0.5 18
4.5 0.5 18
0.5 0.5 18.5
1 0.5 18.5
1.5 0.5 18.5
2 0.5 18.5
2.5 0.5 18.5
3 0.5 18.5
3.5 0.5 18.5
4 0.5 18.5
4.5 0.5 18.5
0.5 0.5 19
1 0.5 19
1.5 0.5 19
2 0.5 19
2.5 0.5 19
3 0.5 19
3.5 0.5 19
4 0.5 19
4.5 0.5 19
0.5 0.5 19.5
1 0.5 19.5
1.5 0.5 19.5
2 0.5 19.5
2.5 0.5 19.5
3 0.5 19.5
3.5 0.5 19.5
4 0.5 19.5
4.5 0.5 19.5
0.5 1 5.5
1 1 5.5
1.5 1 5.5
2 1 5.5
2.5 1 5.5
3 1 5.5
3.5 1 5.5
4 1 5.5
4.5 1 5.5
0.5 1 6
1 1 6
1.5 1 6
2 1 6
2.5 1 6
3 1 6
3.5 1 6
4 1 6
4.5 1 6
0.5 1 6.5
1 1 6.5
1.5 1 6.5
2 1 6.5
2.5 1 6.5
3 1 6.5
3.5 1 6.5
4 1 6.5
4.5 1 6.5
0.5 1 7
1 1 7
1.5 1 7
2 1 7
2.5 1 7
3 1 7
3.5 1 7
4 1 7
4.5 1 7
0.5 1 7.5
1 1 7.5
1.5 1 7.5
2 1 7.5
2.5 1 7.5
3 1 7.5
3.5 1 7.5
4 1 7.5
4.5 1 7.5
0.5 1 8
1 1 8
1.5 1 8
2 1 8
2.5 1 8
3 1 8
3.5 1 8
4 1 8
4.5 1 8
0.5 1 8.5
1 1 8.5
1.5 1 8.5
2 1 8.5
2.5 1 8.5
3 1 8.5
3.5 1 8.5
4 1 8.5
4.5 1 8.5
0.5 1 9
1 1 9
1.5 1 9
2 1 9
2.5 1 9
3 1 9
3.5 1 9
4 1 9
4.5 1 9
0.5 1 9.5
1 1 9.5
1.5 1 9.5
2 1 9.5
2.5 1 9.5
3 1 9.5
3.5 1 9.5
4 1 9.5
4.5 1 9.5
0.5 1 10
1 1 10
1.5 1 10
2 1 10
2.5 1 10
3 1 10
3.5 1 10
4 1 10
4.5 1 10
0.5 1 10.5
1 1 10.5
1.5 1 10.5
2 1 10.5
2.5 1 10.5
3 1 10.5
3.5 1 10.5
4 1 10.5
4.5 1 10.5
0.5 1 11
1 1 11
1.5 1 11
2 1 11
2.5 1 11
3 1 11
3.5 1 11
4 1 11
4.5 1 11
0.5 1 11.5
1 1 11.5
1.5 1 11.5
2 1 11.5
2.5 1 11.5
3 1 11.5
3.5 1 11.5
4 1 11.5
4.5 1 11.5
0.5 1 12
1 1 12
1.5 1 12
2 1 12
2.5 1 12
3 1 12
3.5 1 12
4 1 12
4.5 1 12
0.5 1 12.5
1 1 12.5
1.5 1 12.5
2 1 12.5
2.5 1 12.5
3 1 12.5
3.5 1 12.5
4 1 12.5
4.5 1 12.5
0.5 1 13
1 1 13
1.5 1 13
2 1 13
2.5 1 13
3 1 13
3.5 1 13
4 1 13
4.5 1 13
0.5 1 13.5
1 1 13.5
1.5 1 13.5
2 1 13.5
2.5 1 13.5
3 1 13.5
3.5 1 13.5
4 1 13.5
4.5 1 13.5
0.5 1 14
1 1 14
1.5 1 14
2 1 14
2.5 1 14
3 1 14
3.5 1 14
4 1 14
4.5 1 14
0.5 1 14.5
1 1 14.5
1.5 1 14.5
2 1 14.5
2.5 1 14.5
3 1 14.5
3.5 1 14.5
4 1 14.5
4.5 1 14.5
0.5 1 15
1 1 15
1.5 1 15
2 1 15
2.5 1 15
3 1 15
3.5 1 15
4 1 15
4.5 1 15
0.5 1 15.5
1 1 15.5
1.5 1 15.5
2 1 15.5
2.5 1 15.5
3 1 15.5
3.5 1 15.5
4 1 15.5
4.5 1 15.5
0.5 1 16
1 1 16
1.5 1 16
2 1 16
2.5 1 16
3 1 16
3.5 1 16
4 1 16
4.5 1 16
0.5 1 16.5
1 1 16.5
1.5 1 16.5
2 1 16.5
2.5 1 16.5
3 1 16.5
3.5 1 16.5
4 1 16.5
4.5 1 16.5
0.5 1 17
1 1 17
1.5 1 17
2 1 17
2.5 1 17
3 1 17
3.5 1 17
4 1 17
4.5 1 17
0.5 1 17.5
1 1 17.5
1.5 1 17.5
2 1 17.5
2.5 1 17.5
3 1 17.5
3.5 1 17.5
4 1 17.5
4.5 1 17.5
0.5 1 18
1 1 18
1.5 1 18
2 1 18
2.5 1 18
3 1 18
3.5 1 18
4 1 18
4.5 1 18
0.5 1 18.5
1 1 18.5
1.5 1 18.5
2 1 18.5
2.5 1 18.5
3 1 18.5
3.5 1 18.5
4 1 18.5
4.5 1 18.5
0.5 1 19
1 1 19
1.5 1 19
2 1 19
2.5 1 19
3 1 19
3.5 1 19
4 1 19
4.5 1 19
0.5 1 19.5
1 1 19.5
1.5 1 19.5
2 1 19.5
2.5 1 19.5
3 1 19.5
3.5 1 19.5
4 1 19.5
4.5 1 19.5
0.5 1.5 5.5
1 1.5 5.5
1.5 1.5 5.5
2 1.5 5.5
2.5 1.5 5.5
3 1.5 5.5
3.5 1.5 5.5
4 1.5 5.5
4.5 1.5 5.5
0.5 1.5 6
1 1.5 6
1.5 1.5 6
2 1.5 6
2.5 1.5 6
3 1.5 6
3.5 1.5 6
4 1.5 6
4.5 1.5 6
0.5 1.5 6.5
1 1.5 6.5
1.5 1.5 6.5
2 1.5 6.5
2.5 1.5 6.5
3 1.5 6.5
3.5 1.5 6.5
4 1.5 6.5
4.5 1.5 6.5
0.5 1.5 7
1 1.5 7
1.5 1.5 7
2 1.5 7
2.5 1.5 7
3 1.5 7
3.5 1.5 7
4 1.5 7
4.5 1.5 7
0.5 1.5 7.5
1 1.5 7.5
1.5 1.5 7.5
2 1.5 7.5
2.5 1.5 7.5
3 1.5 7.5
3.5 1.5 7.5
4 1.5 7.5
4.5 1.5 7.5
0.5 1.5 8
1 1.5 8
1.5 1.5 8
2 1.5 8
2.5 1.5 8
3 1.5 8
3.5 1.5 8
4 1.5 8
4.5 1.5 8
0.5 1.5 8.5
1 1.5 8.5
1.5 1.5 8.5
2 1.5 8.5
2.5 1.5 8.5
3 1.5 8.5
3.5 1.5 8.5
4 1.5 8.5
4.5 1.5 8.5
0.5 1.5 9
1 1.5 9
1.5 1.5 9
2 1.5 9
2.5 1.5 9
3 1.5 9
3.5 1.5 9
4 1.5 9
4.5 1.5 9
0.5 1.5 9.5
1 1.5 9.5
1.5 1.5 9.5
2 1.5 9.5
2.5 1.5 9.5
3 1.5 9.5
3.5 1.5 9.5
4 1.5 9.5
4.5 1.5 9.5
0.5 1.5 10
1 1.5 10
1.5 1.5 10
2 1.5 10
2.5 1.5 10
3 1.5 10
3.5 1.5 10
4 1.5 10
4.5 1.5 10
0.5 1.5 10.5
1 1.5 10.5
1.5 1.5 10.5
2 1.5 10.5
2.5 1.5 10.5
3 1.5 10.5
3.5 1.5 10.5
4 1.5 10.5
4.5 1.5 10.5
0.5 1.5 11
1 1.5 11
1.5 1.5 11
2 1.5 11
2.5 1.5 11
3 1.5 11
3.5 1.5 11
4 1.5 11
4.5 1.5 11
0.5 1.5 11.5
1 1.5 11.5
1.5 1.5 11.5
2 1.5 11.5
2.5 1.5 11.5
3 1.5 11.5
3.5 1.5 11.5
4 1.5 11.5
4.5 1.5 11.5
0.5 1.5 12
1 1.5 12
1.5 1.5 12
2 1.5 12
2.5 1.5 12
3 1.5 12
3.5 1.5 12
4 1.5 12
4.5 1.5 12
0.5 1.5 12.5
1 1.5 12.5
1.5 1.5 12.5
2 1.5 12.5
2.5 1.5 12.5
3 1.5 12.5
3.5 1.5 12.5
4 1.5 12.5
4.5 1.5 12.5
0.5 1.5 13
1 1.5 13
1.5 1.5 13
2 1.5 13
2.5 1.5 13
3 1.5 13
3.5 1.5 13
4 1.5 13
4.5 1.5 13
0.5 1.5 13.5
1 1.5 13.5
1.5 1.5 13.5
2 1.5 13.5
2.5 1.5 13.5
3 1.5 13.5
3.5 1.5 13.5
4 1.5 13.5
4.5 1.5 13.5
0.5 1.5 14
1 1.5 14
1.5 1.5 14
2 1.5 14
2.5 1.5 14
3 1.5 14
3.5 1.5 14
4 1.5 14
4.5 1.5 14
0.5 1.5 14.5
1 1.5 14.5
1.5 1.5 14.5
2 1.5 14.5
2.5 1.5 14.5
3 1.5 14.5
3.5 1.5 14.5
4 1.5 14.5
4.5 1.5 14.5
0.5 1.5 15
1 1.5 15
1.5 1.5 15
2 1.5 15
2.5 1.5 15
3 1.5 15
3.5 1.5 15
4 1.5 15
4.5 1.5 15
0.5 1.5 15.5
1 1.5 15.5
1.5 1.5 15.5
2 1.5 15.5
2.5 1.5 15.5
3 1.5 15.5
3.5 1.5 15.5
4 1.5 15.5
4.5 1.5 15.5
0.5 1.5 16
1 1.5 16
1.5 1.5 16
2 1.5 16
2.5 1.5 16
3 1.5 16
3.5 1.5 16
4 1.5 16
4.5 1.5 16
0.5 1.5 16.5
1 1.5 16.5
1.5 1.5 16.5
2 1.5 16.5
2.5 1.5 16.5
3 1.5 16.5
3.5 1.5 16.5
4 1.5 16.5
4.5 1.5 16.5
0.5 1.5 17
1 1.5 17
1.5 1.5 17
2 1.5 17
2.5 1.5 17
3 1.5 17
3.5 1.5 17
4 1.5 17
4.5 1.5 17
0.5 1.5 17.5
1 1.5 17.5
1.5 1.5 17.5
2 1.5 17.5
2.5 1.5 17.5
3 1.5 17.5
3.5 1.5 17.5
4 1.5 17.5
4.5 1.5 17.5
0.5 1.5 18
1 1.5 18
1.5 1.5 18
2 1.5 18
2.5 1.5 18
3 1.5 18
3.5 1.5 18
4 1.5 18
4.5 1.5 18
0.5 1.5 18.5
1 1.5 18.5
1.5 1.5 18.5
2 1.5 18.5
2.5 1.5 18.5
3 1.5 18.5
3.5 1.5 18.5
4 1.5 18.5
4.5 1.5 18.5
0.5 1.5 19
1 1.5 19
1.5 1.5 19
2 1.5 19
2.5 1.5 19
3 1.5 19
3.5 1.5 19
4 1.5 19
4.5 1.5 19
0.5 1.5 19.5
1 1.5 19.5
1.5 1.5 19.5
2 1.5 19.5
2.5 1.5 19.5
3 1.5 19.5
3.5 1.5 19.5
4 1.5 19.5
4.5 1.5 19.5
0.5 2 5.5
1 2 5.5
1.5 2 5.5
2 2 5.5
2.5 2 5.5
3 2 5.5
3.5 2 5.5
4 2 5.5
4.5 2 5.5
0.5 2 6
1 2 6
1.5 2 6
2 2 6
2.5 2 6
3 2 6
3.5 2 6
4 2 6
4.5 2 6
0.5 2 6.5
1 2 6.5
1.5 2 6.5
2 2 6.5
2.5 2 6.5
3 2 6.5
3.5 2 6.5
4 2 6.5
4.5 2 6.5
0.5 2 7
1 2 7
1.5 2 7
2 2 7
2.5 2 7
3 2 7
3.5 2 7
4 2 7
4.5 2 7
0.5 2 7.5
1 2 7.5
1.5 2 7.5
2 2 7.5
2.5 2 7.5
3 2 7.5
3.5 2 7.5
4 2 7.5
4.5 2 7.5
0.5 2 8
1 2 8
1.5 2 8
2 2 8
2.5 2 8
3 2 8
3.5 2 8
4 2 8
4.5 2 8
0.5 2 8.5
1 2 8.5
1.5 2 8.5
2 2 8.5
2.5 2 8.5
3 2 8.5
3.5 2 8.5
4 2 8.5
4.5 2 8.5
0.5 2 9
1 2 9
1.5 2 9
2 2 9
2.5 2 9
3 2 9
3.5 2 9
4 2 9
4.5 2 9
0.5 2 9.5
1 2 9.5
1.5 2 9.5
2 2 9.5
2.5 2 9.5
3 2 9.5
3.5 2 9.5
4 2 9.5
4.5 2 9.5
0.5 2 10
1 2 10
1.5 2 10
2 2 10
2.5 2 10
3 2 10
3.5 2 10
4 2 10
4.5 2 10
0.5 2 10.5
1 2 10.5
1.5 2 10.5
2 2 10.5
2.5 2 10.5
3 2 10.5
3.5 2 10.5
4 2 10.5
4.5 2 10.5
0.5 2 11
1 2 11
1.5 2 11
2 2 11
2.5 2 11
3 2 11
3.5 2 11
4 2 11
4.5 2 11
0.5 2 11.5
1 2 11.5
1.5 2 11.5
2 2 11.5
2.5 2 11.5
3 2 11.5
3.5 2 11.5
4 2 11.5
4.5 2 11.5
0.5 2 12
1 2 12
1.5 2 12
2 2 12
2.5 2 12
3 2 12
3.5 2 12
4 2 12
4.5 2 12
0.5 2 12.5
1 2 12.5
1.5 2 12.5
2 2 12.5
2.5 2 12.5
3 2 12.5
3.5 2 12.5
4 2 12.5
4.5 2 12.5
0.5 2 13
1 2 13
1.5 2 13
2 2 13
2.5 2 13
3 2 13
3.5 2 13
4 2 13
4.5 2 13
0.5 2 13.5
1 2 13.5
1.5 2 13.5
2 2 13.5
2.5 2 13.5
3 2 13.5
3.5 2 13.5
4 2 13.5
4.5 2 13.5
0.5 2 14
1 2 14
1.5 2 14
2 2 14
2.5 2 14
3 2 14
3.5 2 14
4 2 14
4.5 2 14
0.5 2 14.5
1 2 14.5
1.5 2 14.5
2 2 14.5
2.5 2 14.5
3 2 14.5
3.5 2 14.5
4 2 14.5
4.5 2 14.5
0.5 2 15
1 2 15
1.5 2 15
2 2 15
2.5 2 15
3 2 15
3.5 2 15
4 2 15
4.5 2 15
0.5 2 15.5
1 2 15.5
1.5 2 15.5
2 2 15.5
2.5 2 15.5
3 2 15.5
3.5 2 15.5
4 2 15.5
4.5 2 15.5
0.5 2 16
1 2 16
1.5 2 16
2 2 16
2.5 2 16
3 2 16
3.5 2 16
4 2 16
4.5 2 16
0.5 2 16.5
1 2 16.5
1.5 2 16.5
2 2 16.5
2.5 2 16.5
3 2 16.5
3.5 2 16.5
4 2 16.5
4.5 2 16.5
0.5 2 17
1 2 17
1.5 2 17
2 2 17
2.5 2 17
3 2 17
3.5 2 17
4 2 17
4.5 2 17
0.5 2 17.5
1 2 17.5
1.5 2 17.5
2 2 17.5
2.5 2 17.5
3 2 17.5
3.5 2 17.5
4 2 17.5
4.5 2 17.5
0.5 2 18
1 2 18
1.5 2 18
2 2 18
2.5 2 18
3 2 18
3.5 2 18
4 2 18
4.5 2 18
0.5 2 18.5
1 2 18.5
1.5 2 18.5
2 2 18.5
2.5 2 18.5
3 2 18.5
3.5 2 18.5
4 2 18.5
4.5 2 18.5
0.5 2 19
1 2 19
1.5 2 19
2 2 19
2.5 2 19
3 2 19
3.5 2 19
4 2 19
4.5 2 19
0.5 2 19.5
1 2 19.5
1.5 2 19.5
2 2 19.5
2.5 2 19.5
3 2 19.5
3.5 2 19.5
4 2 19.5
4.5 2 19.5
0.5 2.5 5.5
1 2.5 5.5
1.5 2.5 5.5
2 2.5 5.5
2.5 2.5 5.5
3 2.5 5.5
3.5 2.5 5.5
4 2.5 5.5
4.5 2.5 5.5
0.5 2.5 6
1 2.5 6
1.5 2.5 6
2 2.5 6
2.5 2.5 6
3 2.5 6
3.5 2.5 6
4 2.5 6
4.5 2.5 6
0.5 2.5 6.5
1 2.5 6.5
1.5 2.5 6.5
2 2.5 6.5
2.5 2.5 6.5
3 2.5 6.5
3.5 2.5 6.5
4 2.5 6.5
4.5 2.5 6.5
0.5 2.5 7
1 2.5 7
1.5 2.5 7
2 2.5 7
2.5 2.5 7
3 2.5 7
3.5 2.5 7
4 2.5 7
4.5 2.5 7
0.5 2.5 7.5
1 2.5 7.5
1.5 2.5 7.5
2 2.5 7.5
2.5 2.5 7.5
3 2.5 7.5
3.5 2.5 7.5
4 2.5 7.5
4.5 2.5 7.5
0.5 2.5 8
1 2.5 8
1.5 2.5 8
2 2.5 8
2.5 2.5 8
3 2.5 8
3.5 2.5 8
4 2.5 8
4.5 2.5 8
0.5 2.5 8.5
1 2.5 8.5
1.5 2.5 8.5
2 2.5 8.5
2.5 2.5 8.5
3 2.5 8.5
3.5 2.5 8.5
4 2.5 8.5
4.5 2.5 8.5
0.5 2.5 9
1 2.5 9
1.5 2.5 9
2 2.5 9
2.5 2.5 9
3 2.5 9
3.5 2.5 9
4 2.5 9
4.5 2.5 9
0.5 2.5 9.5
1 2.5 9.5
1.5 2.5 9.5
2 2.5 9.5
2.5 2.5 9.5
3 2.5 9.5
3.5 2.5 9.5
4 2.5 9.5
4.5 2.5 9.5
0.5 2.5 10
1 2.5 10
1.5 2.5 10
2 2.5 10
2.5 2.5 10
3 2.5 10
3.5 2.5 10
4 2.5 10
4.5 2.5 10
0.5 2.5 10.5
1 2.5 10.5
1.5 2.5 10.5
2 2.5 10.5
2.5 2.5 10.5
3 2.5 10.5
3.5 2.5 10.5
4 2.5 10.5
4.5 2.5 10.5
0.5 2.5 11
1 2.5 11
1.5 2.5 11
2 2.5 11
2.5 2.5 11
3 2.5 11
3.5 2.5 11
4 2.5 11
4.5 2.5 11
0.5 2.5 11.5
1 2.5 11.5
1.5 2.5 11.5
2 2.5 11.5
2.5 2.5 11.5
3 2.5 11.5
3.5 2.5 11.5
4 2.5 11.5
4.5 2.5 11.5
0.5 2.5 12
1 2.5 12
1.5 2.5 12
2 2.5 12
2.5 2.5 12
3 2.5 12
3.5 2.5 12
4 2.5 12
4.5 2.5 12
0.5 2.5 12.5
1 2.5 12.5
1.5 2.5 12.5
2 2.5 12.5
2.5 2.5 12.5
3 2.5 12.5
3.5 2.5 12.5
4 2.5 12.5
4.5 2.5 12.5
0.5 2.5 13
1 2.5 13
1.5 2.5 13
2 2.5 13
2.5 2.5 13
3 2.5 13
3.5 2.5 13
4 2.5 13
4.5 2.5 13
0.5 2.5 13.5
1 2.5 13.5
1.5 2.5 13.5
2 2.5 13.5
2.5 2.5 13.5
3 2.5 13.5
3.5 2.5 13.5
4 2.5 13.5
4.5 2.5 13.5
0.5 2.5 14
1 2.5 14
1.5 2.5 14
2 2.5 14
2.5 2.5 14
3 2.5 14
3.5 2.5 14
4 2.5 14
4.5 2.5 14
0.5 2.5 14.5
1 2.5 14.5
1.5 2.5 14.5
2 2.5 14.5
2.5 2.5 14.5
3 2.5 14.5
3.5 2.5 14.5
4 2.5 14.5
4.5 2.5 14.5
0.5 2.5 15
1 2.5 15
1.5 2.5 15
2 2.5 15
2.5 2.5 15
3 2.5 15
3.5 2.5 15
4 2.5 15
4.5 2.5 15
0.5 2.5 15.5
1 2.5 15.5
1.5 2.5 15.5
2 2.5 15.5
2.5 2.5 15.5
3 2.5 15.5
3.5 2.5 15.5
4 2.5 15.5
4.5 2.5 15.5
0.5 2.5 16
1 2.5 16
1.5 2.5 16
2 2.5 16
2.5 2.5 16
3 2.5 16
3.5 2.5 16
4 2.5 16
4.5 2.5 16
0.5 2.5 16.5
1 2.5 16.5
1.5 2.5 16.5
2 2.5 16.5
2.5 2.5 16.5
3 2.5 16.5
3.5 2.5 16.5
4 2.5 16.5
4.5 2.5 16.5
0.5 2.5 17
1 2.5 17
1.5 2.5 17
2 2.5 17
2.5 2.5 17
3 2.5 17
3.5 2.5 17
4 2.5 17
4.5 2.5 17
0.5 2.5 17.5
1 2.5 17.5
1.5 2.5 17.5
2 2.5 17.5
2.5 2.5 17.5
3 2.5 17.5
3.5 2.5 17.5
4 2.5 17.5
4.5 2.5 17.5
0.5 2.5 18
1 2.5 18
1.5 2.5 18
2 2.5 18
2.5 2.5 18
3 2.5 18
3.5 2.5 18
4 2.5 18
4.5 2.5 18
0.5 2.5 18.5
1 2.5 18.5
1.5 2.5 18.5
2 2.5 18.5
2.5 2.5 18.5
3 2.5 18.5
3.5 2.5 18.5
4 2.5 18.5
4.5 2.5 18.5
0.5 2.5 19
1 2.5 19
1.5 2.5 19
2 2.5 19
2.5 2.5 19
3 2.5 19
3.5 2.5 19
4 2.5 19
4.5 2.5 19
0.5 2.5 19.5
1 2.5 19.5
1.5 2.5 19.5
2 2.5 19.5
2.5 2.5 19.5
3 2.5 19.5
3.5 2.5 19.5
4 2.5 19.5
4.5 2.5 19.5
0.5 3 5.5
1 3 5.5
1.5 3 5.5
2 3 5.5
2.5 3 5.5
3 3 5.5
3.5 3 5.5
4 3 5.5
4.5 3 5.5
0.5 3 6
1 3 6
1.5 3 6
2 3 6
2.5 3 6
3 3 6
3.5 3 6
4 3 6
4.5 3 6
0.5 3 6.5
1 3 6.5
1.5 3 6.5
2 3 6.5
2.5 3 6.5
3 3 6.5
3.5 3 6.5
4 3 6.5
4.5 3 6.5
0.5 3 7
1 3 7
1.5 3 7
2 3 7
2.5 3 7
3 3 7
3.5 3 7
4 3 7
4.5 3 7
0.5 3 7.5
1 3 7.5
1.5 3 7.5
2 3 7.5
2.5 3 7.5
3 3 7.5
3.5 3 7.5
4 3 7.5
4.5 3 7.5
0.5 3 8
1 3 8
1.5 3 8
2 3 8
2.5 3 8
3 3 8
3.5 3 8
4 3 8
4.5 3 8
0.5 3 8.5
1 3 8.5
1.5 3 8.5
2 3 8.5
2.5 3 8.5
3 3 8.5
3.5 3 8.5
4 3 8.5
4.5 3 8.5
0.5 3 9
1 3 9
1.5 3 9
2 3 9
2.5 3 9
3 3 9
3.5 3 9
4 3 9
4.5 3 9
0.5 3 9.5
1 3 9.5
1.5 3 9.5
2 3 9.5
2.5 3 9.5
3 3 9.5
3.5 3 9.5
4 3 9.5
4.5 3 9.5
0.5 3 10
1 3 10
1.5 3 10
2 3 10
2.5 3 10
3 3 10
3.5 3 10
4 3 10
4.5 3 10
0.5 3 10.5
1 3 10.5
1.5 3 10.5
2 3 10.5
2.5 3 10.5
3 3 10.5
3.5 3 10.5
4 3 10.5
4.5 3 10.5
0.5 3 11
1 3 11
1.5 3 11
2 3 11
2.5 3 11
3 3 11
3.5 3 11
4 3 11
4.5 3 11
0.5 3 11.5
1 3 11.5
1.5 3 11.5
2 3 11.5
2.5 3 11.5
3 3 11.5
3.5 3 11.5
4 3 11.5
4.5 3 11.5
0.5 3 12
1 3 12
1.5 3 12
2 3 12
2.5 3 12
3 3 12
3.5 3 12
4 3 12
4.5 3 12
0.5 3 12.5
1 3 12.5
1.5 3 12.5
2 3 12.5
2.5 3 12.5
3 3 12.5
3.5 3 12.5
4 3 12.5
4.5 3 12.5
0.5 3 13
1 3 13
1.5 3 13
2 3 13
2.5 3 13
3 3 13
3.5 3 13
4 3 13
4.5 3 13
0.5 3 13.5
1 3 13.5
1.5 3 13.5
2 3 13.5
2.5 3 13.5
3 3 13.5
3.5 3 13.5
4 3 13.5
4.5 3 13.5
0.5 3 14
1 3 14
1.5 3 14
2 3 14
2.5 3 14
3 3 14
3.5 3 14
4 3 14
4.5 3 14
0.5 3 14.5
1 3 14.5
1.5 3 14.5
2 3 14.5
2.5 3 14.5
3 3 14.5
3.5 3 14.5
4 3 14.5
4.5 3 14.5
0.5 3 15
1 3 15
1.5 3 15
2 3 15
2.5 3 15
3 3 15
3.5 3 15
4 3 15
4.5 3 15
0.5 3 15.5
1 3 15.5
1.5 3 15.5
2 3 15.5
2.5 3 15.5
3 3 15.5
3.5 3 15.5
4 3 15.5
4.5 3 15.5
0.5 3 16
1 3 16
1.5 3 16
2 3 16
2.5 3 16
3 3 16
3.5 3 16
4 3 16
4.5 3 16
0.5 3 16.5
1 3 16.5
1.5 3 16.5
2 3 16.5
2.5 3 16.5
3 3 16.5
3.5 3 16.5
4 3 16.5
4.5 3 16.5
0.5 3 17
1 3 17
1.5 3 17
2 3 17
2.5 3 17
3 3 17
3.5 3 17
4 3 17
4.5 3 17
0.5 3 17.5
1 3 17.5
1.5 3 17.5
2 3 17.5
2.5 3 17.5
3 3 17.5
3.5 3 17.5
4 3 17.5
4.5 3 17.5
0.5 3 18
1 3 18
1.5 3 18
2 3 18
2.5 3 18
3 3 18
3.5 3 18
4 3 18
4.5 3 18
0.5 3 18.5
1 3 18.5
1.5 3 18.5
2 3 18.5
2.5 3 18.5
3 3 18.5
3.5 3 18.5
4 3 18.5
4.5 3 18.5
0.5 3 19
1 3 19
1.5 3 19
2 3 19
2.5 3 19
3 3 19
3.5 3 19
4 3 19
4.5 3 19
0.5 3 19.5
1 3 19.5
1.5 3 19.5
2 3 19.5
2.5 3 19.5
3 3 19.5
3.5 3 19.5
4 3 19.5
4.5 3 19.5
0.5 3.5 5.5
1 3.5 5.5
1.5 3.5 5.5
2 3.5 5.5
2.5 3.5 5.5
3 3.5 5.5
3.5 3.5 5.5
4 3.5 5.5
4.5 3.5 5.5
0.5 3.5 6
1 3.5 6
1.5 3.5 6
2 3.5 6
2.5 3.5 6
3 3.5 6
3.5 3.5 6
4 3.5 6
4.5 3.5 6
0.5 3.5 6.5
1 3.5 6.5
1.5 3.5 6.5
2 3.5 6.5
2.5 3.5 6.5
3 3.5 6.5
3.5 3.5 6.5
4 3.5 6.5
4.5 3.5 6.5
0.5 3.5 7
1 3.5 7
1.5 3.5 7
2 3.5 7
2.5 3.5 7
3 3.5 7
3.5 3.5 7
4 3.5 7
4.5 3.5 7
0.5 3.5 7.5
1 3.5 7.5
1.5 3.5 7.5
2 3.5 7.5
2.5 3.5 7.5
3 3.5 7.5
3.5 3.5 7.5
4 3.5 7.5
4.5 3.5 7.5
0.5 3.5 8
1 3.5 8
1.5 3.5 8
2 3.5 8
2.5 3.5 8
3 3.5 8
3.5 3.5 8
4 3.5 8
4.5 3.5 8
0.5 3.5 8.5
1 3.5 8.5
1.5 3.5 8.5
2 3.5 8.5
2.5 3.5 8.5
3 3.5 8.5
3.5 3.5 8.5
4 3.5 8.5
4.5 3.5 8.5
0.5 3.5 9
1 3.5 9
1.5 3.5 9
2 3.5 9
2.5 3.5 9
3 3.5 9
3.5 3.5 9
4 3.5 9
4.5 3.5 9
0.5 3.5 9.5
1 3.5 9.5
1.5 3.5 9.5
2 3.5 9.5
2.5 3.5 9.5
3 3.5 9.5
3.5 3.5 9.5
4 3.5 9.5
4.5 3.5 9.5
0.5 3.5 10
1 3.5 10
1.5 3.5 10
2 3.5 10
2.5 3.5 10
3 3.5 10
3.5 3.5 10
4 3.5 10
4.5 3.5 10
0.5 3.5 10.5
1 3.5 10.5
1.5 3.5 10.5
2 3.5 10.5
2.5 3.5 10.5
3 3.5 10.5
3.5 3.5 10.5
4 3.5 10.5
4.5 3.5 10.5
0.5 3.5 11
1 3.5 11
1.5 3.5 11
2 3.5 11
2.5 3.5 11
3 3.5 11
3.5 3.5 11
4 3.5 11
4.5 3.5 11
0.5 3.5 11.5
1 3.5 11.5
1.5 3.5 11.5
2 3.5 11.5
2.5 3.5 11.5
3 3.5 11.5
3.5 3.5 11.5
4 3.5 11.5
4.5 3.5 11.5
0.5 3.5 12
1 3.5 12
1.5 3.5 12
2 3.5 12
2.5 3.5 12
3 3.5 12
3.5 3.5 12
4 3.5 12
4.5 3.5 12
0.5 3.5 12.5
1 3.5 12.5
1.5 3.5 12.5
2 3.5 12.5
2.5 3.5 12.5
3 3.5 12.5
3.5 3.5 12.5
4 3.5 12.5
4.5 3.5 12.5
0.5 3.5 13
1 3.5 13
1.5 3.5 13
2 3.5 13
2.5 3.5 13
3 3.5 13
3.5 3.5 13
4 3.5 13
4.5 3.5 13
0.5 3.5 13.5
1 3.5 13.5
1.5 3.5 13.5
2 3.5 13.5
2.5 3.5 13.5
3 3.5 13.5
3.5 3.5 13.5
4 3.5 13.5
4.5 3.5 13.5
0.5 3.5 14
1 3.5 14
1.5 3.5 14
2 3.5 14
2.5 3.5 14
3 3.5 14
3.5 3.5 14
4 3.5 14
4.5 3.5 14
0.5 3.5 14.5
1 3.5 14.5
1.5 3.5 14.5
2 3.5 14.5
2.5 3.5 14.5
3 3.5 14.5
3.5 3.5 14.5
4 3.5 14.5
4.5 3.5 14.5
0.5 3.5 15
1 3.5 15
1.5 3.5 15
2 3.5 15
2.5 3.5 15
3 3.5 15
3.5 3.5 15
4 3.5 15
4.5 3.5 15
0.5 3.5 15.5
1 3.5 15.5
1.5 3.5 15.5
2 3.5 15.5
2.5 3.5 15.5
3 3.5 15.5
3.5 3.5 15.5
4 3.5 15.5
4.5 3.5 15.5
0.5 3.5 16
1 3.5 16
1.5 3.5 16
2 3.5 16
2.5 3.5 16
3 3.5 16
3.5 3.5 16
4 3.5 16
4.5 3.5 16
0.5 3.5 16.5
1 3.5 16.5
1.5 3.5 16.5
2 3.5 16.5
2.5 3.5 16.5
3 3.5 16.5
3.5 3.5 16.5
4 3.5 16.5
4.5 3.5 16.5
0.5 3.5 17
1 3.5 17
1.5 3.5 17
2 3.5 17
2.5 3.5 17
3 3.5 17
3.5 3.5 17
4 3.5 17
4.5 3.5 17
0.5 3.5 17.5
1 3.5 17.5
1.5 3.5 17.5
2 3.5 17.5
2.5 3.5 17.5
3 3.5 17.5
3.5 3.5 17.5
4 3.5 17.5
4.5 3.5 17.5
0.5 3.5 18
1 3.5 18
1.5 3.5 18
2 3.5 18
2.5 3.5 18
3 3.5 18
3.5 3.5 18
4 3.5 18
4.5 3.5 18
0.5 3.5 18.5
1 3.5 18.5
1.5 3.5 18.5
2 3.5 18.5
2.5 3.5 18.5
3 3.5 18.5
3.5 3.5 18.5
4 3.5 18.5
4.5 3.5 18.5
0.5 3.5 19
1 3.5 19
1.5 3.5 19
2 3.5 19
2.5 3.5 19
3 3.5 19
3.5 3.5 19
4 3.5 19
4.5 3.5 19
0.5 3.5 19.5
1 3.5 19.5
1.5 3.5 19.5
2 3.5 19.5
2.5 3.5 19.5
3 3.5 19.5
3.5 3.5 19.5
4 3.5 19.5
4.5 3.5 19.5
0.5 4 5.5
1 4 5.5
1.5 4 5.5
2 4 5.5
2.5 4 5.5
3 4 5.5
3.5 4 5.5
4 4 5.5
4.5 4 5.5
0.5 4 6
1 4 6
1.5 4 6
2 4 6
2.5 4 6
3 4 6
3.5 4 6
4 4 6
4.5 4 6
0.5 4 6.5
1 4 6.5
1.5 4 6.5
2 4 6.5
2.5 4 6.5
3 4 6.5
3.5 4 6.5
4 4 6.5
4.5 4 6.5
0.5 4 7
1 4 7
1.5 4 7
2 4 7
2.5 4 7
3 4 7
3.5 4 7
4 4 7
4.5 4 7
0.5 4 7.5
1 4 7.5
1.5 4 7.5
2 4 7.5
2.5 4 7.5
3 4 7.5
3.5 4 7.5
4 4 7.5
4.5 4 7.5
0.5 4 8
1 4 8
1.5 4 8
2 4 8
2.5 4 8
3 4 8
3.5 4 8
4 4 8
4.5 4 8
0.5 4 8.5
1 4 8.5
1.5 4 8.5
2 4 8.5
2.5 4 8.5
3 4 8.5
3.5 4 8.5
4 4 8.5
4.5 4 8.5
0.5 4 9
1 4 9
1.5 4 9
2 4 9
2.5 4 9
3 4 9
3.5 4 9
4 4 9
4.5 4 9
0.5 4 9.5
1 4 9.5
1.5 4 9.5
2 4 9.5
2.5 4 9.5
3 4 9.5
3.5 4 9.5
4 4 9.5
4.5 4 9.5
0.5 4 10
1 4 10
1.5 4 10
2 4 10
2.5 4 10
3 4 10
3.5 4 10
4 4 10
4.5 4 10
0.5 4 10.5
1 4 10.5
1.5 4 10.5
2 4 10.5
2.5 4 10.5
3 4 10.5
3.5 4 10.5
4 4 10.5
4.5 4 10.5
0.5 4 11
1 4 11
1.5 4 11
2 4 11
2.5 4 11
3 4 11
3.5 4 11
4 4 11
4.5 4 11
0.5 4 11.5
1 4 11.5
1.5 4 11.5
2 4 11.5
2.5 4 11.5
3 4 11.5
3.5 4 11.5
4 4 11.5
4.5 4 11.5
0.5 4 12
1 4 12
1.5 4 12
2 4 12
2.5 4 12
3 4 12
3.5 4 12
4 4 12
4.5 4 12
0.5 4 12.5
1 4 12.5
1.5 4 12.5
2 4 12.5
2.5 4 12.5
3 4 12.5
3.5 4 12.5
4 4 12.5
4.5 4 12.5
0.5 4 13
1 4 13
1.5 4 13
2 4 13
2.5 4 13
3 4 13
3.5 4 13
4 4 13
4.5 4 13
0.5 4 13.5
1 4 13.5
1.5 4 13.5
2 4 13.5
2.5 4 13.5
3 4 13.5
3.5 4 13.5
4 4 13.5
4.5 4 13.5
0.5 4 14
1 4 14
1.5 4 14
2 4 14
2.5 4 14
3 4 14
3.5 4 14
4 4 14
4.5 4 14
0.5 4 14.5
1 4 14.5
1.5 4 14.5
2 4 14.5
2.5 4 14.5
3 4 14.5
3.5 4 14.5
4 4 14.5
4.5 4 14.5
0.5 4 15
1 4 15
1.5 4 15
2 4 15
2.5 4 15
3 4 15
3.5 4 15
4 4 15
4.5 4 15
0.5 4 15.5
1 4 15.5
1.5 4 15.5
2 4 15.5
2.5 4 15.5
3 4 15.5
3.5 4 15.5
4 4 15.5
4.5 4 15.5
0.5 4 16
1 4 16
1.5 4 16
2 4 16
2.5 4 16
3 4 16
3.5 4 16
4 4 16
4.5 4 16
0.5 4 16.5
1 4 16.5
1.5 4 16.5
2 4 16.5
2.5 4 16.5
3 4 16.5
3.5 4 16.5
4 4 16.5
4.5 4 16.5
0.5 4 17
1 4 17
1.5 4 17
2 4 17
2.5 4 17
3 4 17
3.5 4 17
4 4 17
4.5 4 17
0.5 4 17.5
1 4 17.5
1.5 4 17.5
2 4 17.5
2.5 4 17.5
3 4 17.5
3.5 4 17.5
4 4 17.5
4.5 4 17.5
0.5 4 18
1 4 18
1.5 4 18
2 4 18
2.5 4 18
3 4 18
3.5 4 18
4 4 18
4.5 4 18
0.5 4 18.5
1 4 18.5
1.5 4 18.5
2 4 18.5
2.5 4 18.5
3 4 18.5
3.5 4 18.5
4 4 18.5
4.5 4 18.5
0.5 4 19
1 4 19
1.5 4 19
2 4 19
2.5 4 19
3 4 19
3.5 4 19
4 4 19
4.5 4 19
0.5 4 19.5
1 4 19.5
1.5 4 19.5
2 4 19.5
2.5 4 19.5
3 4 19.5
3.5 4 19.5
4 4 19.5
4.5 4 19.5
0.5 4.5 5.5
1 4.5 5.5
1.5 4.5 5.5
2 4.5 5.5
2.5 4.5 5.5
3 4.5 5.5
3.5 4.5 5.5
4 4.5 5.5
4.5 4.5 5.5
0.5 4.5 6
1 4.5 6
1.5 4.5 6
2 4.5 6
2.5 4.5 6
3 4.5 6
3.5 4.5 6
4 4.5 6
4.5 4.5 6
0.5 4.5 6.5
1 4.5 6.5
1.5 4.5 6.5
2 4.5 6.5
2.5 4.5 6.5
3 4.5 6.5
3.5 4.5 6.5
4 4.5 6.5
4.5 4.5 6.5
0.5 4.5 7
1 4.5 7
1.5 4.5 7
2 4.5 7
2.5 4.5 7
3 4.5 7
3.5 4.5 7
4 4.5 7
4.5 4.5 7
0.5 4.5 7.5
1 4.5 7.5
1.5 4.5 7.5
2 4.5 7.5
2.5 4.5 7.5
3 4.5 7.5
3.5 4.5 7.5
4 4.5 7.5
4.5 4.5 7.5
0.5 4.5 8
1 4.5 8
1.5 4.5 8
2 4.5 8
2.5 4.5 8
3 4.5 8
3.5 4.5 8
4 4.5 8
4.5 4.5 8
0.5 4.5 8.5
1 4.5 8.5
1.5 4.5 8.5
2 4.5 8.5
2.5 4.5 8.5
3 4.5 8.5
3.5 4.5 8.5
4 4.5 8.5
4.5 4.5 8.5
0.5 4.5 9
1 4.5 9
1.5 4.5 9
2 4.5 9
2.5 4.5 9
3 4.5 9
3.5 4.5 9
4 4.5 9
4.5 4.5 9
0.5 4.5 9.5
1 4.5 9.5
1.5 4.5 9.5
2 4.5 9.5
2.5 4.5 9.5
3 4.5 9.5
3.5 4.5 9.5
4 4.5 9.5
4.5 4.5 9.5
0.5 4.5 10
1 4.5 10
1.5 4.5 10
2 4.5 10
2.5 4.5 10
3 4.5 10
3.5 4.5 10
4 4.5 10
4.5 4.5 10
0.5 4.5 10.5
1 4.5 10.5
1.5 4.5 10.5
2 4.5 10.5
2.5 4.5 10.5
3 4.5 10.5
3.5 4.5 10.5
4 4.5 10.5
4.5 4.5 10.5
0.5 4.5 11
1 4.5 11
1.5 4.5 11
2 4.5 11
2.5 4.5 11
3 4.5 11
3.5 4.5 11
4 4.5 11
4.5 4.5 11
0.5 4.5 11.5
1 4.5 11.5
1.5 4.5 11.5
2 4.5 11.5
2.5 4.5 11.5
3 4.5 11.5
3.5 4.5 11.5
4 4.5 11.5
4.5 4.5 11.5
0.5 4.5 12
1 4.5 12
1.5 4.5 12
2 4.5 12
2.5 4.5 12
3 4.5 12
3.5 4.5 12
4 4.5 12
4.5 4.5 12
0.5 4.5 12.5
1 4.5 12.5
1.5 4.5 12.5
2 4.5 12.5
2.5 4.5 12.5
3 4.5 12.5
3.5 4.5 12.5
4 4.5 12.5
4.5 4.5 12.5
0.5 4.5 13
1 4.5 13
1.5 4.5 13
2 4.5 13
2.5 4.5 13
3 4.5 13
3.5 4.5 13
4 4.5 13
4.5 4.5 13
0.5 4.5 13.5
1 4.5 13.5
1.5 4.5 13.5
2 4.5 13.5
2.5 4.5 13.5
3 4.5 13.5
3.5 4.5 13.5
4 4.5 13.5
4.5 4.5 13.5
0.5 4.5 14
1 4.5 14
1.5 4.5 14
2 4.5 14
2.5 4.5 14
3 4.5 14
3.5 4.5 14
4 4.5 14
4.5 4.5 14
0.5 4.5 14.5
1 4.5 14.5
1.5 4.5 14.5
2 4.5 14.5
2.5 4.5 14.5
3 4.5 14.5
3.5 4.5 14.5
4 4.5 14.5
4.5 4.5 14.5
0.5 4.5 15
1 4.5 15
1.5 4.5 15
2 4.5 15
2.5 4.5 15
3 4.5 15
3.5 4.5 15
4 4.5 15
4.5 4.5 15
0.5 4.5 15.5
1 4.5 15.5
1.5 4.5 15.5
2 4.5 15.5
2.5 4.5 15.5
3 4.5 15.5
3.5 4.5 15.5
4 4.5 15.5
4.5 4.5 15.5
0.5 4.5 16
1 4.5 16
1.5 4.5 16
2 4.5 16
2.5 4.5 16
3 4.5 16
3.5 4.5 16
4 4.5 16
4.5 4.5 16
0.5 4.5 16.5
1 4.5 16.5
1.5 4.5 16.5
2 4.5 16.5
2.5 4.5 16.5
3 4.5 16.5
3.5 4.5 16.5
4 4.5 16.5
4.5 4.5 16.5
0.5 4.5 17
1 4.5 17
1.5 4.5 17
2 4.5 17
2.5 4.5 17
3 4.5 17
3.5 4.5 17
4 4.5 17
4.5 4.5 17
0.5 4.5 17.5
1 4.5 17.5
1.5 4.5 17.5
2 4.5 17.5
2.5 4.5 17.5
3 4.5 17.5
3.5 4.5 17.5
4 4.5 17.5
4.5 4.5 17.5
0.5 4.5 18
1 4.5 18
1.5 4.5 18
2 4.5 18
2.5 4.5 18
3 4.5 18
3.5 4.5 18
4 4.5 18
4.5 4.5 18
0.5 4.5 18.5
1 4.5 18.5
1.5 4.5 18.5
2 4.5 18.5
2.5 4.5 18.5
3 4.5 18.5
3.5 4.5 18.5
4 4.5 18.5
4.5 4.5 18.5
0.5 4.5 19
1 4.5 19
1.5 4.5 19
2 4.5 19
2.5 4.5 19
3 4.5 19
3.5 4.5 19
4 4.5 19
4.5 4.5 19
0.5 4.5 19.5
1 4.5 19.5
1.5 4.5 19.5
2 4.5 19.5
2.5 4.5 19.5
3 4.5 19.5
3.5 4.5 19.5
4 4.5 19.5
4.5 4.5 19.5
4.5 0.5 4.5
4 0.5 4.5
3.5 0.5 4.5
3 0.5 4.5
2.5 0.5 4.5
2 0.5 4.5
1.5 0.5 4.5
1 0.5 4.5
0.5 0.5 4.5
4.5 0.5 4
4 0.5 4
3.5 0.5 4
3 0.5 4
2.5 0.5 4
2 0.5 4
1.5 0.5 4
1 0.5 4
0.5 0.5 4
4.5 0.5 3.5
4 0.5 3.5
3.5 0.5 3.5
3 0.5 3.5
2.5 0.5 3.5
2 0.5 3.5
1.5 0.5 3.5
1 0.5 3.5
0.5 0.5 3.5
4.5 0.5 3
4 0.5 3
3.5 0.5 3
3 0.5 3
2.5 0.5 3
2 0.5 3
1.5 0.5 3
1 0.5 3
0.5 0.5 3
4.5 0.5 2.5
4 0.5 2.5
3.5 0.5 2.5
3 0.5 2.5
2.5 0.5 2.5
2 0.5 2.5
1.5 0.5 2.5
1 0.5 2.5
0.5 0.5 2.5
4.5 0.5 2
4 0.5 2
3.5 0.5 2
3 0.5 2
2.5 0.5 2
2 0.5 2
1.5 0.5 2
1 0.5 2
0.5 0.5 2
4.5 0.5 1.5
4 0.5 1.5
3.5 0.5 1.5
3 0.5 1.5
2.5 0.5 1.5
2 0.5 1.5
1.5 0.5 1.5
1 0.5 1.5
0.5 0.5 1.5
4.5 0.5 1
4 0.5 1
3.5 0.5 1
3 0.5 1
2.5 0.5 1
2 0.5 1
1.5 0.5 1
1 0.5 1
0.5 0.5 1
4.5 0.5 0.5
4 0.5 0.5
3.5 0.5 0.5
3 0.5 0.5
2.5 0.5 0.5
2 0.5 0.5
1.5 0.5 0.5
1 0.5 0.5
0.5 0.5 0.5
4.5 1 4.5
4 1 4.5
3.5 1 4.5
3 1 4.5
2.5 1 4.5
2 1 4.5
1.5 1 4.5
1 1 4.5
0.5 1 4.5
4.5 1 4
4 1 4
3.5 1 4
3 1 4
2.5 1 4
2 1 4
1.5 1 4
1 1 4
0.5 1 4
4.5 1 3.5
4 1 3.5
3.5 1 3.5
3 1 3.5
2.5 1 3.5
2 1 3.5
1.5 1 3.5
1 1 3.5
0.5 1 3.5
4.5 1 3
4 1 3
3.5 1 3
3 1 3
2.5 1 3
2 1 3
1.5 1 3
1 1 3
0.5 1 3
4.5 1 2.5
4 1 2.5
3.5 1 2.5
3 1 2.5
2.5 1 2.5
2 1 2.5
1.5 1 2.5
1 1 2.5
0.5 1 2.5
4.5 1 2
4 1 2
3.5 1 2
3 1 2
2.5 1 2
2 1 2
1.5 1 2
1 1 2
0.5 1 2
4.5 1 1.5
4 1 1.5
3.5 1 1.5
3 1 1.5
2.5 1 1.5
2 1 1.5
1.5 1 1.5
1 1 1.5
0.5 1 1.5
4.5 1 1
4 1 1
3.5 1 1
3 1 1
2.5 1 1
2 1 1
1.5 1 1
1 1 1
0.5 1 1
4.5 1 0.5
4 1 0.5
3.5 1 0.5
3 1 0.5
2.5 1 0.5
2 1 0.5
1.5 1 0.5
1 1 0.5
0.5 1 0.5
4.5 1.5 4.5
4 1.5 4.5
3.5 1.5 4.5
3 1.5 4.5
2.5 1.5 4.5
2 1.5 4.5
1.5 1.5 4.5
1 1.5 4.5
0.5 1.5 4.5
4.5 1.5 4
4 1.5 4
3.5 1.5 4
3 1.5 4
2.5 1.5 4
2 1.5 4
1.5 1.5 4
1 1.5 4
0.5 1.5 4
4.5 1.5 3.5
4 1.5 3.5
3.5 1.5 3.5
3 1.5 3.5
2.5 1.5 3.5
2 1.5 3.5
1.5 1.5 3.5
1 1.5 3.5
0.5 1.5 3.5
4.5 1.5 3
4 1.5 3
3.5 1.5 3
3 1.5 3
2.5 1.5 3
2 1.5 3
1.5 1.5 3
1 1.5 3
0.5 1.5 3
4.5 1.5 2.5
4 1.5 2.5
3.5 1.5 2.5
3 1.5 2.5
2.5 1.5 2.5
2 1.5 2.5
1.5 1.5 2.5
1 1.5 2.5
0.5 1.5 2.5
4.5 1.5 2
4 1.5 2
3.5 1.5 2
3 1.5 2
2.5 1.5 2
2 1.5 2
1.5 1.5 2
1 1.5 2
0.5 1.5 2
4.5 1.5 1.5
4 1.5 1.5
3.5 1.5 1.5
3 1.5 1.5
2.5 1.5 1.5
2 1.5 1.5
1.5 1.5 1.5
1 1.5 1.5
0.5 1.5 1.5
4.5 1.5 1
4 1.5 1
3.5 1.5 1
3 1.5 1
2.5 1.5 1
2 1.5 1
1.5 1.5 1
1 1.5 1
0.5 1.5 1
4.5 1.5 0.5
4 1.5 0.5
3.5 1.5 0.5
3 1.5 0.5
2.5 1.5 0.5
2 1.5 0.5
1.5 1.5 0.5
1 1.5 0.5
0.5 1.5 0.5
4.5 2 4.5
4 2 4.5
3.5 2 4.5
3 2 4.5
2.5 2 4.5
2 2 4.5
1.5 2 4.5
1 2 4.5
0.5 2 4.5
4.5 2 4
4 2 4
3.5 2 4
3 2 4
2.5 2 4
2 2 4
1.5 2 4
1 2 4
0.5 2 4
4.5 2 3.5
4 2 3.5
3.5 2 3.5
3 2 3.5
2.5 2 3.5
2 2 3.5
1.5 2 3.5
1 2 3.5
0.5 2 3.5
4.5 2 3
4 2 3
3.5 2 3
3 2 3
2.5 2 3
2 2 3
1.5 2 3
1 2 3
0.5 2 3
4.5 2 2.5
4 2 2.5
3.5 2 2.5
3 2 2.5
2.5 2 2.5
2 2 2.5
1.5 2 2.5
1 2 2.5
0.5 2 2.5
4.5 2 2
4 2 2
3.5 2 2
3 2 2
2.5 2 2
2 2 2
1.5 2 2
1 2 2
0.5 2 2
4.5 2 1.5
4 2 1.5
3.5 2 1.5
3 2 1.5
2.5 2 1.5
2 2 1.5
1.5 2 1.5
1 2 1.5
0.5 2 1.5
4.5 2 1
4 2 1
3.5 2 1
3 2 1
2.5 2 1
2 2 1
1.5 2 1
1 2 1
0.5 2 1
4.5 2 0.5
4 2 0.5
3.5 2 0.5
3 2 0.5
2.5 2 0.5
2 2 0.5
1.5 2 0.5
1 2 0.5
0.5 2 0.5
4.5 2.5 4.5
4 2.5 4.5
3.5 2.5 4.5
3 2.5 4.5
2.5 2.5 4.5
2 2.5 4.5
1.5 2.5 4.5
1 2.5 4.5
0.5 2.5 4.5
4.5 2.5 4
4 2.5 4
3.5 2.5 4
3 2.5 4
2.5 2.5 4
2 2.5 4
1.5 2.5 4
1 2.5 4
0.5 2.5 4
4.5 2.5 3.5
4 2.5 3.5
3.5 2.5 3.5
3 2.5 3.5
2.5 2.5 3.5
2 2.5 3.5
1.5 2.5 3.5
1 2.5 3.5
0.5 2.5 3.5
4.5 2.5 3
4 2.5 3
3.5 2.5 3
3 2.5 3
2.5 2.5 3
2 2.5 3
1.5 2.5 3
1 2.5 3
0.5 2.5 3
4.5 2.5 2.5
4 2.5 2.5
3.5 2.5 2.5
3 2.5 2.5
2.5 2.5 2.5
2 2.5 2.5
1.5 2.5 2.5
1 2.5 2.5
0.5 2.5 2.5
4.5 2.5 2
4 2.5 2
3.5 2.5 2
3 2.5 2
2.5 2.5 2
2 2.5 2
1.5 2.5 2
1 2.5 2
0.5 2.5 2
4.5 2.5 1.5
4 2.5 1.5
3.5 2.5 1.5
3 2.5 1.5
2.5 2.5 1.5
2 2.5 1.5
1.5 2.5 1.5
1 2.5 1.5
0.5 2.5 1.5
4.5 2.5 1
4 2.5 1
3.5 2.5 1
3 2.5 1
2.5 2.5 1
2 2.5 1
1.5 2.5 1
1 2.5 1
0.5 2.5 1
4.5 2.5 0.5
4 2.5 0.5
3.5 2.5 0.5
3 2.5 0.5
2.5 2.5 0.5
2 2.5 0.5
1.5 2.5 0.5
1 2.5 0.5
0.5 2.5 0.5
4.5 3 4.5
4 3 4.5
3.5 3 4.5
3 3 4.5
2.5 3 4.5
2 3 4.5
1.5 3 4.5
1 3 4.5
0.5 3 4.5
4.5 3 4
4 3 4
3.5 3 4
3 3 4
2.5 3 4
2 3 4
1.5 3 4
1 3 4
0.5 3 4
4.5 3 3.5
4 3 3.5
3.5 3 3.5
3 3 3.5
2.5 3 3.5
2 3 3.5
1.5 3 3.5
1 3 3.5
0.5 3 3.5
4.5 3 3
4 3 3
3.5 3 3
3 3 3
2.5 3 3
2 3 3
1.5 3 3
1 3 3
0.5 3 3
4.5 3 2.5
4 3 2.5
3.5 3 2.5
3 3 2.5
2.5 3 2.5
2 3 2.5
1.5 3 2.5
1 3 2.5
0.5 3 2.5
4.5 3 2
4 3 2
3.5 3 2
3 3 2
2.5 3 2
2 3 2
1.5 3 2
1 3 2
0.5 3 2
4.5 3 1.5
4 3 1.5
3.5 3 1.5
3 3 1.5
2.5 3 1.5
2 3 1.5
1.5 3 1.5
1 3 1.5
0.5 3 1.5
4.5 3 1
4 3 1
3.5 3 1
3 3 1
2.5 3 1
2 3 1
1.5 3 1
1 3 1
0.5 3 1
4.5 3 0.5
4 3 0.5
3.5 3 0.5
3 3 0.5
2.5 3 0.5
2 3 0.5
1.5 3 0.5
1 3 0.5
0.5 3 0.5
4.5 3.5 4.5
4 3.5 4.5
3.5 3.5 4.5
3 3.5 4.5
2.5 3.5 4.5
2 3.5 4.5
1.5 3.5 4.5
1 3.5 4.5
0.5 3.5 4.5
4.5 3.5 4
4 3.5 4
3.5 3.5 4
3 3.5 4
2.5 3.5 4
2 3.5 4
1.5 3.5 4
1 3.5 4
0.5 3.5 4
4.5 3.5 3.5
4 3.5 3.5
3.5 3.5 3.5
3 3.5 3.5
2.5 3.5 3.5
2 3.5 3.5
1.5 3.5 3.5
1 3.5 3.5
0.5 3.5 3.5
4.5 3.5 3
4 3.5 3
3.5 3.5 3
3 3.5 3
2.5 3.5 3
2 3.5 3
1.5 3.5 3
1 3.5 3
0.5 3.5 3
4.5 3.5 2.5
4 3.5 2.5
3.5 3.5 2.5
3 3.5 2.5
2.5 3.5 2.5
2 3.5 2.5
1.5 3.5 2.5
1 3.5 2.5
0.5 3.5 2.5
4.5 3.5 2
4 3.5 2
3.5 3.5 2
3 3.5 2
2.5 3.5 2
2 3.5 2
1.5 3.5 2
1 3.5 2
0.5 3.5 2
4.5 3.5 1.5
4 3.5 1.5
3.5 3.5 1.5
3 3.5 1.5
2.5 3.5 1.5
2 3.5 1.5
1.5 3.5 1.5
1 3.5 1.5
0.5 3.5 1.5
4.5 3.5 1
4 3.5 1
3.5 3.5 1
3 3.5 1
2.5 3.5 1
2 3.5 1
1.5 3.5 1
1 3.5 1
0.5 3.5 1
4.5 3.5 0.5
4 3.5 0.5
3.5 3.5 0.5
3 3.5 0.5
2.5 3.5 0.5
2 3.5 0.5
1.5 3.5 0.5
1 3.5 0.5
0.5 3.5 0.5
4.5 4 4.5
4 4 4.5
3.5 4 4.5
3 4 4.5
2.5 4 4.5
2 4 4.5
1.5 4 4.5
1 4 4.5
0.5 4 4.5
4.5 4 4
4 4 4
3.5 4 4
3 4 4
2.5 4 4
2 4 4
1.5 4 4
1 4 4
0.5 4 4
4.5 4 3.5
4 4 3.5
3.5 4 3.5
3 4 3.5
2.5 4 3.5
2 4 3.5
1.5 4 3.5
1 4 3.5
0.5 4 3.5
4.5 4 3
4 4 3
3.5 4 3
3 4 3
2.5 4 3
2 4 3
1.5 4 3
1 4 3
0.5 4 3
4.5 4 2.5
4 4 2.5
3.5 4 2.5
3 4 2.5
2.5 4 2.5
2 4 2.5
1.5 4 2.5
1 4 2.5
0.5 4 2.5
4.5 4 2
4 4 2
3.5 4 2
3 4 2
2.5 4 2
2 4 2
1.5 4 2
1 4 2
0.5 4 2
4.5 4 1.5
4 4 1.5
3.5 4 1.5
3 4 1.5
2.5 4 1.5
2 4 1.5
1.5 4 1.5
1 4 1.5
0.5 4 1.5
4.5 4 1
4 4 1
3.5 4 1
3 4 1
2.5 4 1
2 4 1
1.5 4 1
1 4 1
0.5 4 1
4.5 4 0.5
4 4 0.5
3.5 4 0.5
3 4 0.5
2.5 4 0.5
2 4 0.5
1.5 4 0.5
1 4 0.5
0.5 4 0.5
4.5 4.5 4.5
4 4.5 4.5
3.5 4.5 4.5
3 4.5 4.5
2.5 4.5 4.5
2 4.5 4.5
1.5 4.5 4.5
1 4.5 4.5
0.5 4.5 4.5
4.5 4.5 4
4 4.5 4
3.5 4.5 4
3 4.5 4
2.5 4.5 4
2 4.5 4
1.5 4.5 4
1 4.5 4
0.5 4.5 4
4.5 4.5 3.5
4 4.5 3.5
3.5 4.5 3.5
3 4.5 3.5
2.5 4.5 3.5
2 4.5 3.5
1.5 4.5 3.5
1 4.5 3.5
0.5 4.5 3.5
4.5 4.5 3
4 4.5 3
3.5 4.5 3
3 4.5 3
2.5 4.5 3
2 4.5 3
1.5 4.5 3
1 4.5 3
0.5 4.5 3
4.5 4.5 2.5
4 4.5 2.5
3.5 4.5 2.5
3 4.5 2.5
2.5 4.5 2.5
2 4.5 2.5
1.5 4.5 2.5
1 4.5 2.5
0.5 4.5 2.5
4.5 4.5 2
4 4.5 2
3.5 4.5 2
3 4.5 2
2.5 4.5 2
2 4.5 2
1.5 4.5 2
1 4.5 2
0.5 4.5 2
4.5 4.5 1.5
4 4.5 1.5
3.5 4.5 1.5
3 4.5 1.5
2.5 4.5 1.5
2 4.5 1.5
1.5 4.5 1.5
1 4.5 1.5
0.5 4.5 1.5
4.5 4.5 1
4 4.5 1
3.5 4.5 1
3 4.5 1
2.5 4.5 1
2 4.5 1
1.5 4.5 1
1 4.5 1
0.5 4.5 1
4.5 4.5 0.5
4 4.5 0.5
3.5 4.5 0.5
3 4.5 0.5
2.5 4.5 0.5
2 4.5 0.5
1.5 4.5 0.5
1 4.5 0.5
0.5 4.5 0.5
</DataArray>
</Points>
</Piece>
</UnstructuredGrid>
</VTKFile>
