<?xml version="1.0"?>
<VTKFile type="UnstructuredGrid" version="0.1" byte_order="LittleEndian" >
<UnstructuredGrid>
<Piece NumberOfPoints="4961" NumberOfCells="4000" >
<PointData Tensors="Vector" >
<DataArray type="Float64" Name="displacement" NumberOfComponents="3" format="ascii" >
0.000698608285649408 -0.032623809786175 -0.00359015714356412
0.00124011628569266 -0.032083880750331 -0.00364020000070054
0.00357338 -0.19604 -0.0351599
0.00228533 -0.198308 -0.0345892
-0.000104161999978374 -0.0321467650716269 0.00387621428641482
0.00023902 -0.197608 0.0359947
0.000236599 -0.200216 0.0361544
0.000351633428636306 -0.0328466378930987 0.00395414285784984
-6.05525E-13 -1.8371E-12 -4.9714E-12
0.00427768 -6.26054E-13 -4.88123E-12
6.05525E-13 -0.003235 4.9714E-12
-0.00298721 -0.000241187 4.88123E-12
0.000738502020459453 -0.032581054682831 -0.00361964595563026
0.00078629738226927 -0.0325316644392913 -0.00362620887795098
0.00084166261131539 -0.0324763209725628 -0.00362078651216816
0.000903405411067024 -0.0324163852966093 -0.00361440898909516
0.000969362285671034 -0.032353845268253 -0.00361517857213233
0.00103644075278772 -0.032291115763282 -0.00362593600616306
0.00110086126913157 -0.0322307277263599 -0.00364340371567127
0.00115859837691999 -0.0321749835654846 -0.00365910307741891
0.00120595196848684 -0.0321256679525521 -0.00366173200828533
0.00125070128040644 -0.0364170828487352 -0.00474845719547905
0.00131693352776533 -0.040657684060225 -0.00613108824232824
0.00144134307913529 -0.0447391722573441 -0.00785167644879109
0.0016294294844199 -0.0486085744245483 -0.00998290284477567
0.00188752984699096 -0.0522224806147028 -0.0125915355547213
0.00221711032717702 -0.0555287196437695 -0.0156941781156681
0.00260270990711438 -0.0584309653138619 -0.0191618765215587
0.00299430943828213 -0.0607509562555727 -0.0225810714875773
0.00329939041545057 -0.0622446380998374 -0.0251960700193943
0.00341567 -0.0627407 -0.0261826
0.00330947724800014 -0.0639400262227982 -0.0252249968013301
0.00303403795349089 -0.0674947007819157 -0.0227086286580112
0.00268701709124771 -0.0729130380142776 -0.0194663265002626
0.00235500023545312 -0.0795608357238842 -0.016257299811046
0.00208352405540333 -0.0869961170100833 -0.0135026577597545
0.00188512444275533 -0.0949938155384395 -0.0113467838104238
0.00175599831088455 -0.103444092002665 -0.00979647397149368
0.00168718331008067 -0.112262644273524 -0.00881566496546612
0.00166974042611976 -0.121345097620838 -0.00836969628575991
0.00169661907142857 -0.130556253571429 -0.00844141785714286
0.00176316703283234 -0.139740126086333 -0.0090359228145812
0.0018672150024778 -0.148739460163715 -0.0101819343031355
0.00200900279333417 -0.157415329947427 -0.0119317147162158
0.00219075972746876 -0.165657695335622 -0.0143560119811346
0.00241524121410565 -0.173376618369136 -0.0175229692021043
0.00268180894905399 -0.180462145651164 -0.0214383487670445
0.00297823544421316 -0.186706389472991 -0.0259171414599172
0.00326893397441334 -0.191719105987984 -0.0303955289083465
0.00349020968740752 -0.194959908182258 -0.0338500067629607
0.00348700204498936 -0.195046958573621 -0.0338310038771778
0.00324564427194532 -0.192477563834279 -0.0303200128465965
0.00291957904772105 -0.189441324586099 -0.0260521422595783
0.00259882643367061 -0.187191794660096 -0.0226854145416714
0.00235122528795026 -0.186591355060034 -0.0213733200686106
0.00220849857491875 -0.187911513924469 -0.0225103176787308
0.00216916926535913 -0.190809136768574 -0.0257165622978835
0.00220301318012671 -0.194349293377328 -0.0298556553213684
0.00225889998794679 -0.197221950993039 -0.0332860219818258
0.00225607530007425 -0.197147534002305 -0.0333022132622497
0.00217621431637755 -0.193695322195792 -0.0299078899964815
0.0020669296913467 -0.18840974345173 -0.0255069074862293
0.00194884723006707 -0.181894770077976 -0.0211046998907332
0.0018340197496164 -0.174576097544936 -0.0172553596010522
0.00172694679640337 -0.166674009396605 -0.0141410011125505
0.00162810598889293 -0.158299399918566 -0.0117564025808019
0.00153644890088089 -0.149539608880791 -0.0100350934575144
0.00145050907489274 -0.140502256206107 -0.0089080695228039
0.00136865603571429 -0.131325403571429 -0.008324525
0.0012889485260666 -0.12216743610438 -0.00825684422091204
0.0012088522880416 -0.113187628319117 -0.00870072521958636
0.00112499798668202 -0.104526654280904 -0.00967384555854709
0.00103318127074787 -0.0962961060789881 -0.011211197994966
0.000928970119191144 -0.0885872854449803 -0.0133491195309075
0.000809594024341301 -0.0815112174940802 -0.0160813517519542
0.000677969380716198 -0.0752762986918997 -0.0192649751803649
0.000548494257717192 -0.070272313585574 -0.0224822240667407
0.00044948756266487 -0.067038057133942 -0.0249794919659225
0.000412232 -0.0659604 -0.0259299
0.000438781153427826 -0.065341494912723 -0.0249509566791479
0.000505839404261692 -0.0635233644796784 -0.0223563837134031
0.000586155489198667 -0.0607817021425449 -0.0189646082731326
0.000656730651358065 -0.0574556758029452 -0.0155257708685811
0.000706762593149612 -0.0537751969639143 -0.0124502060062784
0.000734894355827275 -0.0498522753331809 -0.00986564512656247
0.000744224823161008 -0.0457364020113222 -0.00775531908608335
0.00073897859455123 -0.0414619324578758 -0.0060526902798145
0.000722902923573848 -0.0370719054864155 -0.0046853964399872
-7.65904569873873E-5 -0.0322003400033399 0.00390758950276653
-3.70293665386514E-5 -0.0322637401472487 0.0039165950087582
1.18717498044915E-5 -0.0323358054596221 0.00391408804608635
6.66815232329918E-5 -0.0324144334003803 0.00391096946273327
0.000123735714328966 -0.0324967014823628 0.00391517857213233
0.000179668312912268 -0.03257915904096 0.00392937553252495
0.000231800369748552 -0.0326582393426868 0.00395010218175309
0.000278329607349396 -0.032730705349207 0.00396871694661169
0.000318332468041092 -0.0327940308625086 0.00397378846114905
0.000283750970209368 -0.196470282442267 0.0346928708412366
0.000398313777365843 -0.193076016481346 0.0312577928957383
0.000539561413025055 -0.18786108495863 0.0268006812674262
0.000669498409170585 -0.181409345181748 0.0223372508998282
0.000767704808800964 -0.174134960982025 0.0184274148399825
0.000827614228070181 -0.166253347684574 0.0152551927217639
0.000849294754859704 -0.157873542784283 0.0128152537951573
0.000834626990429675 -0.149081616445903 0.0110403817208502
0.000784994942428285 -0.139983351697843 0.0098608348974495
0.000700300035714286 -0.130713903571429 0.00922526071428571
0.000578455499100335 -0.121427388230992 0.00910564060248936
0.000415005538281194 -0.112277186288361 0.00949727733889387
0.000202895703278157 -0.103396291951439 0.0104173240886802
-6.71503314889666E-5 -0.0948872119251278 0.0119000708014716
-0.000404467522194213 -0.0868328126260412 0.0139811463612451
-0.000812157585528987 -0.0793423340375536 0.016654200009386
-0.00127361111943952 -0.0726419571400549 0.0197781616871363
-0.00173287171336653 -0.0671776682456067 0.0229408831609025
-0.002086246460523 -0.0635907438170407 0.0253986532927447
-0.00221995 -0.0623799 0.0263347
-0.00209785179232284 -0.0618950807925791 0.025359753718947
-0.00177943152728172 -0.0604326252912845 0.0227737834156855
-0.00137461521859487 -0.0581565536015883 0.0193891028347624
-0.000981797348469578 -0.0553035738536077 0.0159512592308315
-0.00065348719201507 -0.05204754446715 0.0128686817625249
-0.000405114853256758 -0.0484830708888613 0.0102691115693826
-0.000233852922406584 -0.0446620322179803 0.00813671523772022
-0.000131371345125245 -0.0406280169524826 0.00640623957228016
-8.98380975447067E-5 -0.0364341367954545 0.0050067066233088
0.000277668415109868 -0.199054969293354 0.0348311988199589
0.00038790437576143 -0.195981552657177 0.0313389710546756
0.000524861385612436 -0.192190409916945 0.0271033341120272
0.000636376978336204 -0.189080585362783 0.0237811193428761
0.000683444072684391 -0.187649289022298 0.0225244349914237
0.000649682583389435 -0.188261993471765 0.023725714619829
0.000544219750816402 -0.190630472521274 0.0270002496101304
0.000403609516656257 -0.193839190467592 0.0312019569388239
0.000284734730835427 -0.196557400458491 0.0346762253547099
0.000425769386080984 -0.037158859302126 0.00510976568741074
0.000506255725156806 -0.0414223439733311 0.00654138403352531
0.000596447495936492 -0.0455714789304732 0.00831274270808761
0.000701007162319769 -0.0495556681815713 0.0104969577082324
0.000825001263053808 -0.0533340661035057 0.0131613105656822
0.000971424749962341 -0.0568537420273576 0.0163223590987496
0.00113603600124833 -0.0600067768187652 0.0198492060081087
0.0012999097928433 -0.0625814326492566 0.0233226135430011
0.00142619320017384 -0.0642733604222805 0.0259769512808141
0.00147397 -0.064845 0.0269778
0.00143717895433083 -0.0659696475633439 0.0260161571732889
0.00134354326436152 -0.0693290825510883 0.0234910278061431
0.001229533383252 -0.0744980407035773 0.0202413159453113
0.00112609103036565 -0.0809026362804668 0.0170307822082824
0.00104780758674923 -0.0881345174923279 0.0142823801622096
0.000996379685332553 -0.0959805911193462 0.0121403896976414
0.000967078130358079 -0.104332380087171 0.0106105330304271
0.000953008616079688 -0.113103815507499 0.00965526776249588
0.000947056417276181 -0.122189132935556 0.00923828122892929
0.000942550357142857 -0.131453439285714 0.00934068214285715
0.000933379081283758 -0.140743211117951 0.0099657761151889
0.00091391035372849 -0.149906040121091 0.0111404911234624
0.000878877331710388 -0.158810309027545 0.0129153259127937
0.000823395180710903 -0.167355222921297 0.015359341678198
0.000743450988327488 -0.175459590530469 0.0185391647303814
0.000637568707077277 -0.183014715553127 0.0224594671032814
0.000510615715638708 -0.189791447566839 0.0269351917269
0.000379585169640189 -0.195333790170693 0.031404567766796
0.000276317737836015 -0.198981800636045 0.0348490274851928
0.0022508709845184 -0.197231973241338 -0.0331134904459847
0.00213265386975468 -0.194437156133764 -0.0283450382227833
0.00192540008146402 -0.191113666571376 -0.0204870388294113
0.00164543049541368 -0.188615187336329 -0.0104401845172256
0.00132126017903087 -0.187878965265866 0.000689293224699832
0.000986150026039532 -0.189208540445097 0.0118356970085469
0.00067678287297438 -0.192246893407062 0.0219279631260896
0.000431903805925041 -0.195998186188671 0.0298440330900011
0.00028270773666449 -0.199056907829474 0.0346604624931222
0.000382798866366436 -0.0328323398970327 0.00337420214951374
0.000415989020086815 -0.0328125091932579 0.0026883801868541
0.000451090434279097 -0.0327885520462212 0.00191053855813354
0.000487700059041005 -0.0327622063199071 0.00106444708412881
0.000525120857142857 -0.0327352238396369 0.000181992857142857
0.000562484813027581 -0.0327090635618183 -0.000700376502715577
0.000598958731330838 -0.0326846807811572 -0.00154626536292527
0.000633939938901776 -0.0326624623801401 -0.00232392751957072
0.000667152481502063 -0.0326423078291812 -0.0030097829094966
0.000292763734263816 -0.196547378210192 0.0345036938188688
0.000473968827028292 -0.193751327711157 0.0296913398402388
0.000787988934711507 -0.190325942718472 0.0217707261416582
0.0012127506628945 -0.187558320059905 0.0116555814583238
0.00171340918160377 -0.186361678816467 0.000461821698113206
0.00224905338596728 -0.187063839577782 -0.0107399922073422
0.0027676575603591 -0.189384841095982 -0.0208767712736407
0.0032016448417817 -0.192460930302785 -0.0288250748819219
0.00348196272343474 -0.1950450200375 -0.0336602675503411
0.0011414855701615 -0.0320873589180279 -0.00306214569665001
0.00102093896418257 -0.0320931797214337 -0.00237876631766132
0.000881571204601021 -0.0321004150228255 -0.00160384009205173
0.00072840900665898 -0.0321080684843348 -0.000761007557766914
0.000567977142857143 -0.0321153229109789 0.000118007142857143
0.000407602121272435 -0.0321217551351713 0.000996936976353683
0.000254575629789044 -0.0321274456510277 0.00183956689684346
0.000115328076828843 -0.0321329422063999 0.00261431365037794
-5.24091802999716E-6 -0.0321390868569897 0.00329772645663288
0.000667301493812286 -0.0281848284186445 -0.00271526177657917
0.000628665671430544 -0.0238223628497316 -0.00201899234737439
0.000580840855722629 -0.0195945441844287 -0.00146742132441313
0.00052061541542716 -0.0155453595013289 -0.00103276582613035
0.000444150519244983 -0.0117099118070208 -0.000692591628883574
0.000348885532561974 -0.00813676414193406 -0.00042984904571943
0.0002374771338231 -0.00493211861061674 -0.000233447401896899
0.000123505277007975 -0.00231050718457226 -9.82862844615132E-5
3.41336896243459E-5 -0.000584228252378963 -2.24062370376389E-5
4.20412114393939E-5 -0.00054541901074759 -1.92289427648485E-5
0.000193266532187569 -0.00196850141151753 -7.03798072970141E-5
0.000479385366813584 -0.00367838853346258 -0.00013307412009651
0.000909780232875713 -0.00500354918310262 -0.000182731239157306
0.00148107766705302 -0.00548214639009364 -0.000201597344354536
0.00217169264778017 -0.00496582720590028 -0.000183379322361798
0.00292233668671949 -0.00362431784960435 -0.000134017879089005
0.0036180746721205 -0.00192679787747376 -7.11275038744385E-5
0.0041074632970916 -0.000530830854263 -1.95007014478547E-5
0.00411763833784107 -0.000567167684910868 -2.2793700633153E-5
0.00369846288825793 -0.00224862700900844 -9.99541090787108E-5
0.0031615368951918 -0.00481270753897997 -0.000237332118444299
0.00263403967962211 -0.00795984488174951 -0.000436857517454888
0.00218400101049237 -0.0114805745261333 -0.000703643579747358
0.00183129935095255 -0.0152674706289216 -0.00104887276924457
0.00157184043803184 -0.0192674172052665 -0.00148975052726797
0.00139398868096777 -0.0234394258798929 -0.00204890575323676
0.0012862610069988 -0.0277331652658543 -0.00275433685527688
-1.97750653463828E-6 -0.0036832390185502 2.7995003758533E-5
-3.34653219441396E-6 -0.00505076336208383 0.000120674297935941
3.45041848587555E-6 -0.00720722476622921 0.000281910225297298
2.31308680154441E-5 -0.00994568538478745 0.000511000498111151
5.64048249023212E-5 -0.0131076917989558 0.000811229726209309
0.00010145671332869 -0.0166024812133557 0.00119289304643046
0.00015561694460339 -0.0203762675422567 0.00167283631888189
0.000216390827437252 -0.0243816885556319 0.00227348789331586
0.00028198994310886 -0.0285617484551619 0.00302262591818547
-0.00283747752420625 -0.000782056907990552 2.40034219908253E-5
-0.00241774056838474 -0.00223120836411053 8.76764581809469E-5
-0.00184360922403723 -0.00406232366724584 0.000165541018297451
-0.00125828400538157 -0.0056492456372042 0.000227115803993932
-0.000762863275972408 -0.00654013760632061 0.0002504824215415
-0.00040000474065092 -0.00655952208579906 0.000227893015222318
-0.000170425453956376 -0.00581094253113844 0.000166671816192252
-5.12678400680694E-5 -0.00465813813876187 8.85710274558605E-5
-7.22285382064088E-6 -0.00363783307511164 2.43279065566697E-5
-0.000172695936436505 -0.0278404604300712 0.00296435403841727
-0.000297449682183687 -0.0235887322732922 0.00223056512363257
-0.000484068714184057 -0.0194548726533913 0.00164187312186582
-0.000741195629018577 -0.0154872868306952 0.00117122424266765
-0.00107797086581898 -0.0117247207210804 0.000796754715214258
-0.00149713246022737 -0.00821818126631209 0.000502036719731326
-0.00198035862646729 -0.00507413820987697 0.000277045246864094
-0.00246685674117689 -0.00250391077100646 0.000118624337897972
-0.00284391549766017 -0.000812977819203239 2.75266326933214E-5
0.00410020382948574 -0.000531113141395465 -1.53140259501056E-5
0.00355455867786797 -0.00192968686312401 -4.02720226630836E-5
0.00270259980133907 -0.0036356704429513 -4.59837776333466E-5
0.00166484323181294 -0.00499499640419384 -2.14224737272016E-5
0.000555181543739279 -0.00554063803532876 2.25218696397942E-5
-0.00053813972455528 -0.00510266528808192 6.2383062239836E-5
-0.00153202471419868 -0.00382561647005486 7.59980380318934E-5
-0.00232786471466623 -0.00216286424603396 5.62921230247411E-5
-0.00282722837708622 -0.00077425504170527 1.97449880965696E-5
3.66137852181006E-8 -0.00363755078797918 2.01412310589206E-5
1.22481541844661E-5 -0.00465524915311161 5.77155462445057E-5
4.93114314240502E-5 -0.00579958993779148 7.86377147365932E-5
0.000106844675316311 -0.0065303528875055 6.59361665877225E-5
0.000163032847341338 -0.00648164596108549 2.63632075471698E-5
0.000189635952049423 -0.0055501295322249 -1.79984974032098E-5
0.00016780085697503 -0.00391509573065355 -4.35311398309521E-5
0.000103390678469053 -0.00203684552959409 -3.89954721408083E-5
3.17920643193671E-5 -0.000553220877032872 -1.49705088705928E-5
0.000761117430398575 -0.0370344073110533 -0.00470980546845597
0.000807032150623328 -0.0369453135292875 -0.00469253180918546
0.00086049346173592 -0.0368296800091379 -0.00465676930992028
0.00092048024785784 -0.0367144172902344 -0.00462640705768401
0.000984955870963619 -0.0366208724172099 -0.00461912683383926
0.00105087351720107 -0.0365592039895731 -0.00464123614918152
0.0011143929307947 -0.0365260807350422 -0.00468579737326349
0.0011713263662243 -0.0365062141504891 -0.00473457645506736
0.00121775881053483 -0.0364773189505709 -0.00476327272459239
0.000777468634982282 -0.0414160526801794 -0.00605818707025117
0.000824971860603165 -0.0412681903910258 -0.00599201698757692
0.000881676752717398 -0.0410717747428548 -0.00589815385154816
0.000946750016613035 -0.0408840589843168 -0.00582263179908842
0.00101809546459902 -0.0407496226509313 -0.00579966589282037
0.00109224650346576 -0.0406881622354028 -0.00584155017120108
0.00116449811021863 -0.0406897873317864 -0.00593506793731029
0.00122939276706222 -0.0407187214112699 -0.00604519512774771
0.00128158812096137 -0.0407245119668382 -0.00612530044382993
0.000784576048695219 -0.0456575941131076 -0.00771807652131544
0.000836920826219455 -0.0454154222338817 -0.00755992045784828
0.000902010534544443 -0.0450999873262771 -0.0073601018298962
0.000979279600022311 -0.0448087577736306 -0.0072028660166985
0.00106645668573394 -0.0446172764763762 -0.00715092296467544
0.00115922475457247 -0.0445580857476219 -0.00722685956511626
0.00125112692182389 -0.0446129239923778 -0.00740673094424272
0.00133406848465198 -0.0447191923604678 -0.00762664511936858
0.00139968081226051 -0.0447894581973994 -0.00780151079560764
0.000778021930737991 -0.0497090768473035 -0.00974980385473559
0.000838096854093068 -0.0493227430974144 -0.00943156645715802
0.000916747977223205 -0.0488331198848319 -0.00904908054715411
0.00101384989012811 -0.0483935284765223 -0.00875132678231303
0.00112695738187429 -0.0481223643940008 -0.00864892776221804
0.00125054451202911 -0.0480698939298497 -0.00878164195368887
0.00137537588178879 -0.0482066087456846 -0.00910771340549214
0.00148885645457079 -0.0484331943377576 -0.00951479610717682
0.00157722361500366 -0.0486112226762311 -0.00985272614175038
0.000752564368298482 -0.0535357170888537 -0.0122089794837219
0.000822672346976982 -0.0529458024853984 -0.0116325028451638
0.000920006284725487 -0.0522130999430019 -0.0109541188340754
0.00104512983929303 -0.0515685718354729 -0.010428698468692
0.00119557823862604 -0.0511892892188969 -0.0102439630683498
0.00136441759865051 -0.0511494292691728 -0.0104668769512033
0.00153849018653108 -0.0514045742961992 -0.0110275600455293
0.00169813665582652 -0.0518056500119932 -0.0117357882784726
0.00182062801863962 -0.0521439178687332 -0.0123350440733371
0.000703762313260785 -0.0570972588978707 -0.0151097791919095
0.000785289331774234 -0.0562453472085161 -0.0141513327644443
0.000905987281261793 -0.0551968813380132 -0.0130293239263295
0.00106733385939342 -0.0542868056796167 -0.012162122372855
0.00126713563932317 -0.0537686143453002 -0.0118533651214213
0.00149713588092195 -0.0537468156654411 -0.0122099076314772
0.00173916008137898 -0.0541584670236191 -0.0131207186749859
0.00196320331875865 -0.0547905792895442 -0.0142785672314469
0.00213251025304806 -0.0553413363751281 -0.0152628001126507
0.000631631682813482 -0.0603030422592989 -0.0183412041524025
0.000724612692786038 -0.0591532087080315 -0.0168801461290751
0.00087193632748579 -0.0577367208979242 -0.0151622393060399
0.00107601344328335 -0.0565161388692262 -0.0138351016554315
0.00133522124577701 -0.0558352518437649 -0.0133593427653577
0.00164041197662806 -0.0558331320452584 -0.0138940176287534
0.00196768942345504 -0.0564264673312615 -0.0152743016549315
0.00227324799406117 -0.0573283519019418 -0.0170345608208317
0.00250033042562926 -0.0581246070198779 -0.0185240537567091
0.00054662059178935 -0.0629532864611088 -0.0215355381621723
0.000649350790843187 -0.0615262938423966 -0.019521868277565
0.000823225073961954 -0.0597539625292835 -0.0171313061747058
0.00107130609057471 -0.0582298873595274 -0.0152833139772242
0.00139262168948322 -0.0573871984743882 -0.0146185241752813
0.00177769474046032 -0.0573979965683661 -0.0153536932459864
0.00219696582452421 -0.0581609413214529 -0.0172645340119729
0.00259081857400417 -0.0593185242664864 -0.0197037521864757
0.00287835819549953 -0.0603438210210984 -0.0217478006742796
0.000473768841532211 -0.0647333657680429 -0.0239970084590644
0.000582857287346408 -0.0631374267734078 -0.0215405556835292
0.000777395017750624 -0.0611332756994239 -0.0185934650803559
0.00106078877262473 -0.0594047274034473 -0.0163108255975443
0.00143244445499923 -0.0584460823839319 -0.015488006154346
0.00188266704938102 -0.0584522435465546 -0.0163904584607922
0.0023771820869179 -0.0593120763273062 -0.0187436503945829
0.00284262410217291 -0.0606233227781457 -0.02174412100504
0.00317699708318619 -0.0617844700029892 -0.0242319257258499
0.000454356628938062 -0.0669492101797994 -0.0249654845938621
0.000591303047219716 -0.0694977815744384 -0.0224261757593354
0.00082496087615587 -0.0724846123555458 -0.0193597613045043
0.00114700400068362 -0.0746478682760346 -0.0169780769217532
0.00154847392259863 -0.075122712864494 -0.0161190463121784
0.00201622511445554 -0.073642583363041 -0.0170622935963107
0.00251621112757263 -0.0705664254906274 -0.0195179236016325
0.00297752347074015 -0.0668588516792421 -0.0226391540502369
0.00330238101540998 -0.0638679300224085 -0.0252093650369336
0.000494614354672316 -0.068054446801495 -0.0240537257260413
0.000629742833863292 -0.0706509807278987 -0.0216704147817464
0.000855250603811559 -0.073687551571601 -0.0188123668857509
0.00116238888686506 -0.0758937104754418 -0.0166000139903423
0.00154235533893145 -0.0764007725963481 -0.0158038193577409
0.0019829400137311 -0.0749387889892604 -0.0166804554417308
0.00245304160677879 -0.0718626716141968 -0.0189637738976459
0.00288775398433625 -0.0681336183020493 -0.0218750628608336
0.00319683679742919 -0.0651036672376733 -0.0242892699208729
0.000598351110093989 -0.0711898009542694 -0.0216915029041817
0.000724026396663051 -0.0734982845357455 -0.0197513039192637
0.000924984896423283 -0.0761887899614867 -0.0174490538773877
0.00119368506475842 -0.0781476258843903 -0.0156706371085471
0.00152196049010425 -0.0786035103550033 -0.0150323003757631
0.00189815519192562 -0.0773124316500246 -0.0157420997470682
0.00229560168133954 -0.0745903679548745 -0.0175840542225481
0.00266215536927475 -0.0712847037318162 -0.0199350973710573
0.00292711840772476 -0.0685751166103191 -0.0219054832415498
0.000730290059617738 -0.0759930140735014 -0.018671425630108
0.00084098767316815 -0.0778120924306951 -0.0172775721386559
0.0010091602899069 -0.0799329175062819 -0.0156391348277331
0.00122892028021023 -0.08147926243649 -0.0143745115504037
0.0014929560002463 -0.0818321426121128 -0.0139227109516516
0.00179042147234646 -0.0807915807407776 -0.0144349417839681
0.00209983528632822 -0.0786144363382323 -0.0157538644038731
0.00238337148884724 -0.0759770363785708 -0.0174352977303137
0.00259220867989027 -0.0738034087233577 -0.0188579081748328
0.000860544200211704 -0.081982795589377 -0.015693491778943
0.000953926020087073 -0.0832728175007544 -0.0147927731583258
0.00108870161960153 -0.0847917097960253 -0.0137376493595656
0.00126033166689631 -0.0858999768774646 -0.0129229372691934
0.0014624748902286 -0.0861375689690051 -0.0126345733953714
0.00168568040434321 -0.0853532549143154 -0.0129728740200678
0.00191366707612669 -0.0837408358908935 -0.0138330297298645
0.00212088615362731 -0.0818013019871546 -0.0149253729902151
0.00227632074890804 -0.0802068412344568 -0.0158529437336377
0.000975574280036446 -0.0888285820946294 -0.0131343148062937
0.00105197476833799 -0.089655636144442 -0.012605951947005
0.00115708547915093 -0.0906553632535671 -0.0119816930041891
0.00128734429577374 -0.0913845013663631 -0.0114985293506245
0.00143746478693182 -0.0915203267045454 -0.0113305954545455
0.00159977268891146 -0.0909556429073293 -0.0115397682494557
0.00176254966904173 -0.089828316660204 -0.0120609739355331
0.0019093111686831 -0.0884895095499168 -0.0127174406890743
0.00202129451330578 -0.0874044401997524 -0.0132706177871204
0.00107410018976404 -0.0963603520884092 -0.0111214986559487
0.00113549107097916 -0.0968328667616988 -0.0108434226209202
0.00121630258296011 -0.0974354358234707 -0.0105039433574531
0.00131373228401838 -0.0978732554367421 -0.0102393947799129
0.00142356417639284 -0.0979306041284206 -0.0101507282822931
0.00153991859477532 -0.097535667641827 -0.0102740370568332
0.00165466998336618 -0.0967819065663475 -0.0105709639395323
0.00175744771736138 -0.0959046291486434 -0.0109386848112466
0.00183717144077228 -0.0952134637243809 -0.0112397097138415
0.00116027886393592 -0.104481566721745 -0.00966473648963208
0.00120940442374658 -0.104709861173669 -0.00954087830679433
0.00127145497453662 -0.105032779006432 -0.00937478006877543
0.00134427996451893 -0.105263424505055 -0.00924299993865619
0.00142465899458343 -0.105265161723552 -0.00920232713490855
0.00150826540284148 -0.104992868293847 -0.00927305794215241
0.00158956902387009 -0.104506926753644 -0.00943325292481466
0.00166207251580795 -0.103957580261532 -0.00962475057900986
0.00171923432057801 -0.103541942822498 -0.00977010103757722
0.00123940657273201 -0.113097216043762 -0.00873852090272791
0.00127920931737666 -0.113173121238788 -0.00870185258609396
0.00132756938819845 -0.11331019667936 -0.0086329007433681
0.00138292734505007 -0.113399964814761 -0.0085753286135521
0.00144292009238139 -0.113363649446489 -0.00856143014440444
0.00150442161107056 -0.113175968522465 -0.00860266710945027
0.00156362952020741 -0.112873243655156 -0.00868630508528922
0.00161634590456386 -0.112544011926765 -0.00877897215151408
0.00165855097504931 -0.112304075786262 -0.00883626623120033
0.00131607175643045 -0.122079930614806 -0.00831842911922775
0.00134932544487702 -0.122067275017095 -0.00832401822687587
0.00138834914797662 -0.122081466160196 -0.00830154950737557
0.00143214652020909 -0.122073796669463 -0.00827937499463773
0.00147906019679883 -0.122009656624187 -0.00827835050803663
0.0015268040898593 -0.121879191391487 -0.00830579196075392
0.00157259702909381 -0.12170080012216 -0.00835327529367405
0.00161344048271291 -0.121516604443752 -0.00839899083757587
0.0016465337189804 -0.121380947652975 -0.00841390066527182
0.00139364859484715 -0.131265896028325 -0.00839335574575033
0.00142270387694864 -0.131195981143146 -0.00840859503803063
0.00145593185757638 -0.131116869239695 -0.00839587103552962
0.00149293095937989 -0.131030782285606 -0.00838101141329421
0.00153263755357143 -0.130940828571429 -0.00838297142857143
0.00157328746066458 -0.130850685398352 -0.00840836257753031
0.00161253865008436 -0.13076414612559 -0.00844944300011943
0.00164776149408127 -0.130684633565457 -0.00848626979905437
0.0016764452262972 -0.130614793303907 -0.00849228009104945
0.00147437595014643 -0.140469224238289 -0.00896865382993939
0.00150094898032614 -0.140338896617163 -0.00896299956900397
0.00153104278796841 -0.140161766550127 -0.00892566471343789
0.00156499764729983 -0.139991284980479 -0.00889191409989316
0.0016023241341434 -0.139868765074951 -0.00888773251013483
0.00164152446391007 -0.139812027262277 -0.00892225164127423
0.00168017283633879 -0.139810924008467 -0.00898499455108947
0.00171526318023535 -0.139830811751465 -0.00904878651260834
0.00174375387882556 -0.139823132396767 -0.00907745936932107
0.00155964569546549 -0.14950514867728 -0.0100669639760986
0.00158460012615326 -0.149276835597273 -0.0100013437643156
0.00161324269664279 -0.148962499573933 -0.00989568372715596
0.00164700138907541 -0.148676291127784 -0.00980973666832102
0.00168609486685529 -0.148505205918537 -0.00978775936685422
0.00172910706840277 -0.148484396184276 -0.00984546124427058
0.00177298751469645 -0.148587874605081 -0.00996535002171117
0.001813518357001 -0.148736583120407 -0.0101015735086551
0.00184618201487695 -0.148822080529432 -0.0101931537441286
0.00165031170599243 -0.158213212407636 -0.0117283080073855
0.0016734019284954 -0.157816948873404 -0.0115438470525992
0.00170112512260061 -0.157292320802821 -0.0113039641562938
0.00173665871931062 -0.156833559291859 -0.0111155504971692
0.00178129542481473 -0.156588240799287 -0.0110579766771932
0.00183359798464762 -0.156614765112648 -0.0111595783796401
0.00188925027461798 -0.156866847034584 -0.0113895241400216
0.00194171213494151 -0.157207415259625 -0.0116661765705923
0.0019836741596267 -0.157449679291897 -0.0118808812207523
0.00174687785528565 -0.166471414821498 -0.0140066776607411
0.00176645708592214 -0.165809564009044 -0.0136132365021628
0.00179239067794599 -0.164969901265655 -0.0131371323293808
0.00183073416046088 -0.164257174524708 -0.0127681891524801
0.00188454835556543 -0.163902280532865 -0.0126471008705249
0.00195237509687401 -0.163995547369715 -0.0128241119918875
0.0020278161902347 -0.164463471518583 -0.0132454249519606
0.00210042205672434 -0.165089869612662 -0.0137670456842312
0.00215811244867498 -0.165580362448599 -0.014196527232051
0.00184937074529142 -0.174190930159723 -0.0169539403733372
0.00186216150335044 -0.173148103672411 -0.0162218802901461
0.00188378493279225 -0.171864134985574 -0.0153597011851901
0.00192491984687206 -0.170796166408585 -0.0146950883364597
0.00199149845738636 -0.170288285795454 -0.0144690681818182
0.00208217473058162 -0.170473626672171 -0.0147672333745284
0.00218744192135005 -0.171242710777448 -0.0154989703756832
0.0022907020843889 -0.172272514729636 -0.0164184284597912
0.00237214544931194 -0.173120876556982 -0.0171939534785012
0.00195656297477418 -0.181278387395525 -0.0205711139174112
0.00195779419293935 -0.179742618134402 -0.0193361530152162
0.00197097395981052 -0.177880512485166 -0.0178916578637063
0.00201378279810471 -0.176351271855474 -0.0167800260969508
0.00209650246479195 -0.175644930954554 -0.0163945361683903
0.00221817771535699 -0.17594844195951 -0.016873177469907
0.00236503624184312 -0.17710767076159 -0.0180710416802449
0.0025114473672141 -0.178662682719083 -0.0195878769645243
0.00262577808077905 -0.179976217809193 -0.0208752682138173
0.0020641153300464 -0.187554923763554 -0.0246972849515263
0.00204864150965132 -0.185459478017544 -0.0227977602014367
0.0020485602317935 -0.182927249289404 -0.0205670736322217
0.00209113932157316 -0.180862347609377 -0.0188504342417638
0.00219252422317247 -0.179924949947559 -0.0182486281050923
0.00235251009243135 -0.180362510498978 -0.0189687595864158
0.00255206159088662 -0.18197156471022 -0.0207945715259676
0.00275351400924864 -0.184133914045046 -0.0231154878942966
0.00290874489084375 -0.185977178504674 -0.0250773748541159
0.00216180720055213 -0.19265457954452 -0.0288342139417044
0.0021268772972266 -0.190043107058146 -0.0262005004637805
0.0021105722323261 -0.186872230057855 -0.0230778299367334
0.00215123685254875 -0.184293400106068 -0.0206722998708297
0.00227161376323975 -0.183131872148707 -0.0198240074342357
0.0024724739819895 -0.183691518456135 -0.0208169958072365
0.00272919675673183 -0.185724336152923 -0.0233557603125501
0.00299044273761717 -0.188460625462899 -0.0265871925829486
0.0031886145165394 -0.190792431431857 -0.0292927482458942
0.00223257110493278 -0.196025203586641 -0.0320487239801622
0.0021816474338724 -0.193108579580107 -0.0288224204051604
0.002151721644824 -0.189538163070883 -0.0249564643962207
0.00219051673687544 -0.186630537379303 -0.0219718583256644
0.00232623624106405 -0.185319543114488 -0.0209158585028643
0.00256039795367855 -0.185945648217039 -0.0221379611263585
0.00286368102768954 -0.188234447703467 -0.0252752299577559
0.00317306429012816 -0.19131948957828 -0.0292645751610014
0.00340426970416661 -0.193937748865774 -0.0325694988393068
0.000389581220514291 -0.0371169642638139 0.00512212989769865
0.000344657638268457 -0.0370230981945124 0.00508969532646977
0.00029161770503906 -0.0369019286306434 0.00503625923242466
0.000231965024183857 -0.0367800568288938 0.00498656895687795
0.000168099179817378 -0.0366787682848746 0.00495928892634142
0.0001032374247639 -0.0366084690620265 0.00496169726238645
4.12008197969418E-5 -0.0365663320456248 0.00498769991946044
-1.39749499511498E-5 -0.0365377040270978 0.00501970051579123
-5.8584012698046E-5 -0.0365009183972852 0.00503379334980809
0.000465250880564278 -0.0413771796192956 0.00653228029807382
0.000411882938623689 -0.0412331863049989 0.0064466223047003
0.000347107737272289 -0.0410420789021221 0.00632942922109853
0.000273064785594071 -0.0408592908558694 0.00622818739421877
0.000192993018403967 -0.0407280373963815 0.00617870154635929
0.000111134803456257 -0.0406674247561054 0.0061947485538245
3.25566758829345E-5 -0.0406677685783473 0.00626431706482123
-3.72662169033E-5 -0.0406940896052134 0.00635321901825197
-9.31934593640755E-5 -0.0406969996255873 0.00641526509340093
0.000548955881944927 -0.0454988431356416 0.00825797324617357
0.000483434494748666 -0.0452700789534284 0.00807496159439529
0.000401091525238261 -0.0449718661687322 0.00784456979656073
0.00030482003341435 -0.0446979030884577 0.00765331873460508
0.000198991833401759 -0.044520751225912 0.00756637156333331
8.94184947627499E-5 -0.0444714235503659 0.00760854047921671
-1.66586482863149E-5 -0.0445316726847677 0.00775763026622692
-0.00011097520934525 -0.0446401161805536 0.0079509088123843
-0.000185419530971323 -0.0447111536330108 0.00810382913111127
0.000646031175871082 -0.0494250094395892 0.0103604012442117
0.000564665387354041 -0.0490639269869532 0.010010695753265
0.000458280825522358 -0.0486063517721063 0.00958835124374171
0.000330697533389453 -0.0481989617536975 0.00924580106547022
0.000187733704389856 -0.0479548818098684 0.00909736138115786
3.733837348227E-5 -0.0479216489161225 0.00918607669563241
-0.000109943181897454 -0.0480697012911571 0.00947273141056346
-0.000241180907579044 -0.048301766540914 0.0098466381048174
-0.000342988747120726 -0.0484825631948311 0.010158358475086
0.000762753620154575 -0.0531147308477946 0.0128962206612374
0.000662218792362394 -0.0525655729918426 0.0122803174136061
0.000524836936296057 -0.0518845340676874 0.0115503133295939
0.000355628474676314 -0.0512915252089991 0.0109662275905917
0.000162166079555776 -0.050954979906355 0.0107212357956225
-4.49630522988226E-5 -0.0509447453500913 0.0108870577943962
-0.0002505999081395 -0.0512164606152779 0.0113974624363888
-0.000434520201976217 -0.051624514614576 0.0120646368368279
-0.000574535413057331 -0.0519654536330665 0.0126331090680452
0.000903917398003913 -0.0565241368109215 0.0158799457035624
0.000781870952117313 -0.0557330840706379 0.0148729169879022
0.000606717189108319 -0.0547621891434876 0.013684854540367
0.000385146747041148 -0.0539287298492991 0.0127416703905671
0.00012677899510448 -0.0534727433831192 0.012354866451802
-0.000154889858895281 -0.0534923340069662 0.0126379824549874
-0.000438773964257437 -0.0539249803722243 0.0134851119578711
-0.000693927438591401 -0.0545633450708049 0.0145925448856561
-0.000884278038896288 -0.0551141304208131 0.0155412412725959
0.00106731560866563 -0.0595656606833688 0.0191981381513982
0.000923397814440381 -0.0585009400594656 0.0176788068947008
0.000705622167053438 -0.0571941165360969 0.0158782947579308
0.000423057635198692 -0.0560809143682753 0.0144549245107426
8.76405335184735E-5 -0.0554853116399288 0.0138802342741197
-0.000284345820771002 -0.0555375084484793 0.0143222835200048
-0.00066495523660527 -0.0561552720572227 0.0156231852679258
-0.00100881810474483 -0.0570603034094296 0.0173223731931138
-0.00125985843954353 -0.0578513338914933 0.0187716646369944
0.001234970688913 -0.0620559251185164 0.0224746625012853
0.00107206574735705 -0.060739145957411 0.0203939537218438
0.000812178002166446 -0.0591108585499131 0.0179042439792817
0.000467342250511902 -0.0577270169101886 0.0159392684452882
5.19574035876078E-5 -0.0569937494356777 0.0151539629767033
-0.000415371515867171 -0.0570717258569287 0.0157765295458668
-0.000899743323845309 -0.057861519221075 0.0175915903418583
-0.00133905993408577 -0.0590175310918087 0.0199588229337903
-0.00165283778953879 -0.060030764977893 0.0219585648189193
0.00136778589048151 -0.0637135730110286 0.0249977282309671
0.00119269859131064 -0.06224699782421 0.0224685275485156
0.000900892866483337 -0.0604143524855423 0.0194098952015142
0.000506802174404574 -0.0588525844201076 0.0169940192665662
2.69516012397583E-5 -0.0580228587188031 0.0160333700644518
-0.000518137919866583 -0.058106491606754 0.0168069203180431
-0.00108759490709262 -0.0589949033146819 0.0190508261958111
-0.00160450863977498 -0.0603004308307249 0.0219704315932066
-0.00196679541078439 -0.0614436824778447 0.0244109995991572
0.00142975559940242 -0.065882375238648 0.0259993934478366
0.0012790302825176 -0.0685657744359052 0.0234119847898086
0.00100912026116628 -0.0717333803931373 0.0202608955986005
0.000621680968213486 -0.0740735326493116 0.0177635825682025
0.000124982216766724 -0.0746856430531732 0.0167679313893653
-0.000462043653667646 -0.0732881282924997 0.0175656862075586
-0.00109187071440379 -0.0702422379677974 0.0198819101428404
-0.00167177714496718 -0.0665279919740382 0.022888085194229
-0.0020785474226319 -0.0635172052406397 0.0253850578672938
0.0013894062117715 -0.0670342074571523 0.0250752096445339
0.00124189340186066 -0.0697597721466303 0.0226450662709264
0.000983587677236651 -0.072967741751216 0.0197062755773056
0.000616086799560891 -0.0753409775588833 0.0173842694960774
0.000146687995422435 -0.0759775479548417 0.0164584554476351
-0.000407526142855705 -0.0745936251916706 0.0171965444097229
-0.00100290402716967 -0.0715463838496068 0.0193462592837048
-0.00155355816223705 -0.0678115051788213 0.0221461289185005
-0.00194416928906993 -0.0647633259459733 0.0244879923571703
0.00128855492779754 -0.0702911208017653 0.0226822524129745
0.0011504792636645 -0.0727096540612376 0.0206979132128782
0.000920591296301824 -0.0755442984802576 0.0183235553213747
0.00059969755668642 -0.0776439027424625 0.0164487523037051
0.000193983255048735 -0.0782100600555592 0.0156968615743411
-0.000281097684368835 -0.0769870112671524 0.0162851937839656
-0.000788206059798392 -0.0742923314131541 0.0180095586441
-0.00125730760262871 -0.0709851917402091 0.0202613318858494
-0.00159628324043012 -0.0682633784182817 0.0221648452490043
0.00116926646491484 -0.0752526222303035 0.0196269816406491
0.00104561178224076 -0.0771570479427753 0.0181926409539406
0.000852243331928071 -0.0793880578597646 0.0164925693854367
0.000589408689326246 -0.0810427503656889 0.0151475607630147
0.000262415841972141 -0.0814822007149281 0.0146018194428897
-0.000115097421833916 -0.080497241466072 0.0150138038247946
-0.000513255965835035 -0.0783454934720126 0.0162354907812842
-0.000880352643459063 -0.0757117613225103 0.0178337557771211
-0.00115112745207942 -0.0735331438603773 0.0191978072850107
0.00106530281936094 -0.0814039145785585 0.016620590030248
0.000958818717186086 -0.0827556907280486 0.0156834079270658
0.000802452209913925 -0.0843533727730536 0.0145766775449698
0.000596450296884642 -0.085539922255353 0.0136967078297397
0.000345450911905131 -0.0858416956882179 0.0133330720649907
6.08669800829235E-5 -0.0851007475244283 0.0135914806182991
-0.000234831590491062 -0.0835109898490145 0.0143740776475375
-0.000506025807448597 -0.0815789275744644 0.0153991763438079
-0.000709921211280162 -0.0799853907111097 0.0162772378107347
0.000990945944616054 -0.0883976762937319 0.0140449523693027
0.000902282902282114 -0.089267357952257 0.013484060627986
0.000779330370421507 -0.0903210157303866 0.0128167353891153
0.00062261267014172 -0.0911044071596475 0.0122809374271947
0.000436128747159091 -0.0912860142045454 0.0120533227272727
0.000228880516475386 -0.0907540002824139 0.0121996502077929
1.69132514406612E-5 -0.0896459785786014 0.0126598346642288
-0.00017632816450158 -0.088316417109511 0.0132626688812958
-0.000323999647694481 -0.0872358900533456 0.0137746740518878
0.000946326760366895 -0.0960602446661605 0.012028671573324
0.000874696173908769 -0.0965612627310263 0.0117216333169485
0.000780195415849814 -0.0971996711242949 0.0113459204172061
0.000663590311049035 -0.0976740204174047 0.0110385648271758
0.0005281931225445 -0.097763117186579 0.0109022946633533
0.000380739472156634 -0.0973920822755594 0.0109759579844696
0.000232231931743581 -0.0966539872277287 0.0112246981781203
9.76528605977192E-5 -0.0957859810361777 0.0115495028214707
-6.56269430381474E-6 -0.0951008362386622 0.0118163070736545
0.000925176703571228 -0.104297889002295 0.0105804888579584
0.000868990703624873 -0.104544770520032 0.0104307048048845
0.000797962064799754 -0.104890892074305 0.0102335934615286
0.000712930533366208 -0.105145480445809 0.0100662864467122
0.000616498896737368 -0.105168630579875 0.00998687853625068
0.00051348872454414 -0.104913283730922 0.0100176378020894
0.000411214255816759 -0.104439429608349 0.0101390722434128
0.000319060604484229 -0.103898240016685 0.010295619251357
0.000246950647059841 -0.103488553737836 0.0104121336088891
0.000919492324950864 -0.113020620262929 0.00967334722312897
0.000876827375172337 -0.113108246168489 0.00961314515696863
0.000824820279771885 -0.113259738693144 0.00951692761675076
0.000764213581438122 -0.113364535777888 0.00942890049922634
0.000696929230269004 -0.113342056330488 0.00938239449086553
0.000626285838671065 -0.113165876256094 0.00939034124602225
0.000557030480227483 -0.112871971429718 0.00944175371484524
0.000494962591810028 -0.112549235604722 0.00950505037301179
0.000446023136567576 -0.112314270806346 0.00953738203340561
0.000921483776542065 -0.122106474295205 0.00928123951152103
0.00089039283297516 -0.122100586215247 0.00926493605312117
0.000853671687697724 -0.122122790548938 0.00921755700004905
0.000811825528207565 -0.122123565074632 0.00916804536926461
0.000766149660877254 -0.122067542162547 0.00913818841553446
0.0007188336534847 -0.121944306942043 0.00913649857372816
0.000672906439438923 -0.121771955026026 0.00915587533229924
0.000631939493829193 -0.121592547193425 0.00917578543332239
0.000599498052183887 -0.121460539876105 0.00916824521852016
0.000924150583213004 -0.131396902891392 0.00939164391551441
0.000902887815217391 -0.131329656623668 0.00938576250985028
0.000878495840761874 -0.131253240185793 0.00934908954622286
0.000851107497891945 -0.131170161866943 0.00930818108612913
0.000821425196428571 -0.131083671428571 0.00928297142857143
0.000790799582063588 -0.130997370449099 0.00928119290469539
0.000761159151577386 -0.130914744448922 0.00929622448942619
0.000734772313752698 -0.130838728667729 0.00930910232723473
0.000713881095642648 -0.130771407776375 0.00929399192128536
0.000921325482985231 -0.140711181032832 0.0100087658409258
0.000908545166954377 -0.14057920983 0.00998175874075232
0.000894366388104208 -0.140399284726957 0.00991995758126617
0.000878359321696183 -0.14022640580857 0.00985961015862341
0.000860591508180515 -0.140103036138315 0.009827894602637
0.000841759775333259 -0.140047421871049 0.00983517859494285
0.000823144683381513 -0.14004901285713 0.00987209415196253
0.000806395418089851 -0.140072068931852 0.00991231491886817
0.000793208383905976 -0.140066569893022 0.00992019241279303
0.000907553472018682 -0.149869833709012 0.0111544634225455
0.00090253246314243 -0.149634134004453 0.0110661074244122
0.00089741995702969 -0.149309927635201 0.0109338224312163
0.00089088782062885 -0.149014724929203 0.0108187620646367
0.000882181310494315 -0.148838088304486 0.0107667950203931
0.000871406345663154 -0.148816242387528 0.0107951898257087
0.000859551163225838 -0.148922547728407 0.0108877358147121
0.00084825486478042 -0.149075832339103 0.0109994390561862
0.000839396808339117 -0.149164754184978 0.0110697121750753
0.000877951362447861 -0.158718049016283 0.0128684344007069
0.000880864553453412 -0.158305708879353 0.0126585566027089
0.000884873993927255 -0.157760779861505 0.0123880132750761
0.000887144788522031 -0.157283742954102 0.0121657465229625
0.000885672183864476 -0.157026966897287 0.012073425275851
0.000879884882248961 -0.157050875665759 0.0121415159858538
0.000870801289830935 -0.15730802485836 0.0123408423098881
0.00086074413544605 -0.1576574750157 0.0125907718500452
0.000852673236788013 -0.157907106999811 0.0127829698877926
0.000828172027138296 -0.16713979152058 0.0152048257792502
0.00084040930367676 -0.166448322149037 0.0147818654443571
0.000855135217602474 -0.165572286200076 0.01426889517335
0.000866954235125635 -0.164827419824269 0.0138587721091866
0.000871819845497227 -0.164452998152135 0.0136955344894647
0.000868206845540105 -0.164542832509775 0.0138324380602818
0.000857509000297155 -0.165021340273843 0.0142179508096503
0.000843674730829729 -0.165665504551711 0.0147093880357845
0.000832052972301683 -0.16617153449171 0.0151146088363535
0.000754754562773646 -0.175051686547087 0.0182159261797478
0.000779172742839571 -0.173958679654062 0.0174487807226378
0.000808079846039172 -0.172613887996096 0.0165410689847667
0.000831823242233541 -0.171493081498828 0.0158249590827092
0.000843033508522727 -0.170954373295455 0.0155463409090909
0.000838723009010474 -0.171136573704662 0.0157950725933716
0.000821065529763699 -0.171926592018123 0.0164836994624847
0.00079697399461946 -0.172989781187764 0.017368191154097
0.000776165152359192 -0.173867918094749 0.0181172738443142
0.000656491217827856 -0.182362530142823 0.0219026783030239
0.000697294301564723 -0.180747249885771 0.0206257640286219
0.000745688143373997 -0.178789019445925 0.0191245070266256
0.000785317978098373 -0.177177388103586 0.0179478534262625
0.000803697233074322 -0.176424804388223 0.017496037498771
0.000795643160232847 -0.176726996509869 0.0179129729818177
0.00076456333982128 -0.177923888998332 0.0190581164142482
0.00072211005482995 -0.179536711470322 0.0205338278287857
0.000685172169418403 -0.180901922538957 0.0217923114998028
0.000537795949554354 -0.188885957611313 0.0261018504515769
0.000599439735722099 -0.18667329730507 0.0241527932254987
0.00067329518625437 -0.18399863182526 0.0218520750082478
0.000733426393545762 -0.18181280996272 0.0200541855236842
0.00076022943460909 -0.1808097067254 0.0193695196138542
0.000745522172400699 -0.181249496919897 0.0200130970510579
0.000694351048737346 -0.182919648998824 0.0217745092148268
0.000625037444580857 -0.185173372557788 0.0240469280081425
0.000564957077212057 -0.187097751232919 0.0259773542333464
0.000414248290540929 -0.194228790588296 0.0303079526979719
0.000498730390368066 -0.191459312695879 0.0276176837758786
0.000601376171532991 -0.188094506800187 0.0244115146247168
0.000684655464673893 -0.185351971725455 0.0219078998985156
0.000720567991607271 -0.184103557440731 0.0209594462356577
0.000697444571786236 -0.184670138168312 0.0218601865474951
0.000622134025142827 -0.186791139179262 0.0243220697590279
0.000520847147814571 -0.189657120714068 0.027497165462444
0.000433839787181365 -0.192102781650692 0.0301688979733794
0.000315914599248148 -0.197786497025529 0.0335742737419704
0.0004190721546795 -0.19467960427985 0.0302867950425638
0.000546130513876469 -0.190873084568388 0.0263272103816363
0.000649217969229222 -0.187766429379981 0.0232313072007875
0.000692845924582063 -0.186351136334322 0.02206122241297
0.000662228782915451 -0.186988282808421 0.0231781677775083
0.000565741952952669 -0.189387955870642 0.0262280898947268
0.000436635063496782 -0.192634450206363 0.0301544829767511
0.000326807516849397 -0.195392903079764 0.0334237427227084
0.000694818551369281 -0.0370934135918952 -0.00396846404572044
0.000715116631474919 -0.041473645104813 -0.00518551180070611
0.000725483611285898 -0.0457141086177591 -0.00672943668026628
0.00072234087073262 -0.0497639442633876 -0.00868318418875363
0.000701620618590184 -0.0535871268127937 -0.0111319178211239
0.000660121888757175 -0.0571420947483516 -0.0141205585923615
0.000598504382923799 -0.0603375192185303 -0.0175533207453232
0.000526127173475979 -0.0629748079587593 -0.0210319858256254
0.000464334188090417 -0.0647433347604272 -0.023760082926593
0.000449507702794595 -0.0669545100025828 -0.0248343347448355
0.000485351459007769 -0.0680645875700939 -0.023803782020886
0.000578319821239161 -0.071211784630986 -0.0211529240250813
0.000698119481339484 -0.076028447857044 -0.0178110286673247
0.000818555385302774 -0.0820292832267454 -0.0145790894306872
0.000927182836191158 -0.0888825443984108 -0.011863804212303
0.0010220973231851 -0.0964188980927571 -0.00977609477444228
0.00110624145624505 -0.104543136798749 -0.00829295679400477
0.00118375821070108 -0.113161512829477 -0.00735775124729838
0.00125839978392578 -0.122147564728231 -0.00692322176584538
0.00133309317199438 -0.131337944449479 -0.00696536574389739
0.00141004026404845 -0.140546753988922 -0.00748673295225165
0.0014910353982872 -0.149588693980497 -0.00851752334423717
0.00157782470672733 -0.158302180190483 -0.0101164475992551
0.00167233753352601 -0.16656342902296 -0.0123679985446033
0.0017764984528765 -0.174281246606369 -0.0153648655692051
0.00189106304014199 -0.181359789125144 -0.0191507662395694
0.00201268697820888 -0.187618955405918 -0.0235862905715195
0.00212924646189471 -0.19269516949654 -0.028132591928355
0.00221734527248994 -0.196044199336508 -0.0317211858141982
0.000665515719150493 -0.0370714883797738 -0.00309134274584959
0.000690951987636254 -0.0413924216262078 -0.00407936105116392
0.000707942979211873 -0.0455393811261445 -0.00535126124045469
0.000713436932745336 -0.0494462736125488 -0.00698572815585763
0.000704048492457304 -0.0530661971709338 -0.00906720364036579
0.000677112027582463 -0.0563570882576968 -0.0116490198716086
0.000633009389933508 -0.0592490083417993 -0.0146626854810696
0.000578980756631477 -0.0616005107960945 -0.0177662993923461
0.000531858214226662 -0.0631915156940385 -0.020243009958514
0.000549057509456825 -0.069543895283532 -0.0212813973586962
0.000579536879481555 -0.0707058628524051 -0.0203127555826531
0.000655030498760394 -0.0735738757732598 -0.01789158403693
0.000751718068755238 -0.0779102260134144 -0.0148832316441242
0.00084943947019268 -0.0833882497004181 -0.0120107240139661
0.000938833415446792 -0.0897815139201275 -0.00962511317198561
0.00101860105878883 -0.096964168020055 -0.00780867346637829
0.00109105171976559 -0.104844446349519 -0.00652689924346165
0.00115930168119944 -0.113311466225644 -0.00571957675572873
0.00122607246532758 -0.122211715280004 -0.00533857294671063
0.00129339583175729 -0.131349830956419 -0.0053593124635968
0.00136275563370713 -0.140505523375664 -0.00578313838772322
0.00143542328994333 -0.1494586454451 -0.00663819389833965
0.00151284170027258 -0.158014212365403 -0.00798063022147116
0.00159690180593787 -0.166019073368069 -0.00989316512976799
0.00168982832316776 -0.173361881511677 -0.012470790530799
0.00179311211388422 -0.179947440898315 -0.0157707919220656
0.00190463959278814 -0.185638889269232 -0.0196911994652196
0.00201384769528237 -0.190184088494984 -0.0237677791142916
0.00209856613272033 -0.193212281705677 -0.0270369611301332
0.00063505858434348 -0.0370310336231795 -0.00207617290543926
0.000666427806134629 -0.0412720126444506 -0.00276684783245595
0.00069116864001737 -0.0453036173829291 -0.00366658409585142
0.000706946367368326 -0.0490421782904735 -0.0048359812079218
0.000711283166641042 -0.0524261293347798 -0.0063408583645205
0.000702279547150011 -0.055408406983371 -0.00822469031485472
0.000680159313975591 -0.0579382276599849 -0.0104408936489077
0.000649733213687425 -0.0599376917957727 -0.0127401257990803
0.000622112234415049 -0.0612985535640563 -0.0145935985439664
0.000679392336664133 -0.0726433138695164 -0.0154081024750274
0.000701988424631852 -0.073854850257292 -0.0146593511048351
0.000754375033838947 -0.0763754015350355 -0.0128394359776692
0.000821634664883412 -0.0801386761131965 -0.0105955603297679
0.000891200370453317 -0.0850094425925846 -0.00846260273791499
0.000957209487444833 -0.0908772407214223 -0.00669787530691681
0.00101880019027904 -0.0976567947665511 -0.00535863975002468
0.00107731540109388 -0.105253113177087 -0.0044153301389195
0.00113450889318192 -0.113532625414351 -0.00381984791369355
0.00119176754128067 -0.122311676142202 -0.00353405439913308
0.00124994543782884 -0.131361950449979 -0.0035383944618431
0.00130952000071503 -0.140429014269555 -0.00383361519027504
0.00137090682653544 -0.149258102407472 -0.00444142065100726
0.00143482178576418 -0.157619818406009 -0.00540546212532495
0.00150256068469297 -0.165328367007628 -0.00679038878547342
0.00157596151559318 -0.172246314745119 -0.00867118600608218
0.00165658779912134 -0.178271819770403 -0.0110956121060747
0.0017434365670196 -0.183307641382798 -0.0139932202086422
0.00182899840128964 -0.187223623499584 -0.0170242609066626
0.00189648749457399 -0.189856890478251 -0.0194765084837906
0.000603777031617789 -0.0369977854247192 -0.000959612848269798
0.000641806449646001 -0.0411687324902666 -0.00130322956246579
0.000675201311031256 -0.0451038530375614 -0.0017574958852764
0.00070242145570864 -0.0487055528782665 -0.00235537202934628
0.000721902334295677 -0.0519002861069228 -0.00313263467741303
0.000732410582921399 -0.0546363723411524 -0.00411303260878239
0.000733811643890404 -0.0568773539523901 -0.00527236878265513
0.00072828642834571 -0.0585946017277724 -0.00647974728459457
0.000721170067501468 -0.0597674533346428 -0.00745847473158004
0.000812511424813781 -0.0750121062924721 -0.00788234942948406
0.000826351905482917 -0.0762600185148603 -0.00747619071180215
0.000855387114437188 -0.0785170624713973 -0.00650919398106725
0.000893195143890903 -0.0818469548779679 -0.00532088784485543
0.000934410680872029 -0.086258546795803 -0.00419152980470711
0.000976596298391788 -0.0917286964850468 -0.00325659639550699
0.00101941950976009 -0.0982023973359358 -0.00254617929646469
0.00106333757136311 -0.105581658148355 -0.00204407260588091
0.0011087491673722 -0.113715407012524 -0.00172410096049981
0.00115564509417555 -0.122397370909633 -0.00156553479115502
0.00120358653928736 -0.131375042265231 -0.00155782499134992
0.00125187667358902 -0.140369239372715 -0.00170155130985211
0.00129983733710916 -0.149100117595539 -0.00200875895541996
0.0013471180734339 -0.157313061707482 -0.00250345660268903
0.0013939508054111 -0.16479788571789 -0.00322103352030185
0.0014412057591979 -0.171397216755932 -0.00420238348597869
0.00148997845863362 -0.177003699222474 -0.00547360355438817
0.00154030659228996 -0.181549475553412 -0.00699765999806975
0.00158890905590443 -0.184995521772026 -0.00859560277088177
0.0016274794002434 -0.187333941713468 -0.00989412645746447
0.000572253220763609 -0.0369907529393214 0.00021077511709289
0.00061764451695722 -0.0411247134930106 0.000240408135288664
0.000660585254311641 -0.0450129868309918 0.000270250988622907
0.000700424009314782 -0.0485519702168448 0.000299612236618235
0.000736529715909091 -0.0516629000143408 0.000327707386363636
0.000768232982970406 -0.0542919257288883 0.000353599770445627
0.00079479091970964 -0.0564082526042906 0.000376173585122269
0.000815436973405926 -0.0580032724234677 0.000394208345413991
0.000829553808198994 -0.0590921451673727 0.000406601086267993
0.000939665341981132 -0.0757849042024014 0.000463144339622641
0.000944377444645775 -0.0770517486596651 0.000463144009116113
0.000951119296076016 -0.0792259285070802 0.000461231715015487
0.00096104594664339 -0.0824136645597155 0.000458589130046251
0.000975238560623884 -0.0866725479316685 0.000456626601462828
0.000994454315340909 -0.0920099772727273 0.000456659659090909
0.0010189571039996 -0.0983821386051195 0.000459689079296374
0.00104843992464673 -0.1056905276227 0.000466311640608847
0.00108202491576072 -0.113778300305722 0.000476725636111928
0.00111833059659233 -0.122431515775363 0.000490785814518062
0.00115560319642857 -0.131389421428571 0.000508078571428571
0.00119190508387279 -0.140364413227409 0.000528002330727312
0.00122534063007214 -0.149068147819608 0.000549841673316421
0.00125428938989748 -0.15723752585105 0.000572821631398148
0.00127761634934093 -0.164654268220108 0.000596128934413269
0.00129483689488636 -0.171154609090909 0.000618896022727275
0.00130621823684901 -0.17662993707047 0.000640163339685391
0.00131278801912077 -0.181022994904138 0.000658861604757751
0.00131620112094991 -0.1843253802012 0.000673873231712602
0.00131842256534477 -0.18657912669837 0.000684212972100837
0.000541157048938419 -0.03701672036596 0.00138156348969322
0.000594513685933364 -0.0411557987985914 0.00178494110306077
0.000647894801034806 -0.0450587332500559 0.00229970793086883
0.000701726186559551 -0.0486253596268948 0.00295762383614037
0.000756506018938386 -0.0517797363322506 0.00379310896044987
0.000812269959205669 -0.0544685506935223 0.00482821494471964
0.000867594872974978 -0.0566559779079159 0.00603648129920606
0.000918232424016942 -0.0583187511323176 0.00728404967786635
0.000956488558024185 -0.059447896612135 0.00829083838250009
0.0010674455658453 -0.0746734400686021 0.00881966568319478
0.00106219145563268 -0.0759398725709778 0.00841239661584797
0.0010458660132654 -0.0782403601217629 0.0074393224665569
0.00102746925714543 -0.0816242925508381 0.00624325441531553
0.00101457120903367 -0.0860887481455254 0.00510792297121951
0.00101101069352501 -0.0916051016103536 0.00417163721112444
0.0010175032858672 -0.0981175391896774 0.00346641339247481
0.0010328693805623 -0.105529453584884 0.00297707834840226
0.00105489705979038 -0.113691818526844 0.0026777113128777
0.00108081572002862 -0.122400442707228 0.00254720170777069
0.00110756301125791 -0.131404801110734 0.00257413619864418
0.00113197093145872 -0.140427673059342 0.00275790231808597
0.00115092047645462 -0.14919130975389 0.00310916965521268
0.00116147719744099 -0.157443487344479 0.00365049651664164
0.00116103589971202 -0.164976771800513 0.00441578929573882
0.00114758319710921 -0.171636643408064 0.00544438021121329
0.00112033667894169 -0.177317633417001 0.00676059255323277
0.0010811513351863 -0.181950207742252 0.00832522560548759
0.00103674134531283 -0.185485862434911 0.00995665523932718
0.000999992567669254 -0.187896624350073 0.0112786126994984
0.00051099796477795 -0.0370683427834455 0.0024991481715239
0.000572596033253617 -0.0412472933090474 0.00325088849217898
0.000636999527675568 -0.0452163533868311 0.00421329111989702
0.000705936192040199 -0.0488869629260368 0.00544624637385066
0.000781346006861993 -0.0521929820784906 0.00701479040017311
0.000864318270614451 -0.0550842035582617 0.00896118327660031
0.000952892200570681 -0.0575110224398347 0.0112365079724327
0.00103875263891129 -0.0594058779337872 0.0135870588967777
0.00110535721250729 -0.0606832366066605 0.0154774299721743
0.00120228165355015 -0.071992624121695 0.0163750318635097
0.00118603141695721 -0.0732386470949747 0.0156222296557243
0.00114428393229345 -0.0758422007439695 0.0137901699486511
0.00109526197244017 -0.079709216453292 0.0115318540221016
0.00105384679986015 -0.0846815955725276 0.00938741123408209
0.00102699230520625 -0.0906383135755756 0.00761752306913171
0.00101555155212208 -0.0974925852600535 0.00628115890137126
0.00101716772840128 -0.105152086725884 0.00534934824777781
0.00102812010060479 -0.113487148343275 0.00477386450307397
0.00104419864607449 -0.122318066804103 0.00451594541938984
0.0010610684060316 -0.131420281588372 0.00455507348623213
0.00107441915943696 -0.140543063563266 0.00489083457368214
0.00108002631092038 -0.149435595724842 0.00554370701096992
0.00107377408503013 -0.157872974046118 0.00655616026598001
0.0010517178661688 -0.165674566492031 0.0079917474138793
0.00101040866104922 -0.172708300891141 0.00992436099834268
0.000947996266732024 -0.178875903579262 0.012400383771953
0.000866927878033278 -0.184076979317855 0.0153471383634246
0.0007784688738111 -0.188163295692613 0.0184210222974401
0.000705750559033846 -0.190933442809385 0.0209041345903714
0.000481922510369298 -0.0371262611133188 0.00351548772231714
0.000551390298196851 -0.0413583914883597 0.00456619632117904
0.000626527161572422 -0.0454161146469194 0.00590352024832776
0.000710436800640429 -0.049226669249257 0.00760607200170898
0.000806643020188048 -0.0527369476230965 0.00975824578097844
0.000917487955175415 -0.0559006756902408 0.0124127702918853
0.00104060221021895 -0.0586496939556782 0.0154987124299531
0.00116335358958885 -0.0608570361366934 0.0186679677330547
0.00125946325074676 -0.062334187812763 0.0211928466224948
0.00133483624734555 -0.0686404560104883 0.0222862186757712
0.00130786494171582 -0.0698477554966862 0.0213098875521351
0.00124039296812679 -0.072828918797437 0.018868842939938
0.00116048247709943 -0.0773081362517467 0.0158374782434246
0.00109074496202423 -0.0829269742316479 0.0129463900340532
0.00104122462265241 -0.0894442167632725 0.0105507053752358
0.00101269766977979 -0.0967317772807707 0.00873413032835234
0.00100145821612949 -0.104701434608788 0.0074621916867642
0.00100222248295713 -0.113247567908239 0.00667405431054291
0.00100939423374197 -0.122222018176217 0.00632064976372697
0.00101749780528146 -0.131434516921061 0.00637631729451468
0.00102127227774392 -0.140669793598397 0.00684128522892628
0.0010156358081109 -0.149713022026953 0.00774267240287454
0.000995606782162606 -0.158375224785618 0.00913580161702452
0.000956293728372001 -0.166510095841526 0.0111027962740857
0.000893256527191158 -0.174013321863666 0.013738156736602
0.000803941100219837 -0.180794244389844 0.0170982974395448
0.000691325292542282 -0.186711376816694 0.0210789212418508
0.00057015189670405 -0.191487658636329 0.0252103914251888
0.000471237510404118 -0.194699708104365 0.0285199185656568
0.000453677076130444 -0.0371646842661937 0.00439328073699286
0.00052974352369862 -0.0414342383230994 0.00567431038263437
0.00061395630095883 -0.0455641349739269 0.00728599286535353
0.000710521440901324 -0.0494959063685538 0.00931175506783383
0.000824186389489113 -0.053186619680485 0.0118373084451697
0.000958141235828241 -0.0565903401865779 0.0149073943505411
0.00110936428173127 -0.0596184815674769 0.0184235312801624
0.0012613707500732 -0.0620897223006152 0.0219795954692709
0.00138006231677636 -0.0637294865732266 0.0247647951043463
0.00143613041204255 -0.0658908798541712 0.0258704158359459
0.00140151088010655 -0.0670502928297006 0.0248293916771603
0.00131449285900804 -0.0703253802547754 0.0221525175797347
0.00121035841535224 -0.075306400128865 0.0187806038964684
0.00111787504583523 -0.081471770069349 0.0155241390381276
0.00104982640537496 -0.0884721182135179 0.0127945725229209
0.00100713882806148 -0.0961348209144058 0.0107040964852114
0.000985122087494126 -0.104368237417587 0.00922929273525322
0.000977281319484055 -0.11308438466012 0.00831248681694951
0.000976952716464806 -0.12216282384471 0.00790522130530658
0.00097782285396159 -0.131446009345981 0.0079823098922741
0.00097399595944217 -0.140753771648622 0.00854524406435969
0.000959899030028365 -0.149906834890166 0.00962339528036725
0.000930148738108314 -0.158750303551342 0.0112749701925458
0.000879519365586604 -0.167167833453149 0.0135843034287983
0.000803354155458807 -0.175075581520635 0.0166440796879156
0.000699189819233423 -0.182381840939533 0.0204974945165021
0.000570800491224292 -0.188899972932119 0.0250025920996292
0.000434924409846067 -0.194237179801401 0.0296136892461296
0.000325515099225829 -0.197790270396559 0.0332501543514376
0.00115366295491868 -0.0364295989481911 -0.0040344235638866
0.00121709547782703 -0.0406674532630345 -0.00526733052839047
0.0013346803932466 -0.0447241663591141 -0.0068295304147876
0.00151273334997342 -0.0485403257472665 -0.00880407996537256
0.00175919524930509 -0.0520720290360428 -0.0112761318572694
0.00207828641522374 -0.0552751329994717 -0.0142902487596294
0.00245828175256362 -0.0580717861357698 -0.0177494468854732
0.00285195813433933 -0.0603100238389996 -0.0212527336422652
0.00316472065689134 -0.0617685564407912 -0.0239989925992291
0.00329600620276984 -0.0638594254068852 -0.0250803874250429
0.00318473212909414 -0.065087581865125 -0.0240434519534993
0.00290118047651426 -0.0685408571573091 -0.02137574840831
0.00255111672945288 -0.0737496308247963 -0.0180115304306521
0.00222374852243374 -0.0801389857436663 -0.0147564927415173
0.00196241405254688 -0.0873299982799664 -0.0120202379407387
0.00177635937307769 -0.0951388874761355 -0.00991513462572885
0.00165928893665511 -0.103471594407206 -0.00841890491487204
0.00160076198051612 -0.112240311389071 -0.00747540582502087
0.00159106477905766 -0.12132459810347 -0.00703788245905738
0.00162277295554862 -0.130565686849319 -0.00708294606780914
0.00169108340236862 -0.139780541780976 -0.00761393759275495
0.00179383645686727 -0.148785079348278 -0.00866208560195032
0.00193147678396625 -0.157417424756838 -0.0102874170125912
0.00210676511022667 -0.16555232051603 -0.0125760048815991
0.00232354585662678 -0.173096981583434 -0.015622106986669
0.00258307947937348 -0.179956907012483 -0.0194700844272956
0.00287574034917382 -0.185963163183868 -0.0239781165021682
0.00316793839723426 -0.190784042218752 -0.0285984847940519
0.00339466920418893 -0.193933975494743 -0.0322453794487739
0.00103406149412345 -0.0364030512316827 -0.00316036885091473
0.00108988540748905 -0.0405935162279091 -0.00416476914422646
0.00119097581782822 -0.0445731566669767 -0.00545520377330104
0.0013430850412844 -0.0482704520754538 -0.00711017235562082
0.00155371242800087 -0.0516342753807393 -0.00921371664584501
0.00182758631570055 -0.0546229876699413 -0.01181842053543
0.00215604359828261 -0.0571795980057292 -0.014854466356084
0.00249953073177237 -0.059200634087204 -0.0179777661976866
0.00277585944273679 -0.0605361327895927 -0.0204684400790192
0.00292171750591219 -0.066784170104659 -0.0215133879361995
0.00282178244448109 -0.0680456349519935 -0.0205398841420422
0.00257224166481246 -0.0711654389956169 -0.0181060270981171
0.00226850079398858 -0.0758259480695993 -0.0150801350197976
0.00198895990878917 -0.0816300184835553 -0.0121883550972025
0.00177036944831281 -0.0883126507389013 -0.0097840854363242
0.00161944622149037 -0.0957341145988989 -0.00795118182265041
0.00152960500330333 -0.103800916172776 -0.00665623746088961
0.00149095079677906 -0.112404690187015 -0.00583988130508836
0.0014944390819461 -0.121395172482782 -0.00545470454818167
0.0015331515040172 -0.130579773268065 -0.00547682458371878
0.00160253606944581 -0.139740227983069 -0.0059083130007823
0.00170041501203253 -0.148657695097907 -0.00677813848711746
0.00182696990623232 -0.15713789935336 -0.00814342158490786
0.0019845376320291 -0.165028095920173 -0.0100879765139599
0.00217661830003732 -0.172217872520031 -0.0127078044737554
0.00240480056855899 -0.178615688215009 -0.0160604103754472
0.00266162845242845 -0.184095834533423 -0.0200416159106487
0.00291902123128118 -0.188432279522448 -0.0241799002322588
0.00312089893440354 -0.191299385753765 -0.0274976986840944
0.000895012671055808 -0.0363596665822401 -0.00214868631236272
0.000939009814237302 -0.0404845729248611 -0.00285652720839074
0.00101521891938658 -0.0443684367742789 -0.00377545226757901
0.00112772051527095 -0.0479259975917541 -0.00496560853560108
0.00128198111596514 -0.051096126285396 -0.00649203711610846
0.00148155899987284 -0.053836452608845 -0.00839704741121917
0.00172041938993779 -0.0561095614275237 -0.0106325148694334
0.00197039118777937 -0.0578659219375788 -0.0129473489294689
0.00217271774089394 -0.059043192206188 -0.014811185165243
0.00232304973518876 -0.0703071817620698 -0.0156320598665417
0.00225059786705823 -0.0715917662704382 -0.0148797279760646
0.00207190904534791 -0.0742924656911627 -0.0130506688498246
0.00185681664581612 -0.0782932777447049 -0.010793149040538
0.00166227248618047 -0.0834126130914195 -0.00864376341897679
0.00151488773425698 -0.089511018815015 -0.00686176161554953
0.00141931384709392 -0.0964889924305889 -0.00550620242369743
0.00137036336026857 -0.104245732102065 -0.00454900771106389
0.00136032969937451 -0.112645834005025 -0.00394324197161243
0.00138207007071705 -0.121505523866994 -0.00365166371301485
0.00142996608481463 -0.13059710472301 -0.0036554269401287
0.00150012006500604 -0.139667145172158 -0.00395587154350545
0.00159038116080577 -0.14846220651544 -0.00457523460146477
0.00170035018351511 -0.156754652849971 -0.00555767113092553
0.00183123354166838 -0.164361191226628 -0.0069682771924899
0.00198511310634001 -0.171148297882403 -0.00888226238925924
0.0021627281184851 -0.177020786628253 -0.0113469184255723
0.00235842889910771 -0.181893217217625 -0.0142896348811445
0.00255210405445372 -0.185655547260496 -0.0173652679852734
0.00270406098253216 -0.18817408946247 -0.019852154166491
0.000741681492446506 -0.0363225404525069 -0.00103623068199679
0.000770797603126471 -0.0403916542926807 -0.00139830388004309
0.000816149986952012 -0.0441972555860237 -0.00187324876138001
0.00087951585885901 -0.0476434960566524 -0.00249346472435903
0.000963540054388436 -0.0506612181459213 -0.00329375832106145
0.00107001266875743 -0.0532069948212178 -0.00429645218562967
0.00119587473885178 -0.0552580685056177 -0.00547557441721679
0.00132680456695528 -0.0568062623462371 -0.00669847447856449
0.00143298066576141 -0.0578569313545273 -0.0076872775767261
0.00157046051682373 -0.0730426759437505 -0.00811837671130303
0.00153683535765931 -0.0743398939771659 -0.00770858256150133
0.00145198673534664 -0.0767159742707241 -0.00673266990991999
0.00135236090452728 -0.0802100385556284 -0.00553063543626897
0.00126755949219418 -0.0848044290241429 -0.00438408916154761
0.00121137466552818 -0.0904549484566232 -0.00343046803338552
0.00118600561995715 -0.0970921488695544 -0.00270188562213223
0.00118832655564539 -0.104608895154772 -0.00218384984384248
0.0012137381327183 -0.112848685773509 -0.00185147792310162
0.00125781389803825 -0.121602313758892 -0.00168494829926
0.00131683194729861 -0.130616046154561 -0.00167431769004536
0.00138791285414753 -0.139610760011504 -0.00182054380073678
0.001469074412577 -0.148307811359589 -0.00213586883484658
0.00155926557572866 -0.156455020722271 -0.00264432837331926
0.00165829343228762 -0.16384619539347 -0.00338112917843976
0.00176641477570595 -0.170330064762935 -0.0043866545030325
0.00188315901451367 -0.175808196646095 -0.0056859165968773
0.00200478515079081 -0.180225112719446 -0.00723979966821919
0.00212038810135056 -0.183557627746679 -0.00886575114804805
0.00220962335523851 -0.185815453246948 -0.0101852666250694
0.000580801830017388 -0.0363088877627631 0.000129386975409279
0.000593443966045772 -0.0403529465543021 0.000138627518250248
0.000604863264824057 -0.0441250408712963 0.000145197610034963
0.00061426707694936 -0.0475252759870244 0.000148821382321581
0.000621214602272727 -0.0504813691109111 0.000149565340909091
0.000625681651457242 -0.052949431999531 0.00014790155993508
0.000628070859585843 -0.0549123108794031 0.000144717923639662
0.000629142119664897 -0.0563776754865982 0.000141230456007978
0.00062984224803999 -0.0573767959353622 0.000138762823837764
0.000733790797384219 -0.0740234517152659 0.000185740737564322
0.00074466588970811 -0.0753265718915247 0.000191492080778129
0.000764824449076967 -0.0775876419034824 0.000203329483562545
0.000794325895575053 -0.0809006787673254 0.000220519361191815
0.000832687241509847 -0.0853067167255545 0.000241872068156466
0.00087913921875 -0.0907963636363636 0.000266067613636363
0.000932800194937743 -0.0973115827098801 0.00029187730176381
0.000992717966674068 -0.104743264680727 0.000318239760733284
0.00105782440688967 -0.112927405471255 0.000344238710349162
0.00112687926108375 -0.121645683011372 0.00036905209297977
0.00119845955357143 -0.130635078571429 0.000391921428571428
0.00127101055845113 -0.139607387985857 0.000412159761774858
0.00134293554727747 -0.148275146403415 0.00042919398022249
0.00141267821878172 -0.156377681845523 0.000442626967259721
0.00147875185172173 -0.163701010464892 0.000452304684526547
0.00153969507102273 -0.17008805 0.000458376704545454
0.00159398146101726 -0.175439798272307 0.000461337990695313
0.00163996563866078 -0.179711661768821 0.000462029904004182
0.00167598063389711 -0.182910049388237 0.000461565569709366
0.00170065960030135 -0.185091552750441 0.000461150938004921
0.00041994064100395 -0.0363251009275416 0.00129490305297224
0.000416078370423291 -0.0403827512501555 0.00167534631720187
0.000393496783753804 -0.044176328286435 0.00216317034779461
0.000348766807901743 -0.0476096245143784 0.00279012194266566
0.000278264452698528 -0.0506130310786414 0.0035909940031173
0.000180033417576735 -0.0531427673454305 0.00458889269091478
5.78559786219406E-5 -0.0551762933653154 0.00575955064722838
-7.2351853638176E-5 -0.0567070114886837 0.0069729628532372
-0.000178519214743324 -0.0577437656755585 0.00795456945207886
-0.000127551077797805 -0.0729238902760621 0.00846995871528945
-7.14891614735634E-5 -0.0742273171522522 0.00807272113118269
5.72002659523949E-5 -0.0766175746801454 0.00712375065648583
0.00022062771448541 -0.0801295490245941 0.00596018011924635
0.000386787966107203 -0.0847421776060899 0.00486007315381285
0.000539628513857339 -0.0904098051637302 0.00395771725267538
0.000675052246414928 -0.0970629403763657 0.00328274250102138
0.000794431117699967 -0.104595050087623 0.0028187104693141
0.000900464016348933 -0.112850434058331 0.00253911359296996
0.000995335079518241 -0.121620732701872 0.00242265837024545
0.00108014400215611 -0.130653110469475 0.00245800648275111
0.00115488074904407 -0.139669467478813 0.0026448158049018
0.0012185703976294 -0.148392415919773 0.00299421211280764
0.00126942552812568 -0.156571373250136 0.00352942209137369
0.00130499020058988 -0.164002121316594 0.0042852824281035
0.00132243709668463 -0.170535523357315 0.00530236774289059
0.00131944749970393 -0.176074569142869 0.00660655043925506
0.0012963549016839 -0.180562368975862 0.00816032280736387
0.00125977236843056 -0.183968016502354 0.00978348944754714
0.00122526611954749 -0.186284878474256 0.0111004359093083
0.000266635697189382 -0.0363649784315832 0.00240710351497943
0.000247805622465703 -0.0404675306767515 0.00313301104572902
0.000194183246240758 -0.0443280426281157 0.00406411253218213
9.98584279574249E-5 -0.0478606428855155 0.00525963207133115
-4.18767900550557E-5 -0.0510034312235 0.00678420196683391
-0.000235066230145655 -0.0537134547268665 0.00868047834639629
-0.000473178223095071 -0.0559537652951621 0.0109018396107936
-0.000726251463570781 -0.0576777899545857 0.0132004099662327
-0.000932312123757042 -0.0588296254500495 0.0150509596594216
-0.000946302174912055 -0.0700835364538268 0.0159302513133636
-0.000849641847989966 -0.0713790851639158 0.0151932435027889
-0.000617596197214056 -0.0741057198396053 0.0133999407443815
-0.000325730340811545 -0.078139734865098 0.011191916283319
-3.73303413428521E-5 -0.0832932570524552 0.00909903102588697
0.000216789243146762 -0.0894241011107463 0.00737601696695657
0.000429734324424651 -0.0964326282846482 0.00607939457069193
0.000605353829259498 -0.104219095437694 0.00517962231355686
0.000750090975244011 -0.112649542694726 0.00462870088517068
0.000869488046134875 -0.12154174504402 0.00438838022405675
0.000967145571324929 -0.130669663238638 0.00443874791573967
0.00104466747063489 -0.139781765137702 0.00478004462879968
0.00110188703333319 -0.148626944894868 0.00543347273856343
0.00113710462666737 -0.156980527255172 0.00644234027891919
0.00114733899355017 -0.164662874531871 0.00787120726574293
0.00112888894696277 -0.171544412258578 0.0097951842833768
0.00107894950051046 -0.177532581713095 0.0122620706566166
0.000999474713511248 -0.182539256905431 0.0152006557912473
0.000903707856179292 -0.186439745737534 0.0182685007289571
0.000820976103202674 -0.189069228463274 0.0207481339822967
0.000127541481521685 -0.0364115291766115 0.00341851145245536
9.67536560636105E-5 -0.0405698583700314 0.00444056308183896
1.80026376623314E-5 -0.0445161572882909 0.00574224959499071
-0.000116520986231311 -0.0481782360257796 0.007400799803517
-0.000315896347456539 -0.0515041199290407 0.00949933763202986
-0.00058575013439963 -0.0544516040216242 0.0120902319928204
-0.000917214801892302 -0.0569645037756618 0.0151049125451083
-0.00126868989987406 -0.0589433141381108 0.0182032540485714
-0.00155350956665524 -0.0602463419100941 0.0206728858681915
-0.00162953160720428 -0.0664818782649446 0.0217433067935899
-0.00150335220785531 -0.0677566230543148 0.0207884697194072
-0.00118831170472605 -0.0709096005026948 0.0184016120035157
-0.00079108303904615 -0.075613627739791 0.0154394152825894
-0.000401539257554205 -0.0814634953748006 0.0126171271994483
-6.31868116103839E-5 -0.0881905393338255 0.0102818301062765
0.000214542872788046 -0.0956546797778215 0.00851475366692882
0.000437413308465218 -0.103763654840835 0.00728164018802432
0.000614870227987246 -0.112410890617866 0.00652277454264655
0.000755192473378637 -0.121448106930517 0.00619034015315714
0.00086408035894405 -0.130684878854456 0.0062598197528009
0.000944588764708857 -0.139905442173351 0.00673245373758742
0.000997431700990353 -0.148894022491276 0.0076362891902102
0.00102130436366886 -0.157460211523701 0.00902755501891723
0.001013230010814 -0.165455995192686 0.0109893166633897
0.000969307174802141 -0.172776003348498 0.01361710139475
0.000886792133885081 -0.17933188870641 0.0169684667356352
0.000769039361444029 -0.1849939613061 0.0209403672719253
0.000633876749758806 -0.18951613927723 0.025064444112955
0.000519716364648852 -0.192530748080793 0.0283690237017239
7.71486633124789E-6 -0.0364419121164433 0.00429245192707256
-3.08414558567122E-5 -0.0406394072009536 0.00554258982385587
-0.000126327093562002 -0.0446546391283593 0.00711518929006211
-0.000287307687115356 -0.048427695778747 0.00909173880910401
-0.000523591663349033 -0.0519140439091266 0.0115560474054472
-0.000840637614392678 -0.0550692945703322 0.0145520206730479
-0.00122673113965385 -0.0578168569322618 0.0179837812299151
-0.00163234437122542 -0.0600092434802425 0.0214550124823723
-0.00195736075734259 -0.0614337134854604 0.0241740740666857
-0.00207369849648843 -0.0635119054178564 0.0252539080182672
-0.00193490639340538 -0.0647531851773744 0.024238048652015
-0.00157625195157529 -0.0682413947415651 0.021626266369904
-0.00111895687380116 -0.0734977100768347 0.0183374103222273
-0.000667932396371231 -0.0799389030737413 0.0151628354624788
-0.000275608203849193 -0.0871819277495642 0.0125041634578971
4.54401722751297E-5 -0.0950422902343143 0.0104709031921481
0.00030098805475071 -0.103426983660831 0.00904035391326183
0.000501671498598507 -0.11224997402063 0.00815661237797608
0.00065717002468856 -0.121392905762679 0.00777303786513779
0.00077443651849541 -0.130699359355221 0.00786600191943242
0.000857544070003953 -0.139989040142389 0.00843827153510529
0.000908007105517405 -0.149081208881761 0.0095202715432139
0.000925160236053121 -0.157818139216964 0.0111711094796622
0.000906593294061317 -0.166079520290249 0.0134759297202158
0.00084903744477411 -0.173777601648103 0.0165281990401822
0.000750672104050591 -0.180820520809338 0.020371963821961
0.000616385429049577 -0.187033719590555 0.0248663598533396
0.000466400525838786 -0.192062191698672 0.02946727596003
0.000342033349292231 -0.195373907329896 0.0330962045567445
0.00070168849466694 -0.0325984408817852 -0.00303399050989186
0.000743197309816933 -0.0325477183955579 -0.00303770450726763
0.00079142203581699 -0.0324908614328682 -0.00303111243226226
0.000845357070352475 -0.0324292830478326 -0.00302450851281964
0.000903138518035812 -0.0323650328030929 -0.00302545180782245
0.00096206322082303 -0.0323005894221612 -0.00303657586053911
0.00101878504873681 -0.0322385402492329 -0.00305478850923312
0.00106969802770944 -0.0321812291456076 -0.00307213549393045
0.00111145244871616 -0.0321304651678709 -0.00307803662671634
0.000661930744491512 -0.0326174852488831 -0.00234307528047222
0.000695615307862722 -0.0325654380535393 -0.00234550545006263
0.000734796803469514 -0.0325071017247485 -0.00233980854962099
0.000778677865821352 -0.0324439534775141 -0.00233466676875883
0.000825765320726154 -0.032378103870649 -0.00233643867971003
0.000873874298755565 -0.0323120816924254 -0.00234730731753822
0.000920275725876494 -0.0322485076665065 -0.00236460954149837
0.00096200179289697 -0.0321897414696735 -0.00238157220755275
0.000996271305584014 -0.032137595455717 -0.00238921138713504
0.000619379269597134 -0.032638559103964 -0.00156056998720511
0.000643937482156155 -0.0325851039008945 -0.00156318485624446
0.000672484063706362 -0.0325251796810343 -0.00156031592483867
0.000704441799573215 -0.0324603509378285 -0.00155821925745985
0.000738736857123197 -0.0323928060539193 -0.0015614448055147
0.000773798795019041 -0.0323251316168166 -0.00157149947068455
0.000807662019352869 -0.0322599809692647 -0.00158637129646439
0.000838181667737514 -0.0321997234286839 -0.00160107264777718
0.000863339370205564 -0.0321461669505815 -0.00160902601169401
0.000574575835228002 -0.0326617470954822 -0.000709995044309847
0.000589062621937374 -0.0326067370140804 -0.000713922866019419
0.000605834852614937 -0.0325450044035894 -0.000715372423119005
0.000624540301071412 -0.0324782317500777 -0.000717547502783291
0.000644552079460174 -0.0324087171915535 -0.000722723510096899
0.000664974628702418 -0.0323391332393145 -0.000731557457375982
0.000684704530176562 -0.0322721875194819 -0.00074285535479696
0.000702551371944758 -0.0322102733691987 -0.000753874390408564
0.000717404443518416 -0.032155201409338 -0.000761064001586552
0.000528477072289157 -0.0326866773813685 0.000176981927710844
0.000532398339622641 -0.0326299576442044 0.000171127358490566
0.000536808935064935 -0.0325661599500029 0.000164542207792208
0.00054158221192053 -0.0324971161981656 0.000157415562913907
0.000546549 -0.0324252733753079 0.00015
0.00055151578807947 -0.0323534305524502 0.000142584437086093
0.000556289064935065 -0.0322843868006129 0.000135457792207793
0.000560699660377358 -0.0322205891064114 0.000128872641509434
0.000564620927710843 -0.0321638693692473 0.000123018072289157
0.000482320369274826 -0.032712445749837 0.00106404540599436
0.000475682286599212 -0.0326539271192146 0.00105625487821454
0.000467744152081508 -0.0325878776710863 0.00104451486595607
0.000458603304936272 -0.0325163017688082 0.00103240971025797
0.000448545920539827 -0.0324418295590623 0.0010227235100969
0.000438077765289898 -0.0323674267430311 0.0010166952499013
0.000427912465126993 -0.0322960239070741 0.0010137129119599
0.000418899719518657 -0.0322301559987379 0.00101154237821344
0.000411895351978756 -0.0321716992465743 0.00100701363990204
0.000437375700444414 -0.0327376766475999 0.00191483121615765
0.00042067969449935 -0.0326774078286254 0.00190570757595218
0.00040099837098988 -0.0326090992443438 0.00188960254956967
0.000378649887239029 -0.0325349335737516 0.00187315898184366
0.000354361142876803 -0.0324577406966965 0.0018614448055147
0.000329305518168714 -0.032380677372835 0.00185655974630074
0.000305051545950888 -0.0323068336065887 0.00185708467173339
0.00028339715560698 -0.0322388583430278 0.00185854992806946
0.000266101659752888 -0.0321786907990862 0.00185476478274146
0.000394687985108488 -0.0327607211722063 0.00269753992047222
0.00036887291012093 -0.0326989390172977 0.00268822070891821
0.00033858563636037 -0.0326286235908027 0.00266924446967337
0.000304359359788405 -0.0325521187959879 0.00264968780534419
0.000267332679273846 -0.0324724428799668 0.00263643867971003
0.000229284475634679 -0.0323929395353042 0.00263228628095285
0.000192537834293622 -0.0323168605191738 0.00263517362144599
0.000159705989119379 -0.0322469749607211 0.00263885694869716
0.000133305964815986 -0.0321852916244252 0.00263474674713504
0.000354917787648258 -0.0327799455848513 0.00338847373405975
0.000321261262983067 -0.0327170874823157 0.00338046402726763
0.000281930021913166 -0.0326453033489486 0.00336059371369677
0.000237661591970212 -0.0325670577370138 0.00333955726494691
0.000189959481964188 -0.0324855139475229 0.00332545180782245
0.000141114116854283 -0.032404163294224 0.00332152710841184
9.40588935330318E-5 -0.0323263884701819 0.00332530722779861
5.20393994905646E-5 -0.0322550584777504 0.00332937597393045
1.81372689686416E-5 -0.0321922418667242 0.00332355340254844
0.00222239193993879 -0.196196688788817 -0.0316826144841834
0.00215945462003502 -0.193524937734236 -0.0280404810327968
0.00211600936128188 -0.190285558555949 -0.0237475303373517
0.0021437144358064 -0.187661520472755 -0.0204820909038711
0.00227247232864629 -0.186462393763339 -0.0193317287889775
0.00250547569607027 -0.18697988990738 -0.0206453656589645
0.00281573719632999 -0.188986752614098 -0.0240620367917783
0.00314033277629703 -0.191739873635571 -0.0284789826009781
0.00338844910272574 -0.194111071124843 -0.0322014585640261
0.00210894783966235 -0.193588028155871 -0.0269567770961095
0.00205344793936214 -0.191474608999534 -0.0236462832612599
0.00201446328013292 -0.188942606796147 -0.0198573715360723
0.00203623900349419 -0.186890369591394 -0.0170275035542924
0.00214359821185091 -0.185930981861422 -0.0160389022237383
0.00233956570978882 -0.186290071488239 -0.017166322311869
0.00260347385138219 -0.187797928291668 -0.0201255453152126
0.0028853703492529 -0.189895757247929 -0.0240225433454489
0.00310883206409838 -0.191728118046007 -0.0274065063926016
0.00191238599264138 -0.190539993414432 -0.0193813008156216
0.00187725286486706 -0.189114087040355 -0.0169163161273922
0.00185575966555944 -0.187388582191644 -0.0141693861461393
0.00187924439274683 -0.185957579772148 -0.0121480422870377
0.00196442705775481 -0.185252915957387 -0.0114499097093706
0.00211245392142395 -0.185445074859476 -0.0122581174945068
0.0023084476395106 -0.186412935346251 -0.0143818017665957
0.00251826924003323 -0.187766812288035 -0.0172148703051562
0.00268908934007378 -0.188940130455174 -0.0197409585365046
0.00164680167969652 -0.188282615565382 -0.00983355431401726
0.00164016697992115 -0.187385475206544 -0.00854178862096717
0.00164495721477972 -0.1862504708099 -0.00712933321758631
0.00167722361239207 -0.185262294377056 -0.00610360186193672
0.00174427990074615 -0.184736785642026 -0.00576010344961362
0.00184438635091399 -0.184810718420816 -0.00618794921660551
0.00196735632387699 -0.185392801692807 -0.00729115582340486
0.00209410140704746 -0.186201325346617 -0.00876814428145024
0.0021972262696861 -0.186867911686783 -0.0101067475690761
0.00133814847568318 -0.187630547685151 0.000678255502420476
0.00136382675892312 -0.186905940256529 0.000659809138793069
0.00140013139182975 -0.185958466128607 0.000634272080939501
0.00144712908399612 -0.185108317213788 0.000603343972305181
0.001502272075 -0.18463685 0.000570000000000001
0.00156048168611504 -0.184670996864687 0.000537787480226249
0.00161540755664273 -0.185128019510359 0.000509784532567654
0.00166128173799995 -0.185758340559498 0.000487778231516887
0.00169436785673115 -0.186255112297395 0.000472065044453636
0.00101735994621247 -0.188840941918914 0.0112066462780749
0.00107624955033974 -0.187869950603588 0.00987532259303404
0.00114712222706489 -0.18665222710623 0.00840770414332955
0.00121371392624022 -0.185599317327231 0.00731564183752185
0.00126333086936501 -0.185042528436449 0.00690123490214505
0.00128739998267273 -0.185123257466473 0.00726094018784309
0.00128297296762093 -0.18574566211836 0.00830507872190041
0.00125633063003372 -0.186613968747899 0.00973592139400793
0.00122521545128867 -0.187336352784486 0.0110422553639849
0.000718728894594999 -0.191609949703999 0.0207993059639836
0.000808148156589574 -0.190043578065675 0.0182878177807932
0.000913394568659978 -0.188157703608692 0.0154746445829127
0.00100202462951793 -0.186599953939561 0.0133746658144315
0.00105111189071767 -0.185833569681578 0.0125939663228777
0.00104868578965382 -0.186038553156112 0.0133237877913518
0.000995149518348208 -0.187084736779461 0.0153800323059849
0.000908108531154874 -0.188554187948424 0.0181612570805938
0.000824600229759172 -0.189833752981804 0.020653026884013
0.00047884918852481 -0.19506988336842 0.0284332312561305
0.000590214303787044 -0.19276709569921 0.0250679803060736
0.000722943545240613 -0.190012462062041 0.0211984927908496
0.000830785247598382 -0.187781204461966 0.0182735006234528
0.000881510285072168 -0.186733298954605 0.0171864895940482
0.000860258606460683 -0.187109074363049 0.0182216363273331
0.00077089811588901 -0.188725668192632 0.021102312489274
0.00064122369870435 -0.190982777971228 0.0249403104419089
0.000523507490508535 -0.192958306193028 0.0282879200822541
0.000328650793383793 -0.197939997721718 0.0332084397553577
0.000447348476326162 -0.195058127778857 0.029505707464507
0.000592081038338788 -0.191563327545075 0.0251203842192572
0.000709110519828302 -0.188728963698316 0.0217452643679633
0.000760044003768038 -0.187423266219208 0.0204820493358516
0.000728302695178787 -0.187957447877113 0.0216907919538387
0.000620976861118674 -0.190088187840287 0.025019256405743
0.000473000710135866 -0.193021396614663 0.0293716240189414
0.00034405000704528 -0.195550625611727 0.0330568949897158
0.00124732240269876 -0.0277574857143076 -0.00277581950829081
0.00119251187957936 -0.027829371828679 -0.00278588064670707
0.00112536815870599 -0.0279241567379625 -0.00278807577172046
0.00105052484465963 -0.0280156643806432 -0.00278584932032755
0.000972922456006616 -0.0280835823730368 -0.00278179569403813
0.000897093152130207 -0.0281190807746883 -0.00277698326419266
0.000826670480564528 -0.0281271053646163 -0.00277065769942842
0.000764159153182249 -0.0281247541988149 -0.0027604824778695
0.000710920223917004 -0.0281360887716977 -0.00274317919352427
0.00134652267905349 -0.023459999266819 -0.00206815301255231
0.00127699705305817 -0.023573081492441 -0.00208498028787665
0.00119079703034015 -0.0237263585412827 -0.00209794198697592
0.00109488989951293 -0.0238644630016981 -0.00210524879684979
0.0009964153498287 -0.0239452649106734 -0.00210557245361763
0.000901588463411814 -0.0239520007190946 -0.00209851255477216
0.000815115251656774 -0.0238979579264363 -0.00208471277043639
0.000740040163784233 -0.0238226223122436 -0.00206568274252436
0.000677844976094249 -0.0237800206567449 -0.00204329632130626
0.00151168226716252 -0.0193088987882286 -0.00150715393980859
0.00141855548698252 -0.0194974950108385 -0.00152915285818924
0.00130130797221644 -0.0197449400060512 -0.00155046948267131
0.00117126796553596 -0.019956966854737 -0.00156520917479953
0.00103953461443595 -0.0200621567980751 -0.00156895478964682
0.000915162258301356 -0.0200328681260633 -0.00156015892146013
0.00080449117056604 -0.0198930830343447 -0.00154058152781473
0.000711234378943561 -0.0197117560636943 -0.00151477610223273
0.000636833530537903 -0.0195825097403442 -0.00148865722414729
0.00175389789124476 -0.0153617871565728 -0.00106594260337
0.00162581276440268 -0.0156739323137606 -0.00109376142531942
0.00146186676148208 -0.0160666829196032 -0.00112357542858704
0.00128089369645478 -0.0163916009653336 -0.00114563008197883
0.00110049920723691 -0.0165365491003111 -0.00115260593499602
0.000934041138376161 -0.0164586788816782 -0.00114189509637064
0.000790042785706532 -0.0161963598823036 -0.00111631917908264
0.000672878030498313 -0.0158591147524133 -0.00108331289997435
0.000583612196182142 -0.0155955603120268 -0.00105259662955556
0.00208497335735198 -0.0116609205785037 -0.000721980992990713
0.00190769007679648 -0.0121539387439593 -0.000757089030944887
0.00167681146006756 -0.0127555562170082 -0.000796640149952429
0.00142352526408413 -0.0132420267293322 -0.000826778124013638
0.00117556901124322 -0.0134453498444847 -0.000837144888322966
0.000952364499027369 -0.0133019619657799 -0.000824050804487819
0.000765045974342236 -0.0128693458507432 -0.000791425711504789
0.000618442837130664 -0.0123124211698062 -0.00074973993038626
0.000512711416900621 -0.0118563198321466 -0.00071276658512654
0.00251061570302576 -0.00825160518077052 -0.000457430152700501
0.00226798134087236 -0.00898215236959447 -0.000501006084846371
0.00194608846597606 -0.00985934878163801 -0.000551445650969434
0.00159542366984917 -0.010558838818605 -0.000590412400148016
0.00125859748852634 -0.0108399096999027 -0.000604339680834815
0.000962933683206031 -0.0106125325592191 -0.000588439892106814
0.000722313260584463 -0.00995807589400189 -0.00054778526395473
0.000541621055191503 -0.00911338171464823 -0.000496064376187401
0.000419461615266821 -0.00840607852623353 -0.000451483267936142
0.00301484894581809 -0.00522166335312272 -0.000260008317336701
0.00269289180445638 -0.00622536768763121 -0.000311856545023554
0.00225713009944206 -0.00742563154253159 -0.000372969309865828
0.00178561684518976 -0.00837522846104279 -0.000420489903426025
0.00134092291724949 -0.00874786246175629 -0.000437781647996578
0.000959669949888051 -0.00842324367340476 -0.000419066166987395
0.000658193248321882 -0.00750938520395107 -0.000370457747784983
0.000440985282898747 -0.00632762375427321 -0.000308731083390725
0.000304580707953306 -0.00533123856376311 -0.000256566970564884
0.00353509873069726 -0.00275128120011325 -0.000123432897018907
0.00313079915272425 -0.00401020037570902 -0.000180941764750631
0.00257221314382704 -0.00552161118676962 -0.000249735095505099
0.00197075898510719 -0.00671303404995568 -0.000303414383252211
0.00141204552715757 -0.00717420374510426 -0.000323106013773746
0.000942244401656883 -0.00675609513886148 -0.000302372685926255
0.000579570311065467 -0.00559123963410399 -0.000248028533015224
0.000327903641594448 -0.00408372452595103 -0.000179099275431438
0.000181563101575237 -0.00281555508689919 -0.000121770413328637
0.0039472990557849 -0.00111336135559055 -4.51355893681722E-5
0.00347933641698643 -0.00252652233630349 -0.000102969103200723
0.00282103404233948 -0.00423537867048968 -0.000172969921527429
0.00211311618509784 -0.00558216837642176 -0.000227742961644801
0.00146141784394076 -0.00610025163381963 -0.000247911782974881
0.000920274342790984 -0.00562157936120624 -0.00022694980373069
0.000509471831230156 -0.00429412886173835 -0.000171770171985419
0.00023244411690597 -0.00257741159789461 -0.000101903793832091
8.14769721882349E-5 -0.00114187609687416 -4.4517156017E-5
-0.000145432791422899 -0.027882425532328 0.00299351811265453
-0.000104754319175458 -0.0279756482429782 0.0030127977526277
-5.40704888716481E-5 -0.0280958792017087 0.00302541374763796
2.35666130129429E-6 -0.0282169428471433 0.00303433848937491
6.02184932123866E-5 -0.0283178704261103 0.00304163360153596
0.000115861127902208 -0.0283883518292606 0.00304787108274642
0.00016671893223451 -0.0284310242777274 0.00305192725480959
0.000211434081248921 -0.0284600828306043 0.00305127779394068
0.000249708716057485 -0.0284965780614065 0.00304263553470217
-0.000266694042532733 -0.0236330869522373 0.00225571915750694
-0.000217971493324125 -0.0237756339679249 0.00227997498567397
-0.000156582713207868 -0.0239652126442701 0.00230139737042706
-8.89798811203778E-5 -0.024146977842475 0.00231756840389151
-2.13078328316916E-5 -0.0242781685432455 0.00232653680007871
4.16974090665091E-5 -0.0243398086075012 0.00232743896997667
9.72231551196926E-5 -0.0243412483353634 0.00232073288992392
0.000144344927095951 -0.0243166615173458 0.00230805883709942
0.000183604210241134 -0.0243143362347613 0.00229167229895797
-0.000445340841746796 -0.019526023451053 0.0016638835721539
-0.000379988997384967 -0.0197527334328769 0.00169221951077833
-0.000296870989468772 -0.0200491361748198 0.00172087366712337
-0.000206603765775626 -0.0203224598810202 0.00174305005763536
-0.000118787133571647 -0.0205009090008683 0.00175350619098895
-4.01773408335721E-5 -0.0205537219805666 0.00175018440661728
2.58935133660097E-5 -0.0204985776150926 0.00173481005471395
7.9142535184031E-5 -0.020395392766722 0.00171240462008091
0.000121423832117048 -0.020327705943678 0.00168971253144023
-0.000689288279433792 -0.0156161002844626 0.00119212272610052
-0.000596220597670476 -0.0159748803644551 0.00122594663963323
-0.00047700196256977 -0.0164308951658218 0.00126285197169284
-0.000349466127811948 -0.0168389608895652 0.00129175447116569
-0.000228994293501055 -0.0170872981970512 0.00130417231605621
-0.000125507016047933 -0.0171289131896942 0.00129686168208306
-4.29770872557386E-5 -0.0169924673409547 0.00127275393431792
1.94840143306292E-5 -0.0167726286087949 0.001240156391913
6.58822175148856E-5 -0.0166008670914462 0.00121018678401337
-0.00100739022478932 -0.0119422059109047 0.000818654644005059
-0.000872577135016312 -0.0124892345916105 0.000860224752598952
-0.00069866099994023 -0.0131695766312505 0.000907527180272577
-0.000515358434500549 -0.0137656888249489 0.000944747957562908
-0.000347117329425038 -0.0141114745314949 0.000959872161050239
-0.000208352188931978 -0.014138237818666 0.000948371005845856
-0.000103537933882693 -0.0138890393812948 0.000914441794806581
-2.96713721005155E-5 -0.013505052393277 0.000869941081934704
2.06868565013651E-5 -0.0131829212424601 0.000830786761888534
-0.00140342791139787 -0.00854625647475806 0.000526332498996332
-0.00121076918664158 -0.009335742396312 0.000577568234076942
-0.000959969182983245 -0.0103073575316608 0.000637287438414906
-0.000699231018932736 -0.0111474333290823 0.000684337705936365
-0.000466316122953987 -0.0116198260729095 0.000702838350454108
-0.000281460962583703 -0.0116286970942337 0.000686891745096104
-0.000149131131068932 -0.0112348869178183 0.000642019579586549
-6.28773734810839E-5 -0.0106385548824054 0.00058394034928969
-1.01693323111946E-5 -0.0101213843159677 0.000533973250042205
-0.00186246758047296 -0.00551426415736328 0.000303851840453155
-0.00159768118363501 -0.00657825735818321 0.000365086339949146
-0.00124880203428926 -0.00788757665056074 0.000437656654050805
-0.000890256294422241 -0.0090116855780212 0.000494832619356277
-0.000577588696544973 -0.00963266755578161 0.000516890139234646
-0.000337775734994671 -0.00962433555875518 0.000496634704494622
-0.000174421994863679 -0.00906701678291445 0.000440831338714766
-7.62443002628714E-5 -0.00822813412350712 0.000369028150557273
-2.39893508632806E-5 -0.0074903770741752 0.000308178568167368
-0.0023292595742567 -0.00302902257792052 0.00014663223298368
-0.00198834998725814 -0.00434602099319972 0.000215303180640234
-0.00153263899209625 -0.00597863690424735 0.000297827494546651
-0.00106803577978783 -0.00737779360479642 0.000362852036991457
-0.000670428620228393 -0.00814594184606141 0.000387667212351777
-0.000373547172655996 -0.00812863751383873 0.000364144264242513
-0.00017937803960356 -0.00742341765561775 0.000299941999512486
-7.11359851791905E-5 -0.00636074594950066 0.000217581667948443
-2.21219446788824E-5 -0.00542253055891356 0.000148682593611189
-0.00269568595818525 -0.00137285219573715 5.45546623076347E-5
-0.00229548659661687 -0.00284049874516116 0.000124647935650669
-0.00175299044764378 -0.00467899215553066 0.000209836882794714
-0.00120153435700415 -0.0062596020929082 0.000277035387770647
-0.000734617900179741 -0.00713190076467697 0.000302547872869123
-0.000391584247428412 -0.00712279019506343 0.000278001851332027
-0.0001729984899851 -0.00633907948775016 0.000211297288331663
-5.75732783305084E-5 -0.00514957611661551 0.000125942508229075
-1.24544742034117E-5 -0.00409900609435591 5.53044378676015E-5
0.00118153072805448 -0.0277280202990084 -0.00229661630033105
0.00127873141031702 -0.0234384485077322 -0.00169578239606024
0.00144198669311013 -0.0192941477889632 -0.00122635960740375
0.00168367216882943 -0.0153526293663648 -0.000861628103658002
0.00201731056503587 -0.0116560946193544 -0.000580206748059515
0.00245040862422914 -0.00824980820198901 -0.0003656873460335
0.00296789944705162 -0.00522159724298472 -0.000206864810432979
0.00350551010521934 -0.00275180721172483 -9.77627545250883E-5
0.00393350514805714 -0.00111378267140789 -3.55948718503585E-5
0.00105144489947839 -0.027767136573985 -0.0017713913016352
0.00113004110409737 -0.0235280563998503 -0.00130108062199674
0.00126472161381235 -0.0194670826729946 -0.000938952580614117
0.00146663879982181 -0.0156554613655833 -0.000662162289986054
0.00174820238238803 -0.0121447142937754 -0.000452549696495894
0.0021170454435777 -0.00897946047347799 -0.000295993859717742
0.00256175882432217 -0.0062265475707981 -0.000182225398712999
0.00302830536771794 -0.00401293619177505 -0.000104611909058882
0.00340420545581352 -0.00252939112233944 -5.89133290448163E-5
0.000899640728131972 -0.027826066492844 -0.00118534832375404
0.000952768861879796 -0.0236561291712937 -0.000865428670433621
0.00104703533249539 -0.0196981383103701 -0.000622697073783457
0.0011907153518528 -0.0160389941341068 -0.000440384494118405
0.00139283132616369 -0.0127428195466158 -0.00030520427594717
0.00165874185979875 -0.0098575290700514 -0.00020669084192646
0.00197993306040664 -0.00743087388647517 -0.000136815249048734
0.00231739977705546 -0.00553056666564404 -8.96472886932183E-5
0.00259061929997052 -0.00424583672091306 -6.07303838828693E-5
0.000732013673023562 -0.0278793164877847 -0.000552739829915961
0.000754867146520877 -0.0237678926732203 -0.000396307914921468
0.000800556508432075 -0.0198936309106407 -0.000280067684376464
0.000873608334698604 -0.0163554872163065 -0.000194897714582321
0.0009786303437704 -0.0132276391750296 -0.000133572503210765
0.00111794199743203 -0.0105610999316448 -9.03575472453829E-5
0.00128633782655306 -0.0083894309864092 -6.07273714343801E-5
0.00146285644590816 -0.00673500752715987 -4.11350250335337E-5
0.00160566148409292 -0.00560870130036753 -2.87871116500662E-5
0.00055612316647104 -0.0279077170731335 0.00010517801013321
0.000546351160291268 -0.0238221428742542 9.16522777244707E-5
0.000539568085074437 -0.0199829872325719 7.81601657221002E-5
0.000536320123892861 -0.0164937099226103 6.53455241591116E-5
0.000536654829545454 -0.0134322819179831 5.37289772727273E-5
0.000540022180057725 -0.010850897224485 4.3695765559586E-5
0.000545255790932902 -0.00877775697919887 3.54983054604338E-5
0.000550698068735971 -0.00721817636343749 2.92608665359769E-5
0.000554518339862111 -0.00615366994381722 2.49794072690216E-5
0.000380377127909585 -0.0279038949144706 0.000762954153639679
0.000338174182997706 -0.0238031499734365 0.00057933677370756
0.000279315825853187 -0.0199393467569912 0.000435881616920564
0.000200520804093347 -0.0164114654251288 0.000324726828312143
9.74904813654481E-5 -0.013293787167831 0.000239660994629724
-3.2963859299211E-5 -0.0106374840749814 0.000175712058731397
-0.000187869649216408 -0.00847612781853273 0.000128903862525324
-0.000349891490187262 -0.00683150515798735 9.60772870998183E-5
-0.000481817084328748 -0.00571289451366575 7.46694925645156E-5
0.000213126909079412 -0.0278743109959404 0.00139521601868862
0.000141174912566172 -0.0237250375156715 0.00104775913513596
3.48048265070933E-5 -0.0197870180682094 0.000777199509762009
-0.00011260328750638 -0.0161470061102689 0.000567951343886889
-0.00030918635062735 -0.0128690568687075 0.000407668238738475
-0.000560544629854722 -0.0100010977673478 0.000286623632514727
-0.000860114111072054 -0.00759075778585361 0.000197454981525288
-0.00117334457916878 -0.00570497238736093 0.000134995829432726
-0.00142696167542365 -0.00443106696961343 9.56735922245047E-5
6.17788666350166E-5 -0.0278373643658216 0.00198092035608218
-3.49420891008246E-5 -0.0236276803220307 0.00148263950816673
-0.000180337166248248 -0.0195945657400973 0.00109190337259612
-0.000383375823809227 -0.0158086651462377 0.000786950021012401
-0.000654840093032593 -0.0123208654880439 0.000550465702790547
-0.0010017980560179 -0.00917521343819672 0.00036904215921341
-0.00141443188517046 -0.0064380977011241 0.000233233353607349
-0.00184424813966758 -0.00423611513747226 0.000137665053490612
-0.00218943971442463 -0.00275976466588184 7.98370583795869E-5
-6.79759210829577E-5 -0.0278180183744362 0.00250610150148174
-0.000182638051043544 -0.0235649890013561 0.00187696621726019
-0.00035535566268705 -0.0194545557263509 0.00137827650679397
-0.000595869593771315 -0.0155429664734102 0.000984306335459202
-0.000915454753004051 -0.0118709546899747 0.000674450429870413
-0.00132041951798285 -0.00848236508337569 0.000433017247384798
-0.00179709428635978 -0.00546417895420089 0.000249797469343957
-0.00228778633889882 -0.00299734607931738 0.000120522111736319
-0.00267626672244914 -0.0013580502993054 4.48504196750565E-5
0.000633463353577063 -0.0282004959295895 -0.00225576258235148
0.00059378898460506 -0.0238481186076262 -0.00166454338105951
0.000546848351478157 -0.0196539774650463 -0.00120305015878737
0.000490193510519666 -0.0156686941230792 -0.000844780238914238
0.000420775945115354 -0.0119275710530766 -0.000568562370991894
0.000336453221851801 -0.0084699699176159 -0.000358168016324608
0.000239207413840126 -0.0053813237669255 -0.000202512599455685
0.000140089866217355 -0.00284723158550234 -9.56602920812767E-5
6.20577364521283E-5 -0.00115667799330591 -3.48129133844218E-5
0.000597625967371774 -0.0282630380759715 -0.00172860508132398
0.000557010759560932 -0.0239705759581378 -0.00126834726501712
0.000511582547806842 -0.0198699237564739 -0.00091445996405052
0.000460033256637065 -0.0160253299706307 -0.000644316281353523
0.000400705795146945 -0.0124807902733728 -0.000439980880577855
0.000332649924567822 -0.00927391067276351 -0.00028753830132387
0.000257735984434194 -0.00646778341133231 -0.000176878097048928
0.000183801794003885 -0.00419363038167848 -0.000101461148281815
0.000126397234713735 -0.00265814567717393 -5.70929165610081E-5
0.000559473082613468 -0.0283486735703846 -0.00114045997047909
0.000517357625882735 -0.0241381330550349 -0.000831074535145283
0.000472815354590175 -0.0201552011409552 -0.000596907370453375
0.000425644110643141 -0.0164802489378564 -0.000421418551276691
0.000375571325029356 -0.0131698656132863 -0.000291566769970686
0.000322888707455941 -0.0102643356583149 -0.000197121458054552
0.000269505325104678 -0.0078062040686582 -0.000130256075259466
0.000220275898138002 -0.0058649041509904 -8.51968679012989E-5
0.00018344305901003 -0.00454205404765558 -5.76068814152091E-5
0.000519072685521916 -0.028432128707361 -0.00050559892845743
0.00047443439929373 -0.0242958285881331 -0.000360280924588208
0.000429242666672543 -0.0204159812500923 -0.000252990480745339
0.000384054206470866 -0.0168861743461146 -0.000174867453517091
0.000339515583161371 -0.0137738636228978 -0.000118963841554635
0.000296666523572506 -0.01112248181332 -7.98142449018467E-5
0.000257283304682218 -0.00895880143289324 -5.31374101564414E-5
0.000224100112056315 -0.00730238358567055 -3.55979360346164E-5
0.000200557070115585 -0.00616828694044869 -2.4583908524558E-5
0.000477017782747963 -0.0284937357260136 0.00015465989736462
0.00042875635670574 -0.0244012905796647 0.000129312068736617
0.000381179395789864 -0.0205800785663715 0.000106391235620031
0.000335184789842996 -0.017130137374752 8.62208569010726E-5
0.000291796852272727 -0.0141245424579966 6.89982954545455E-5
0.000252259185514627 -0.0116088385483272 5.48029040597074E-5
0.000218078429771615 -0.00960277303833903 4.36101857776341E-5
0.000190918838193206 -0.00810196922772818 3.53003320420547E-5
0.000172281603898906 -0.00707848245467937 2.96566826252202E-5
0.000434372299538271 -0.0285246997221192 0.000814761592334832
0.00038172016205856 -0.024436378935979 0.000618498088048344
0.000330534116270315 -0.020617057924663 0.00046504291619421
0.000281778345708239 -0.0171650269387213 0.000346129314686551
0.000236542731381753 -0.0141526253729686 0.000255165385042984
0.000196020709833441 -0.0116264359811939 0.000186836892193471
0.000161503283642027 -0.00961013303338877 0.000136872172502977
0.000134355366543035 -0.00810666403663454 0.000101864906023836
0.000115870453576503 -0.00709625727111767 7.90460013372922E-5
0.000392446362808527 -0.0285291145228459 0.00144919980684317
0.000335251323580045 -0.0244114777053525 0.00108821957338162
0.000280166153087058 -0.0205453793107737 0.000807037645826098
0.000228174322373544 -0.0170201561264511 0.000589562999849286
0.00018044220002118 -0.0139017760516872 0.000423005920801322
0.000138215475108377 -0.0112367066294049 0.000297264770543574
0.000102775044171738 -0.00906177443897088 0.000204677277897673
7.543532716802E-5 -0.00741446217674334 0.000139854192700606
5.7416252383866E-5 -0.00632862143732678 9.90577506871031E-5
0.00035250106134989 -0.0285223180852983 0.00203678844886881
0.000291300876056748 -0.0243616866099365 0.00152415917121951
0.000232976408354207 -0.0204258051045658 0.00112220434250578
0.0001786579789115 -0.0167910995569723 0.000808557256579634
0.000129816322307939 -0.0135142768434609 0.00056540174748571
8.80585238135738E-5 -0.0106412467785219 0.000378928124161061
5.48886798713324E-5 -0.00822695424034022 0.000239397004246718
3.13577998271173E-5 -0.00635801013343463 0.000141251812256694
1.75576828424E-5 -0.00514670733057956 8.18867340731687E-5
0.000315500390701758 -0.0285260434767057 0.00256343232674241
0.000251395478977607 -0.0243358869938482 0.0019193016824659
0.000191119406169437 -0.0203424569429434 0.00140891819903539
0.000136107939930213 -0.0166100248816542 0.00100587228430137
8.83496488174759E-5 -0.0131877472016094 0.000689012516957336
5.0037746485429E-5 -0.0101231812947492 0.000442230443375205
2.29601479031882E-5 -0.0074904431843132 0.000255035061263646
7.46668079903716E-6 -0.00542200454730197 0.00012301245111737
1.33943352434654E-6 -0.00409858477853858 4.57637203497878E-5
0.00391439754368785 -0.00104017073190077 -3.02197297994496E-5
0.00341289665905323 -0.00234790631356385 -6.84884802275343E-5
0.00272791989121127 -0.00391353083726886 -0.000114227190256412
0.00201475048666257 -0.0051391665541661 -0.000149598338214517
0.00137742760712645 -0.00561423814043538 -0.000162479887970794
0.000860757116198539 -0.00519052681494128 -0.000148911985138297
0.000474857998373075 -0.00399028506655088 -0.000113183454043165
0.000216596788383892 -0.00241452712587727 -6.75547442122198E-5
7.59715630840242E-5 -0.00107743919446875 -2.96737731494893E-5
0.00336735430333785 -0.00235019665058086 -4.93802836695144E-5
0.00291543729214795 -0.00339283141226263 -7.14912907880857E-5
0.00232613127824185 -0.00462672407696487 -9.73957048937796E-5
0.00173137734687823 -0.00559414807433922 -0.00011720544745004
0.00121109980281514 -0.00598101591129172 -0.000124273030716476
0.000794875152848003 -0.00566981294560411 -0.000116443564682343
0.000484939110025921 -0.00474962242564866 -9.61358521087059E-5
0.000274072899926147 -0.00352305516607249 -7.01124881748619E-5
0.000152048379418123 -0.00246357441161389 -4.81190387409975E-5
0.00254452852111868 -0.00392366950041623 -4.99015211173137E-5
0.00220263860706173 -0.00463390781200801 -5.89925491035331E-5
0.00177350940936166 -0.00548296564912408 -6.95504651006873E-5
0.00134826745782345 -0.00616669839683758 -7.75834894877173E-5
0.000979027999869589 -0.00646324479606411 -8.02851278097821E-5
0.000683961677378572 -0.00628277044379665 -7.67304545952754E-5
0.000463041014144775 -0.00568637332848685 -6.80315001664021E-5
0.000309440675621908 -0.00488281054067339 -5.70744774361232E-5
0.000214491176203898 -0.00418797038035299 -4.77552617070546E-5
0.00156771695585147 -0.00516601477072722 -2.22071092008757E-5
0.0013752053946864 -0.00561614335085666 -2.40307776274192E-5
0.00113764493004996 -0.00617997014718943 -2.61336952562742E-5
0.00090052391581866 -0.00666377846176455 -2.76441294314209E-5
0.000690228251703242 -0.00690839783617622 -2.79032790296608E-5
0.000517450620708496 -0.00684281480810119 -2.67121397983627E-5
0.000384149638825625 -0.00651012958716706 -2.43988259088116E-5
0.00028809559748594 -0.00605419914501497 -2.16719082150604E-5
0.000225060403163163 -0.00567282305281551 -1.93373076404313E-5
0.000537809699746348 -0.00566854987829973 2.32480651140815E-5
0.000510467669475594 -0.00602675686076333 2.49276864769303E-5
0.000472013786621879 -0.00649639125363376 2.70518311755648E-5
0.000423235497307569 -0.00692582897508224 2.894707450274E-5
0.0003674038 -0.00718029207555421 2.99999999999999E-5
0.000309882983608816 -0.00719672602604664 2.99214729658284E-5
0.000256737789727603 -0.00701078346307057 2.88915553172788E-5
0.000213012922427314 -0.006737635443769 2.74849432131144E-5
0.000181590596638049 -0.00652085083247346 2.64313880118047E-5
-0.000475117560281877 -0.00528286212898669 6.49824613003214E-5
-0.00033929769885396 -0.005747784640154 7.09706297101794E-5
-0.0001828891655063 -0.00634151474146906 7.82179804422577E-5
-4.90473037886772E-5 -0.00688050608251214 8.41783407889834E-5
4.28902292131434E-5 -0.00721415716495266 8.67718264982295E-5
9.31773841386575E-5 -0.00727568429601098 8.51469816180903E-5
0.000112356633280519 -0.00710324246796761 8.00207164840332E-5
0.000113797085704264 -0.00681972505932196 7.34209715077471E-5
0.000109259488434068 -0.00658279851399293 6.79621965746208E-5
-0.00140581069991202 -0.00412791879853506 8.26353728472702E-5
-0.00112562429615697 -0.00486556603177629 9.80550376825974E-5
-0.00078901362777643 -0.00577409181168105 0.000116226909356234
-0.000482701204059247 -0.00656887388483948 0.000130549609128722
-0.000250276423520107 -0.00704392992064022 0.000136228514302626
-9.82658944929745E-5 -0.00711651421831947 0.000131470510715476
-1.29877401669495E-5 -0.00683624781314445 0.000117866079748317
2.65974621235155E-5 -0.00636811160519561 0.000100123560018454
4.16526489861593E-5 -0.00594740573241017 8.49479141067477E-5
-0.00216839939356953 -0.00259717311637713 6.91113955562749E-5
-0.00178355044721842 -0.00367682010762734 0.000100298820148704
-0.00130112273056098 -0.00499875414680101 0.00013711641235518
-0.000846077254216023 -0.00613217083956486 0.000165742286177462
-0.000487619210912227 -0.00678337639324061 0.000176685660406521
-0.000242374866487562 -0.0068417203358394 0.000166595641330367
-9.68952090566116E-5 -0.00637529534023875 0.000138526715808701
-2.51171738666257E-5 -0.00561870216240745 0.000101840817540497
2.36481495254429E-6 -0.00492878738315844 7.05200771807828E-5
-0.00266444782581451 -0.00129371642924383 3.90003541886112E-5
-0.0022329478025353 -0.00264622040211375 8.85471010274971E-5
-0.0016661775220812 -0.00432560411233717 0.00014806356518338
-0.00111081427331725 -0.00576515836686093 0.000194557138798187
-0.000658027310742054 -0.00657516257033781 0.00021215934109668
-0.000337774042377032 -0.00660964673055404 0.000195353425588262
-0.00014173872110643 -0.00595754439555754 0.000149273583245846
-4.3177540762834E-5 -0.00493107772017545 8.96282737388027E-5
-7.47730543268348E-6 -0.00400692824899767 3.96314518963398E-5
0.000727651898822529 -0.0370563026717755 -0.00398718210874661
0.000767178519642079 -0.0369689709754023 -0.00396834754298562
0.000813323587835763 -0.0368554896040027 -0.00393344129896575
0.00086526818802844 -0.0367416904908025 -0.00390460870475962
0.000921300473596245 -0.0366481158019795 -0.00389822872937074
0.000978792825755352 -0.0365846381754751 -0.00392011759647004
0.0010343664097054 -0.0365482348172279 -0.00396379959960509
0.00108427285194575 -0.0365244274295704 -0.0040123190648042
0.00112495524389639 -0.0364919960804049 -0.00404310226158311
0.000748050836900184 -0.0414303390892704 -0.00518561054859906
0.000788748654850066 -0.0412887190688839 -0.00512022470724086
0.000837467319635943 -0.0410997344021008 -0.0050303751430241
0.000893607459425291 -0.0409178973543522 -0.00495900503076972
0.000955470680912647 -0.040785713332468 -0.00493798638166799
0.0010201132445209 -0.040722087128437 -0.00497872855145229
0.00108340755673978 -0.0407178128098976 -0.0050688618007266
0.00114044053722008 -0.0407390579483904 -0.00517567629570664
0.0011862992180553 -0.0407379702189082 -0.0052556155508305
0.000760034169170683 -0.0456414874831456 -0.00668803515588363
0.000804905399010816 -0.0454129412974302 -0.00653429794202286
0.000860877353210282 -0.0451136270735157 -0.00634304840543539
0.000927663331816856 -0.0448354756198891 -0.00619368747032067
0.00100352243866939 -0.0446498154702486 -0.00614514327880778
0.00108486063101615 -0.0445875511713174 -0.0062185584474781
0.0011660278536948 -0.0446317473256328 -0.00639138624997063
0.00123968015866486 -0.0447236722104054 -0.00660348741651198
0.00129800830493059 -0.0447810879160938 -0.00677460823306448
0.000759502640513533 -0.0496325459516122 -0.00856500955205759
0.000811302629017725 -0.0492716114592658 -0.00825546060320224
0.000879293875152992 -0.0488121387819231 -0.00788698968728733
0.000963682367337387 -0.0483972773844117 -0.00760170305647821
0.00106277271635954 -0.0481376072423583 -0.00750449097768856
0.00117210996421943 -0.0480803276560216 -0.00763285832379886
0.00128366645279812 -0.0481983327636256 -0.00794724944525138
0.00138594072486095 -0.0483994042931169 -0.00834103036020886
0.00146589843913099 -0.0485546174199452 -0.0086709310171657
0.000741604286195713 -0.0533668932333369 -0.0108890595399441
0.000802698567772903 -0.0528193109760751 -0.0103235045798175
0.000887510113269603 -0.0521376488662929 -0.00966325075346109
0.000996979843803926 -0.0515355056576037 -0.00915455354027879
0.00112974788486358 -0.0511763376178869 -0.00897676426189884
0.00128054391478947 -0.0511289115231787 -0.00919335413145876
0.00143810457365144 -0.0513529219975223 -0.00973787953086187
0.00158441134475803 -0.051711547671063 -0.0104284913818426
0.00169761014695194 -0.052012251936201 -0.0110173620553946
0.000702099222348745 -0.0568104857164029 -0.0136986961101042
0.00077423288333418 -0.0560217586568578 -0.0127453244256936
0.00088039256567059 -0.0550519908479208 -0.0116392565551494
0.00102243705867414 -0.0542085932974215 -0.0107900758747516
0.00119983804538891 -0.0537226388874315 -0.0104892446484408
0.00140698937852122 -0.0536895445471872 -0.0108380152841674
0.00162877621754754 -0.0540530248676339 -0.0117309096189177
0.00183770773580116 -0.0546200717894065 -0.0128729277076512
0.00199788827119084 -0.0551145984527965 -0.0138523708031878
0.000640565813455425 -0.0598899094768443 -0.0169095967117717
0.000724491506653388 -0.0588235271162419 -0.0154306343655296
0.000855395819997212 -0.0575167954619893 -0.0137128836256923
0.00103596245226043 -0.0563921662966947 -0.0123985349117014
0.00126705594844237 -0.0557587496049658 -0.0119299764190036
0.00154371286503313 -0.0557411504632479 -0.0124568616474053
0.00184697154718258 -0.0562661647479465 -0.0138237470820523
0.00213690656762889 -0.0570774422114349 -0.015583361659415
0.00235721352175006 -0.0577984924445688 -0.0170906884576129
0.000565918976486015 -0.062433688511764 -0.0201641039652859
0.000660834441652469 -0.0611030275432804 -0.0180871511244828
0.000816924411103923 -0.0594675254781394 -0.0156630674514369
0.00103722382916507 -0.0580681951836794 -0.0138142122692432
0.00132428138808662 -0.0572889978427613 -0.0131537916596727
0.00167484924705148 -0.0572808266053501 -0.0138830776912445
0.00206690903520995 -0.0579563803325521 -0.0157933141085275
0.00244662529261609 -0.0590009401117655 -0.0182648891196156
0.00273256218031032 -0.0599375157149581 -0.0203717863223379
0.000500735172794099 -0.0641574286931895 -0.0227290206326574
0.00060369183162046 -0.0626594715561795 -0.0201546616212705
0.000779839307919404 -0.0608065080494216 -0.0171320111154284
0.00103209777743287 -0.0592218927703857 -0.0148304638944848
0.00136435427182984 -0.0583387402533869 -0.0140079933882115
0.00177518129939879 -0.0583246658332614 -0.0149077585057354
0.00224052265293077 -0.0590856198399007 -0.0172776608941034
0.00269472315575732 -0.0602719499923199 -0.0203520007152951
0.00303386248636022 -0.0613403587641948 -0.022957035144138
0.000493631284145261 -0.0678842502817877 -0.0237720123900181
0.000623674392119055 -0.0702378455125036 -0.0210676313693753
0.000836449284362826 -0.0729479974523566 -0.0178782236797821
0.00112389560044502 -0.0748778015087035 -0.0154470258922208
0.00148300091113799 -0.0752806411069002 -0.0145781804923889
0.00191029967841027 -0.0739322244972518 -0.0155285804490958
0.00238283887529624 -0.0711372031258248 -0.0180313046958106
0.00283716465036236 -0.0677324219212137 -0.0212737685133372
0.00317161571333144 -0.0649395411494464 -0.0240084296215053
0.000531342098973404 -0.0690155812002131 -0.0227939940955101
0.00065854670233863 -0.0714084421215618 -0.020273184092937
0.000863159193348441 -0.074163519763521 -0.0173146941531367
0.00113704327222897 -0.0761351346361951 -0.0150632698515372
0.00147686473096299 -0.0765688598021307 -0.0142597671032733
0.00187899643885333 -0.0752354867797312 -0.015141386934153
0.00232207941840218 -0.0724388396072397 -0.0174616329535897
0.00274788126430795 -0.0690172458141291 -0.0204717735948114
0.00306324873266062 -0.0661958416868267 -0.0230229182267744
0.000626582615465074 -0.0720573033427411 -0.0203077422312473
0.000742747423319566 -0.0741716997728418 -0.0182847258533236
0.000923714349180638 -0.0766091422784829 -0.0159246825571916
0.00116285607944445 -0.078362888483198 -0.0141259144341681
0.00145630323433006 -0.0787543069277618 -0.0134845682287261
0.00179885329613673 -0.0775722676556856 -0.014195873407068
0.00217098559967557 -0.075092553718242 -0.0160567607547574
0.002525504127062 -0.0720634811313912 -0.0184645290950355
0.00279033790255801 -0.0695552352208358 -0.020517413432046
0.000746485534458679 -0.0766756495501596 -0.0171898546732366
0.000846757119845107 -0.0783308515213693 -0.0157604906360618
0.000996845997462676 -0.0802501014975639 -0.0141008756468041
0.00119184429367657 -0.0816377313263943 -0.0128320754801323
0.00142745541850301 -0.081940655139047 -0.0123810674255977
0.00169714582118835 -0.0809821575928917 -0.0128919174980533
0.00198407586193201 -0.0789913457933535 -0.0142144422956095
0.0022537129419102 -0.0765744831546941 -0.015916643505842
0.0024570773635919 -0.0745727041991279 -0.0173747933225235
0.000864121720216187 -0.0824440747632343 -0.0141787429822663
0.000947226559531082 -0.0836120763405278 -0.0132684577889974
0.00106644725650077 -0.0849871657729007 -0.0122119581426121
0.00121810139525676 -0.0859846476922913 -0.0114016160937593
0.0013978336644423 -0.0861873439492353 -0.0111160306274459
0.00159889842887457 -0.0854590908106569 -0.0114516923817522
0.00180786789659397 -0.0839760766738102 -0.0123075950417955
0.00200132633547887 -0.0821939400996645 -0.0134014741072696
0.00214871474859703 -0.0807283279097801 -0.0143389656148781
0.000967945882634367 -0.0890840945814494 -0.0116416238778823
0.00103499035706384 -0.0898301028784511 -0.0111126344942519
0.00112720484775989 -0.0907367557215706 -0.0104932034548354
0.00124169490751973 -0.0913951288750801 -0.0100163754798766
0.00137445279624839 -0.0915086223672324 -0.00985147407334304
0.00151947374619171 -0.0909792030514542 -0.0100581985634684
0.00166678853320405 -0.089934184611095 -0.0105736172698492
0.001801316211781 -0.0886972055642484 -0.011225782276156
0.00190492656241104 -0.0876980269538341 -0.0117801526167134
0.00105737901346955 -0.0964587582908262 -0.0096789455526262
0.00111068564674618 -0.0968825920290177 -0.009400617562637
0.00118106418900721 -0.0974299488963911 -0.00906525365230237
0.0012662010162518 -0.0978260396321685 -0.00880555360156157
0.00136270573373671 -0.0978701559303219 -0.00871920541455042
0.00146574326269846 -0.0974957517692208 -0.00884096524572608
0.00156828705038677 -0.0967902767960801 -0.00913377603356442
0.00166091083788269 -0.0959732689934384 -0.00949806380669015
0.00173312247050553 -0.0953336950971797 -0.00979998562506321
0.00113642875850719 -0.104484672225037 -0.00827467893986704
0.00117879346622327 -0.104686279305796 -0.00814816867277494
0.00123253439919439 -0.104979031746879 -0.00798334429748115
0.00129584649267307 -0.105186886777669 -0.00785397958018402
0.00136604964111884 -0.105181307564265 -0.00781465200168563
0.00143948829636321 -0.104920019000684 -0.00788479873430549
0.00151134510484752 -0.10446017049805 -0.00804330705851999
0.00157576809772852 -0.103943514630263 -0.00823420539488004
0.00162668807318989 -0.103555969952357 -0.00838281915963245
0.00120987873477752 -0.113064483480771 -0.00738465829560057
0.00124413421906606 -0.113127110178337 -0.00734288152744735
0.00128593228962866 -0.113249156372908 -0.00727256884678045
0.00133395025296578 -0.113327516892036 -0.00721534351445286
0.0013861830286965 -0.113287423151751 -0.0072019626459144
0.00143994833041995 -0.113105004454732 -0.00724330658357933
0.00149192141703062 -0.11281498058392 -0.00732719839823075
0.00153835261421127 -0.112501690936089 -0.00742178340691647
0.00157557891090357 -0.112275400086312 -0.00748468572240085
0.00128173615247011 -0.122057290366821 -0.00697269873159017
0.00131047699834964 -0.122039164717075 -0.00697160820708014
0.00134432567661039 -0.122047164934026 -0.0069461926621856
0.00138243919946608 -0.12203474175801 -0.0069231515748678
0.00142339812159353 -0.121968895271163 -0.00692212427722869
0.00146521924932905 -0.121840335429548 -0.006949974056353
0.00150545582589567 -0.121666810125764 -0.00699871730496894
0.00154143266622261 -0.121488746831847 -0.00704775012993545
0.00157061910774531 -0.121358259947373 -0.00706967849875273
0.00135487058900882 -0.131278135242615 -0.00702146203716081
0.0013802517554 -0.131207929573333 -0.00702959357333333
0.00140936682880494 -0.131128546588673 -0.00701363246227859
0.00144189907524434 -0.131042208273838 -0.0069976977041945
0.0014769402003012 -0.130952015060241 -0.00699949397590361
0.00151294285753409 -0.13086162872851 -0.00702517393341539
0.0015478189303794 -0.130774819669801 -0.00706745793789635
0.001579194953 -0.130694982586667 -0.00710765698666667
0.00160478268565366 -0.130624735429755 -0.00712091946263869
0.00143117040207712 -0.140515917477001 -0.00753463670013567
0.00145472529378644 -0.140390575422559 -0.00752273982112967
0.00148148594342507 -0.140219250774568 -0.00748332419684853
0.00151181392233269 -0.140053221144661 -0.00744939909694098
0.00154531462632943 -0.139932155858799 -0.00744528725098376
0.00158065920375388 -0.139873260427502 -0.00747951515476036
0.00161564494904204 -0.139866971037166 -0.00754223583554717
0.00164750747151857 -0.139880257789666 -0.0076079600926326
0.00167342485080554 -0.139866712982801 -0.00764279484870153
0.0015118919606667 -0.149560369129821 -0.00853763024007412
0.00153432974185088 -0.149345173920533 -0.00846810882171837
0.00156017716835755 -0.149046010389346 -0.0083631505720553
0.00159081630054848 -0.148771586943005 -0.00827917505997492
0.00162651217655642 -0.148604794357977 -0.00825793774319066
0.00166600014972134 -0.148579257310153 -0.00831423497615199
0.00170646889122108 -0.148670449670548 -0.00843154398609521
0.00174398321242369 -0.148803348217475 -0.008566567464895
0.00177429344884499 -0.148874892748416 -0.0086617050088518
0.00159803400610457 -0.158229036416497 -0.010078454087398
0.00161898410685366 -0.157859939933339 -0.00989385815214511
0.00164423579993618 -0.157366693903766 -0.0096590562914531
0.00167684439378912 -0.15693248571241 -0.00947602439253648
0.00171810721001896 -0.15669655729035 -0.00942029818794774
0.0017667505515406 -0.156714206050289 -0.00951879136990361
0.00181876681935864 -0.156942087317931 -0.00974220128680062
0.0018680054402789 -0.157251286533084 -0.0100128264826124
0.00190753089241498 -0.157465892781848 -0.010227009271079
0.00169059388816922 -0.166385044283731 -0.0122260152579568
0.00170829199261889 -0.165773424505484 -0.0118365474457687
0.00173185652954464 -0.164992073500606 -0.0113705700803412
0.00176713875817641 -0.16432530042907 -0.0110111717654173
0.00181716921643615 -0.163988484501925 -0.010893305360139
0.00188070262284515 -0.164066164968478 -0.0110650030891601
0.00195179125349516 -0.164490270012126 -0.0114748710547528
0.00202056817110228 -0.165059735206226 -0.0119848351711785
0.00207549041890637 -0.165500249851226 -0.0124093203054187
0.00179047893694248 -0.173935661763246 -0.0150561812048768
0.00180147629684954 -0.172976986441577 -0.0143289483790213
0.00182053926665795 -0.171792168077325 -0.0134795526614539
0.00185807361136061 -0.170803187662957 -0.0128277014699114
0.00191995806355638 -0.170327014195055 -0.0126060165647119
0.00200516374781374 -0.170486606637157 -0.012896590984077
0.00210489076082065 -0.171181934126501 -0.0136126487854909
0.00220343978595867 -0.172116284984035 -0.0145170522490834
0.00228173441305723 -0.172881936262724 -0.0152863366341072
0.0018976388865203 -0.180799572160454 -0.0186035902088038
0.00189683443002843 -0.1793908085898 -0.0173631785047148
0.00190680666795554 -0.177682774059213 -0.0159252257376331
0.00194494930664069 -0.176278463107729 -0.0148251990055716
0.00202147882308806 -0.175623206849023 -0.01444391597331
0.00213594189512363 -0.175886996744919 -0.0149135067499685
0.00227572280010078 -0.176931256946412 -0.0160955147539856
0.00241659622360238 -0.178339247464261 -0.0176026692215589
0.0025278142698752 -0.17952868761278 -0.0188937819391556
0.00200876601286795 -0.186831667515037 -0.0227433226120563
0.00199043678787513 -0.18490674618202 -0.0208053075645573
0.00198584567233561 -0.182591416384597 -0.0185567417858475
0.00202206913844284 -0.180707161084725 -0.0168417383479297
0.00211516127230037 -0.179845130728574 -0.0162416563994145
0.00226570206083752 -0.180226138879385 -0.0169531965437318
0.00245656570139469 -0.181670802674921 -0.0187715162683012
0.00265229100700031 -0.183627342546822 -0.0211063142411003
0.00280560089460193 -0.185304223829724 -0.0231049059576917
0.00211347157585371 -0.191722002901311 -0.0269899093508813
0.00207417201803358 -0.189311922663739 -0.0242555475845608
0.00205139625459576 -0.186414280594284 -0.021067486433046
0.00208352628093434 -0.184071056024767 -0.0186429567659605
0.0021931261604001 -0.183010026230756 -0.0177912972424294
0.00238211154207328 -0.183496648005214 -0.0187785350626809
0.00262886437328844 -0.185317067456669 -0.0213287866203788
0.0028853726906051 -0.187794991071946 -0.0246209879224038
0.00308449631649365 -0.18992980797232 -0.027425783106447
0.00219204082800289 -0.194980217413605 -0.0303590170110265
0.00213499304540217 -0.192273997601736 -0.0269589869252287
0.00209653946054858 -0.18900844637747 -0.0229707685907502
0.00212473311274073 -0.186372879240409 -0.0199421369047296
0.00224747110713045 -0.185180428833776 -0.0188767141668027
0.0024677688816995 -0.185722967651774 -0.0200972117800872
0.00276046528153115 -0.187768556111333 -0.0232697098503995
0.00306700838346804 -0.190565961155272 -0.0273764667742668
0.00330288863610763 -0.192977382088436 -0.0308543930294079
0.000691761313910304 -0.0370363242560817 -0.00310568064582526
0.000723311680648153 -0.0369537162102455 -0.00308932596114705
0.000760153497598778 -0.0368457947383853 -0.0030602225106815
0.000801690629641248 -0.0367362841550071 -0.003036858011794
0.000846608790487416 -0.0366441413819661 -0.00303287760452208
0.000892835210202455 -0.0365786346900133 -0.00305307893157828
0.000937650773789553 -0.03653726621099 -0.00309197656799431
0.000977988686485225 -0.0365070542925244 -0.00313532454585834
0.00101089672950649 -0.0364688000794392 -0.00316418887177672
0.000716987309320297 -0.0413554577576021 -0.00407780401440192
0.000749030186399597 -0.0412271796376887 -0.00402226424339849
0.000787370919640772 -0.0410537461742364 -0.00394710979519631
0.000831652044495707 -0.0408844465835344 -0.00388827105178811
0.000880645500661411 -0.0407578551923491 -0.00387235628289563
0.000932091649355837 -0.0406913469934367 -0.00390882017603566
0.000982705601640616 -0.0406769342652989 -0.00398721451041245
0.00102847440188554 -0.040684383157396 -0.00408006787007478
0.00106530196536348 -0.0406707473717889 -0.00415082131826065
0.000735114465548793 -0.045480313741719 -0.0053143200017774
0.000770189952400877 -0.0452792666541285 -0.00518382550636683
0.000813904683781524 -0.0450118899446009 -0.00502289914280471
0.000866227691349845 -0.0447596889244553 -0.00489832208072609
0.000926007175388775 -0.0445861903056625 -0.00485950015600924
0.000990567430860847 -0.0445192658031226 -0.00492404835366714
0.0010554545800527 -0.0445443344512174 -0.00507291502924001
0.00111466742275423 -0.0446097287358994 -0.00525546609584229
0.00116165488065764 -0.0446429259045524 -0.00540406718912834
0.000742759322791214 -0.0493398669984028 -0.00688277708194748
0.00078327805797339 -0.0490295773247744 -0.00661889390463725
0.000836336376087872 -0.048629022218932 -0.00630681503970001
0.000902389347072705 -0.0482621286501632 -0.00606672532702308
0.000980499113449849 -0.0480252318286657 -0.00598686552610024
0.00106749309142954 -0.0479600435175703 -0.00609858787490901
0.00115712363776714 -0.0480436676440165 -0.00636846870349232
0.00123999894776159 -0.0481966885151839 -0.0067065347283318
0.00130512062685491 -0.0483079880184062 -0.00699147777661263
0.000736057540095751 -0.0528872716289265 -0.0088552061852573
0.00078423701959877 -0.0524258280299571 -0.0083696215350143
0.000850669523716749 -0.0518452195767844 -0.00780659830106201
0.000936502460481543 -0.0513255225487705 -0.00737538670304375
0.00104136476877506 -0.0510056805370828 -0.00722698965825334
0.00116180068731252 -0.0509451523140485 -0.00741443728715962
0.00128923501576628 -0.0511106961076783 -0.00788173787362065
0.00140901861284984 -0.0513873376914211 -0.00847546782158179
0.00150262418734563 -0.051613387305879 -0.00898493512055868
0.000711729223166083 -0.0560866025654281 -0.0112760107676834
0.000769466814120903 -0.0554333702563134 -0.0104496151046423
0.000853117102870445 -0.0546251562291656 -0.00949991117680793
0.000964664019993692 -0.0539141186120901 -0.00877598730983996
0.00110489290631656 -0.0534915753440775 -0.00852241527045198
0.00127075578208349 -0.0534381340149993 -0.00882326310960598
0.0014511751327141 -0.053708585653634 -0.00959030843966405
0.00162402469626906 -0.0541449641955344 -0.0105756461450712
0.00175878543082776 -0.0545216076767862 -0.0114283732910091
0.000669502911759161 -0.0588812523469195 -0.0140813207985566
0.000738086260883341 -0.0580099324000672 -0.0127844945221251
0.000841906927486127 -0.0569414679026048 -0.011299686786935
0.000983681217501408 -0.0560134083721872 -0.0101746818770326
0.00116605187139509 -0.0554747989958116 -0.00977754588158664
0.00138758303317584 -0.0554283677153068 -0.0102308944482473
0.00163521583116667 -0.0558169441695725 -0.0114064903319996
0.00187735788929348 -0.056436369884438 -0.0129317984431777
0.00206611311322059 -0.0569868838449937 -0.0142567852255953
0.000616203774901336 -0.0611502501676473 -0.0169610013415463
0.000695665290721514 -0.0600719610591983 -0.0151168487348274
0.000820212721805323 -0.0587540846467895 -0.0130084697028906
0.000992855897297122 -0.0576193356680896 -0.0114218421292257
0.00121853956610678 -0.0569690432300123 -0.0108606826743702
0.0014986645157019 -0.0569246174883954 -0.0114867606984502
0.0018193767497657 -0.0574197778544148 -0.0131311219881739
0.00213902330657394 -0.0582103972660454 -0.0152843398227515
0.00238842262586135 -0.0589252880181418 -0.0171577159616772
0.000568900287006356 -0.0626964730003889 -0.0192609486924965
0.000656987105451478 -0.0614858045444071 -0.0169485938183327
0.000798237784718018 -0.0600051104990119 -0.0143049944618204
0.000995502323459725 -0.0587342340952619 -0.0123258247562034
0.00125570079860901 -0.0580061170677725 -0.0116260850694787
0.00158312590659488 -0.0579529048528176 -0.0123975135561147
0.00196405312432776 -0.0585049327443308 -0.014439874293968
0.00234873798551188 -0.0593966304048788 -0.0171314086330056
0.00264897160417073 -0.0602118770870117 -0.0194733476438885
0.000593477235979868 -0.0702707760735106 -0.0202482123647974
0.000704080937060949 -0.072087724689464 -0.0177841043783324
0.000874510995730828 -0.074150124022836 -0.0149630224492069
0.00109907090181637 -0.0755945484551206 -0.0128528042785978
0.00137982770269568 -0.0758586583617699 -0.0121071381559824
0.00172023624942188 -0.0747745137475423 -0.0129281106353718
0.00210828978295194 -0.0725773765442697 -0.0151042261714696
0.00249639217345704 -0.0699017793883126 -0.0179744699433793
0.00279713479887437 -0.0676787319403108 -0.0204679851344239
0.000624227710954739 -0.0714459161697279 -0.0193436545644617
0.000731388011433729 -0.0732949115396558 -0.0170618461545361
0.000894847549739368 -0.0753992941598765 -0.0144542402514314
0.00110894597159803 -0.076884186254156 -0.012503103122441
0.00137502758159722 -0.0771758072916666 -0.0118141027777778
0.00169563273205477 -0.0761003626683473 -0.0125756629166603
0.00205909373258574 -0.0738949196746478 -0.0145905862600478
0.00242137072441591 -0.0712009729702751 -0.0172463268495914
0.00270260226645381 -0.0689567002109474 -0.019557670756785
0.000698886094440835 -0.074219691817666 -0.0171002650382131
0.000795097532288663 -0.0758576927849594 -0.0152874749220628
0.000939219891837251 -0.0777358386861977 -0.0132158403898904
0.00112670351457461 -0.0790723296337438 -0.011657925091698
0.00135742364856591 -0.0793397570306523 -0.0111078692086415
0.00163117963615925 -0.0783743209881224 -0.0117239826467363
0.00193605806134724 -0.0763957614708702 -0.0133404912209251
0.00223561924719788 -0.0739890369909942 -0.0154574245767863
0.00246807079899733 -0.0719870594644093 -0.0172996421256474
0.000793023260962849 -0.078389831622749 -0.0143160758728673
0.000874572081224969 -0.0796783513254278 -0.013048914737431
0.000993703405129837 -0.0811759883729338 -0.0115985014474586
0.00114705194369047 -0.0822498165074889 -0.0105004722116233
0.00133306565577544 -0.0824581921702029 -0.0101139455364746
0.00154897808556442 -0.0816602577427956 -0.0105582335993449
0.00178341643433044 -0.0800432011953584 -0.0117081395350961
0.00200913828350383 -0.0780938872096482 -0.0131999621260669
0.00218417422484741 -0.0764826696681801 -0.0144959399008383
0.000886666541310735 -0.0836788640996869 -0.0116518281438043
0.000953200138016419 -0.0845932850678733 -0.010852201976506
0.00104748090021324 -0.0856817767109061 -0.00993295331817308
0.0011669309241661 -0.0864662808124978 -0.00923294563652583
0.00130912998372049 -0.0866041859101295 -0.008989030312262
0.00147002729628704 -0.0859839609877106 -0.00928236986509562
0.00163991523288129 -0.0847532519936562 -0.0100274074585746
0.00180004677478739 -0.083288348548941 -0.0109838497206951
0.00192434767451895 -0.0820935317501691 -0.0118111125115947
0.000971211164403954 -0.0899009256735248 -0.00942742678097103
0.00102424664634594 -0.0904863951006668 -0.00896564222456024
0.0010968905499525 -0.0912136533633492 -0.00842881389836301
0.00118704136730066 -0.0917387930581022 -0.00801810934170058
0.00129204128231679 -0.0918115345284836 -0.00787833702470511
0.00140775727822133 -0.0913494699052815 -0.00806015993104522
0.00152668446478698 -0.0904619032311692 -0.00850973060205946
0.00163667322818599 -0.0894234289614592 -0.00907970786127607
0.00172239089242746 -0.0885961824880711 -0.0095675382781682
0.00104619075624888 -0.0969548964184629 -0.00772108927485164
0.0010880341450605 -0.0972845800649356 -0.00747858151906208
0.00114330824510861 -0.097727293499804 -0.00718874462313654
0.00121027121829236 -0.0980456371227371 -0.00696590530105599
0.00128647237511484 -0.0980659356453835 -0.00689377675700505
0.00136835803246786 -0.0977308982255487 -0.00700195202591447
0.0014505184463075 -0.0971173265435369 -0.00725854415987337
0.0015253649954787 -0.0964162288986166 -0.00757797702127235
0.00158413915990858 -0.0958778030638233 -0.00784480915609909
0.00111455219842414 -0.104759202011479 -0.00650756054567329
0.00114773742620185 -0.104909479625298 -0.00639658840838708
0.00118993958979546 -0.105145203976638 -0.00625417765669944
0.00123976170669779 -0.105310640192784 -0.00614369341006445
0.0012951747212836 -0.105292090118957 -0.00611186445913722
0.00135339447554869 -0.105052404972996 -0.00617522369001122
0.0014106647027988 -0.104642822855579 -0.00631555264121824
0.00146229422655878 -0.104189458305899 -0.00648472284001091
0.00150329249128244 -0.103857216960056 -0.0066184630687589
0.00117978242639684 -0.113201259215297 -0.00573886275040422
0.0012067782466791 -0.113238291492143 -0.00570078097184302
0.00123980150380383 -0.113331829300068 -0.00563967278270092
0.00127781004732737 -0.113388964979788 -0.00559112876034419
0.00131924386104759 -0.113342428717208 -0.00558139078370544
0.00136201241109176 -0.113170946364591 -0.00561966743235692
0.00140349532112775 -0.112906210691359 -0.00569544264550283
0.00144069162698773 -0.112624645358623 -0.00578136614373832
0.00147062360309019 -0.112425968538645 -0.00584108222449332
0.00124471760310501 -0.122116176844964 -0.00537693926212154
0.00126774077321001 -0.122087707600611 -0.0053736754649628
0.00129490151185296 -0.122084186596613 -0.00535106107418427
0.00132553040910642 -0.122063231667434 -0.00533177555087351
0.00135850244261188 -0.121994906925154 -0.00533246898148148
0.00139223939464147 -0.121870966011098 -0.00535890058635441
0.00142477976626948 -0.121707875390186 -0.00540419038795444
0.00145395983284525 -0.121542780284494 -0.005450721635315
0.00147771436453495 -0.12142345871508 -0.00547511504319785
0.00131127960366667 -0.13128999216 -0.00540312416
0.00133214520504087 -0.131219891348774 -0.00540772309264305
0.00135610926901045 -0.131140760420453 -0.00539325035343629
0.00138292644817073 -0.131054805945122 -0.0053800675304878
0.00141186564386792 -0.13096508490566 -0.00538309433962264
0.00144166398932927 -0.130875191310976 -0.00540746173780488
0.00147060091570308 -0.130788811096771 -0.00544693173053041
0.00149670508583106 -0.130709250340599 -0.00548561750681199
0.00151806265753333 -0.13063905072 -0.00550243658666667
0.00138064678968064 -0.140479941455223 -0.00581981603623356
0.00140062190498207 -0.140365325496851 -0.00580734297289925
0.00142334539585765 -0.140206314928798 -0.00577295237222565
0.00144913212068271 -0.140049966388658 -0.00574449925623371
0.00147765911583719 -0.139932766338735 -0.00574247762345679
0.00150780853303136 -0.139870702977148 -0.00577401743566003
0.00153771182818495 -0.139855279431093 -0.00583072077626413
0.00156501006586404 -0.139856518583252 -0.00589097604967396
0.00158728282571664 -0.139832146591712 -0.00592608385720148
0.00145360807079893 -0.149443632282218 -0.0066510722090284
0.00147324160475355 -0.149254980917881 -0.00658941836748996
0.0014958750705129 -0.148986081338271 -0.00649915713363369
0.00152267971754823 -0.148735307434454 -0.00642807544510847
0.00155387242433458 -0.14857782240514 -0.00641148151212503
0.00158835820783379 -0.148544353996586 -0.00646182410710494
0.001623710155302 -0.148613036963974 -0.00656503171985351
0.0016565275295079 -0.148716357013844 -0.00668435406637881
0.00168312882248076 -0.148761425602754 -0.00677090764347057
0.00153095567584662 -0.15796818665678 -0.00794371259878653
0.00154985760590904 -0.157652471906051 -0.00778344483024019
0.00157257378566457 -0.157219942924273 -0.00758204412698188
0.00160169412044957 -0.156833151818786 -0.00742627870088794
0.00163829946155566 -0.156616038471439 -0.00738024945805332
0.00168126395255009 -0.156618219280725 -0.00746670535729909
0.00172711435916509 -0.156801590461815 -0.00766069332989729
0.00177053373517653 -0.157052098834394 -0.00789613046087763
0.00180551938489326 -0.157214103519029 -0.00808472653786229
0.00161377658822452 -0.165890309459527 -0.00976636843072374
0.00163033643590235 -0.165376744995249 -0.00942932315278477
0.0016520620611872 -0.16470713824961 -0.00902898211030591
0.00168393035801708 -0.164127687704119 -0.00872178534197447
0.00172849189004364 -0.163825826136886 -0.00862248525493799
0.00178463489451777 -0.163875832742083 -0.0087717542350888
0.0018472309912931 -0.164219073684604 -0.00912587204531019
0.00190780104812027 -0.164681545328713 -0.00956728957110204
0.00195640377436697 -0.165026254272665 -0.00993737057848759
0.00170340802654048 -0.173098728632848 -0.0121975440027973
0.00171451387015369 -0.172307319715014 -0.0115661544571247
0.00173262168619462 -0.17131457477329 -0.0108337541638525
0.00176661432497289 -0.170475973638603 -0.0102744012337319
0.00182147007054209 -0.170060434645532 -0.0100857553751222
0.00189627359960721 -0.170173543087584 -0.0103371800186842
0.00198352120585934 -0.170731172805849 -0.0109551442788622
0.0020698469411526 -0.171482958727543 -0.0117380329176812
0.00213891435485569 -0.172086060440824 -0.0124085462948518
0.00180059727606567 -0.179510577016116 -0.0152822896842092
0.0018016090747417 -0.178365975127861 -0.0141977037673
0.00181183045950871 -0.176965642213325 -0.0129520265773699
0.00184614847223902 -0.175803078613187 -0.0120050273827465
0.00191322934548743 -0.175245921782178 -0.0116787582635187
0.00201269154706719 -0.175436635934988 -0.0120840099797054
0.00213395604769845 -0.176261692574293 -0.0131044835083689
0.00225665382602031 -0.177378938774006 -0.0144126189367253
0.00235460037358438 -0.178312503647152 -0.0155438185899025
0.00190315349079465 -0.185015547312512 -0.0189243209133457
0.00188874048063793 -0.183472401862185 -0.0172130543073518
0.0018859290621134 -0.181611190200139 -0.0152552982594074
0.00191791481055298 -0.180085596686075 -0.013775560379223
0.00199827060264246 -0.179370028140967 -0.0132607423005961
0.0021275677064233 -0.179644935125537 -0.0138734323957588
0.00229177089096042 -0.180767384776154 -0.0154441397592833
0.00246154076987307 -0.182297054113685 -0.0174785513425284
0.00259684156250025 -0.183604800419269 -0.0192450611460062
0.00200189800216391 -0.189402107644772 -0.0227013583605873
0.00196859584896822 -0.187487661779157 -0.0202594901824934
0.00194919914548454 -0.185194756930006 -0.0174699260031549
0.00197656532536286 -0.183332488376339 -0.0153753348888843
0.00206962842292887 -0.182469239317271 -0.014644322432123
0.00223017879433273 -0.182816655771601 -0.0154924462357804
0.00244098980339853 -0.184209015795944 -0.0176960457057067
0.00266307432913822 -0.186121262247918 -0.0205770885378472
0.00283987142795653 -0.187777234632917 -0.0230830039523447
0.00207792112937506 -0.192345259819896 -0.0257333783026502
0.00202822933097383 -0.190204566440116 -0.0226646268896534
0.00199424712196267 -0.187645789932372 -0.0191587725295399
0.00201707618999656 -0.1855769385389 -0.016539462568971
0.00211993832465278 -0.184619548958333 -0.0156250138888889
0.00230563429322014 -0.185001637610443 -0.0166718514152804
0.00255464108619909 -0.186547696223535 -0.0194146000421743
0.00282018562840876 -0.188687159511101 -0.0230238683706667
0.00303128460245548 -0.190552394759344 -0.0261635872684938
0.000653652258118605 -0.0369983255516165 -0.00208718315695839
0.000675851656296774 -0.0369213122404906 -0.00207673585823062
0.000701695621682309 -0.0368199268302097 -0.0020576616491172
0.000730825862010046 -0.036715517219451 -0.00204314829361139
0.000762377245410197 -0.036625253839237 -0.00204288213156793
0.000794933065596884 -0.0365577175772916 -0.00206018932118819
0.000826591133437722 -0.0365109878862136 -0.00209102195673026
0.000855169717857019 -0.0364737534400363 -0.00212506253996246
0.000878540042523898 -0.0364290847457294 -0.00214865254862451
0.000684336826699674 -0.0412426177892146 -0.00276662071030677
0.00070608847996864 -0.0411297935686348 -0.00272842879305906
0.000731989941051404 -0.0409742771943322 -0.0026768631793496
0.000761932205685702 -0.040819483631991 -0.00263756458434054
0.000795204173623176 -0.0406995791847258 -0.00262944544203096
0.000830343690808129 -0.0406302150571685 -0.00265911212126604
0.000865111670866699 -0.0406047413264775 -0.00271892359139172
0.000896686656095439 -0.0405969259044684 -0.00278906936657647
0.000922125803753351 -0.0405693146290207 -0.00284325364269274
0.000709437924725465 -0.0452604736083291 -0.00364105954866673
0.000732614968517706 -0.0450909921595185 -0.00354929407679877
0.000761360201903449 -0.0448600597788301 -0.00343661097707824
0.000795880091515272 -0.044637503835817 -0.00335077666043786
0.000835632220821951 -0.044478174890797 -0.00332698647474342
0.000878976166799963 -0.0444065705779642 -0.0033776239927679
0.000922932964633115 -0.0444106788296161 -0.0034888271051392
0.000963310481356789 -0.0444466316705494 -0.00362414151864131
0.000995406129296366 -0.044452734999825 -0.00373492830752512
0.00072646071702009 -0.0489650900588511 -0.00476275784549522
0.000752897463650394 -0.048712838588625 -0.00457498337797287
0.000787349377994533 -0.0483792393201508 -0.00435395094374726
0.000830453469988697 -0.0480667435235731 -0.00418576325297904
0.000881972694697015 -0.0478560081708185 -0.00413331947042303
0.000940090099578601 -0.0477827433968722 -0.00421872107939259
0.00100070083426007 -0.0478285996204353 -0.00441776707900161
0.00105727934366289 -0.047928161974887 -0.00466581994487603
0.00110193448219098 -0.0479900902221332 -0.00487566368745783
0.000732717474668224 -0.0522962847097219 -0.00618767113098389
0.000764204957781018 -0.0519341411551157 -0.00583925987133861
0.000807287703745952 -0.0514684553124646 -0.00543769471028568
0.000863176580311327 -0.0510418985220402 -0.00513283633522005
0.000932255219562628 -0.0507668196587152 -0.00503205500236018
0.00101278608051236 -0.0506927496685733 -0.00517267037552156
0.00109927428799265 -0.0507939517313045 -0.00551441282640711
0.001181623919818 -0.0509790139993609 -0.00594755084541636
0.00124656929089082 -0.0511204021281916 -0.00632086651483906
0.000726057861963167 -0.0552128270024437 -0.00795077821905256
0.00076429127152698 -0.0547180038784435 -0.00735363778869519
0.000818813306347611 -0.0540943972619502 -0.00667342796434151
0.00089150420676785 -0.053532587259138 -0.00615937216914178
0.000983884710152305 -0.0531816822596571 -0.00598420589330904
0.00109494391257507 -0.0531070860020647 -0.00620667352961318
0.00121786972220356 -0.0532750556695839 -0.00676396454687271
0.00133761933753541 -0.0535646164176898 -0.00748020166619398
0.00143244957043938 -0.0538057014190183 -0.00810458542186869
0.000706419421133994 -0.0576738057370824 -0.0100054828327595
0.000752783703862877 -0.0570356329634384 -0.00906207932606498
0.000820927211597855 -0.0562415507973283 -0.00799625130695267
0.000913328015224054 -0.0555347272115608 -0.00719662854972709
0.00103326492416947 -0.0551023806646925 -0.00692020478170361
0.00118148727235529 -0.0550259736664431 -0.00725156889483227
0.00135049991657029 -0.0552643161790802 -0.0081007138916464
0.0015192596629387 -0.0556666520060737 -0.00920658854609499
0.00165393245757665 -0.056017225735211 -0.0101788192883874
0.000678281982520097 -0.0596147196356365 -0.0121229544339444
0.000733258255210014 -0.0588465927003863 -0.0107722736209106
0.000815518868016389 -0.0578978689865876 -0.00925713164192038
0.00092785209107138 -0.0570602684047354 -0.00813057454522838
0.00107570928684665 -0.056553208900126 -0.00773913746169116
0.00126257876673879 -0.0564712950908637 -0.00819253108456926
0.00148134461924295 -0.0567682512701312 -0.00937420181104048
0.00170496896192424 -0.057269461377473 -0.0109326077981704
0.00188510256334566 -0.0577184704689616 -0.0123128551425668
0.000652362882129598 -0.0609424771109389 -0.0138243734859879
0.000714495891375776 -0.060094584087378 -0.0121193726864721
0.000808209714897033 -0.0590504317077659 -0.0102168414392207
0.000936281137361994 -0.0581313605769895 -0.00881276079581092
0.00110606695118329 -0.0575742784446604 -0.00832449921727353
0.00132376758848764 -0.0574809763473515 -0.00887994727091233
0.0015832862329984 -0.0578040650184754 -0.0103431907220174
0.00185310291532369 -0.0583579456058398 -0.0122910821885685
0.00207209481499424 -0.0588632170262785 -0.0140257598992337
0.000715243017622398 -0.07308004263597 -0.014584470828714
0.000793045553327958 -0.0742388227939391 -0.0127473648223455
0.000906519852596866 -0.0755636467263076 -0.0107001379839868
0.00105273101670768 -0.0764819386658375 -0.00919292282378718
0.00123584113959416 -0.0766016286100122 -0.00866915292098689
0.00146175076747505 -0.0758032779151263 -0.00926314727512515
0.00172615957674557 -0.0742643202147074 -0.010831822981039
0.00199967476121019 -0.0724311608479787 -0.0129255580351137
0.00222157950019317 -0.0709204098714421 -0.0147924744353401
0.00073714853778337 -0.0743009547526069 -0.0138959602449343
0.000811965986629392 -0.0754896281708274 -0.012203410788208
0.000920639919528208 -0.0768550541676506 -0.0103154190539306
0.00106021501460508 -0.0778111881651816 -0.0089228270695088
0.00123405526804775 -0.0779539248096492 -0.00843918778908418
0.00144700980995215 -0.0771582286996273 -0.00899094130408717
0.00169448080588494 -0.0756040647019323 -0.0104434343630868
0.00194900385472831 -0.0737470719425869 -0.0123772543229428
0.00215511735224822 -0.0722149705747367 -0.0140997735263931
0.000787126020507544 -0.076758390756389 -0.0122288815250047
0.00085342606748356 -0.0778295075066258 -0.0108916748350411
0.000949160502397869 -0.0790756559370818 -0.00939216153434024
0.00107186888326459 -0.0799570285836696 -0.0082779831081542
0.00122328154638326 -0.0800934049731556 -0.0078915911472408
0.00140562548312263 -0.0793647253222671 -0.00834113146404582
0.00161321640557662 -0.0779399321615871 -0.00951141804135555
0.00182281091698094 -0.076244283996427 -0.0110549085400853
0.00199123322990514 -0.0748525891260036 -0.0124222083284335
0.000850852731508531 -0.0804100952257918 -0.0101673719083639
0.000906206514727299 -0.0812717799415676 -0.00923762803002959
0.000985237047309392 -0.0822958387713079 -0.00818742982946629
0.00108601391703926 -0.0830260944631896 -0.00740021462344734
0.00120863089042321 -0.0831337292585033 -0.00712897306167309
0.00135275832421236 -0.0825128730163572 -0.00745674234578881
0.00151216793505384 -0.0813102174176523 -0.00829487354308134
0.00166908660105167 -0.0798912822008363 -0.00938623428072657
0.00179401990840567 -0.0787394227346049 -0.0103457272994427
0.000916426295908313 -0.0851523161335994 -0.00819652487216078
0.000960949761534314 -0.0857769192991734 -0.00761275647901081
0.00102334657234442 -0.0865453106516233 -0.00694747720304194
0.00110202701406478 -0.0870960801671753 -0.00644527193137086
0.00119598075027798 -0.0871645916975538 -0.00627524981467754
0.00130335135640789 -0.0866644467005854 -0.00649473401781157
0.00141837874041163 -0.0857142387417356 -0.00704214934453142
0.00152865413280596 -0.0846069873626674 -0.00774515855545423
0.00161585499718548 -0.0837244381616906 -0.00835766457796749
0.000978537093116497 -0.0909015171064361 -0.00655339567156098
0.0010136388562886 -0.0913057881588397 -0.00621795970640529
0.00106159055576562 -0.0918335186762793 -0.00583031669087299
0.0011210103049482 -0.0922122551760569 -0.00553646897070201
0.001190398501088 -0.092241267144805 -0.00544074974540102
0.00126741479270367 -0.0918545945389762 -0.00557927437693022
0.00134740321406966 -0.0911425248499552 -0.00591279501390507
0.00142228624452521 -0.0903270072671554 -0.00633452189643638
0.00148137814091103 -0.0896955379830472 -0.00669713071094861
0.00103674762355764 -0.0975914176802199 -0.00529551698384591
0.00106430874331858 -0.097815549756695 -0.00512043320864635
0.00110078983877867 -0.0981421045702033 -0.00491221167047719
0.00114499262299919 -0.09837492624759 -0.00475407955462863
0.0011953753939646 -0.0983696982432792 -0.0047066599946766
0.001249748036986 -0.0980790719606014 -0.00479113230459943
0.00130466991213035 -0.0975683288460712 -0.00498402569074876
0.00135511356756896 -0.0969973801049055 -0.00522286186911811
0.00139507168151451 -0.0965735150550697 -0.00542329669994206
0.00109269727993492 -0.105137481836373 -0.00440197246633637
0.0011146911346351 -0.105230348100161 -0.00432268259866079
0.00114275096900384 -0.105402762148734 -0.00422148460541263
0.00117588743107401 -0.105521486363961 -0.00414455430629003
0.00121275311914821 -0.105489113089389 -0.0041257950660918
0.00125155117263525 -0.105274074291347 -0.00417702716824836
0.00128985110859465 -0.104921103655907 -0.00428472845463255
0.00132456187062707 -0.104539076965644 -0.00441357884107605
0.00135232570200552 -0.104269552311679 -0.00451647276904481
0.00114829681398024 -0.11340753644063 -0.00383438834715299
0.00116660676865771 -0.11341596526717 -0.00380799401228956
0.00118904490453748 -0.113477844678151 -0.00376572334525899
0.00121485842424897 -0.113511624751589 -0.00373348687659914
0.00124297487704448 -0.113458338672088 -0.00373030240839266
0.00127199640094051 -0.113299563830588 -0.00376271241621295
0.00130018906456061 -0.113063617273753 -0.00382285210153215
0.00132556408870431 -0.112818112150446 -0.00389057804741965
0.00134613469780036 -0.112650982642902 -0.00393919262759942
0.00120494219713829 -0.122210290909693 -0.00356224148462173
0.00122124104628146 -0.122170346616752 -0.00356102423766324
0.0012404648597519 -0.122154120864957 -0.00354659468205017
0.00126212074056074 -0.122123897372038 -0.00353540476237609
0.00128541020923036 -0.122053153013994 -0.0035394691065662
0.00130923414258799 -0.12193478988366 -0.00356283627639696
0.00133223966238608 -0.12178382565718 -0.0036003369507836
0.00135294009737725 -0.121633717986294 -0.00363898685084366
0.00136991733052142 -0.121527365994134 -0.00366162624763532
0.00126335155513339 -0.13130227454625 -0.0035703677454625
0.00127899560152717 -0.131232509725962 -0.00357479147750572
0.00129694984793494 -0.131153909286542 -0.0035662330326105
0.00131702284496161 -0.131068666122176 -0.00355939316615817
0.00133867054707792 -0.130979785714286 -0.00356498701298701
0.00136096323221264 -0.130890775765315 -0.00358660171917315
0.00138263883609916 -0.130805210726701 -0.00361956931799371
0.00140225252600324 -0.130726276997725 -0.003652230114702
0.00141840077205882 -0.130656410911874 -0.00366917776076974
0.00132373238008365 -0.140409656386867 -0.00386032692407213
0.00133965350804943 -0.140307371644862 -0.00385237871659297
0.00135776457074055 -0.14016244169437 -0.00382943441337885
0.00137827535452432 -0.140017209971243 -0.00381157431450963
0.00140090890567815 -0.139904615231432 -0.00381351173304629
0.00142478417033911 -0.13983928252887 -0.00384026516356448
0.00144845029572173 -0.139813886740207 -0.00388561456466803
0.00147008491067322 -0.139801834453042 -0.00393379110039794
0.00148782107222878 -0.139765456621864 -0.00396392073643593
0.00138610892698086 -0.149258493237307 -0.00445087804067161
0.00140269038486793 -0.149099902449426 -0.004407353279187
0.00142178795340483 -0.148865082655477 -0.00434405642233146
0.00144422679092039 -0.148640929203154 -0.00429547752160692
0.00147008985731078 -0.148494057871539 -0.00428701810428651
0.00149845191212799 -0.148451991616404 -0.00432751831139665
0.00152737177650278 -0.148495785280692 -0.00440664277150643
0.00155417381341084 -0.148566212766566 -0.0044976720407151
0.00157598231393437 -0.148581676452453 -0.00456512673598279
0.00145069362993362 -0.157604896175122 -0.00537883176237537
0.00146761115816133 -0.157349212694151 -0.00526388470085618
0.00148779579914727 -0.156984505765209 -0.00512023059113836
0.00151309389330047 -0.156650534961706 -0.00501057634304902
0.00154417659783402 -0.156454473428113 -0.00498109633035379
0.00158002615899335 -0.156439731918285 -0.00504802826193517
0.00161785090235657 -0.156573903007319 -0.00519315085631196
0.00165349015839818 -0.156759197047783 -0.00536853226650605
0.00168230115030627 -0.156862356885507 -0.00551014705950255
0.00151817882440282 -0.1652565438113 -0.00669825127231074
0.00153419670303274 -0.164853110434559 -0.00645491735973404
0.00155463487355366 -0.16430786147533 -0.00616723997420149
0.0015830587776659 -0.163825078262724 -0.00594829488972042
0.00162115522627762 -0.163561917780144 -0.00588066989619377
0.00166783346785696 -0.163581630630276 -0.00599342307941852
0.00171900777663265 -0.16383569005645 -0.00625480784069818
0.00176814804439933 -0.164179375704132 -0.00657982850492365
0.00180770447976093 -0.164416722007726 -0.00685358616477627
0.00158974378918783 -0.172078889408158 -0.00847103383744136
0.00160250516318007 -0.171476303998757 -0.00801305765768598
0.001621190008373 -0.170697352845212 -0.00748479827223115
0.00165217303983492 -0.170024613531662 -0.00708399256994641
0.00169882977334847 -0.169675747978439 -0.00695233139816596
0.00176011239642059 -0.16973809741659 -0.00713919745685967
0.00183013307960317 -0.170144192709055 -0.00759159653629299
0.00189880413049262 -0.170693041216767 -0.00816453699184971
0.00195397036102838 -0.17111286109712 -0.00865771417032722
0.00166638551525866 -0.177982169010715 -0.0107334334977424
0.00167237733148254 -0.177139374134635 -0.00994316685597296
0.00168604976107752 -0.176082701343993 -0.00904312159599894
0.00171807760744854 -0.175186074765357 -0.00836355857741054
0.00177439574731282 -0.174736125277984 -0.00813348791697554
0.00185422264945007 -0.174847416019927 -0.00843111393758218
0.00194940771748133 -0.175431782084253 -0.00917353371250309
0.00204491983043842 -0.176224698867584 -0.0101272973224321
0.00212167396252712 -0.176866272652475 -0.0109585075259994
0.00174698272489786 -0.182889321903703 -0.013414744124341
0.00174212233127789 -0.181790602072128 -0.0121616765555089
0.00174682585773114 -0.180439384447237 -0.0107465471381999
0.00177767112673618 -0.179307158021218 -0.00968596757640828
0.00184395814042768 -0.178750475808845 -0.00932185786496903
0.0019454462420608 -0.17891089444995 -0.00976740655019896
0.00207153390307558 -0.17968067439078 -0.0109036151157405
0.00220108868734197 -0.180731731787238 -0.0123828101561887
0.00230551088545833 -0.181610632724066 -0.0136832967731107
0.00182495086716131 -0.186696967108143 -0.0162023941130787
0.00180644203432744 -0.185373016423858 -0.0144045089996082
0.00179934478591841 -0.18376354119039 -0.012388489207684
0.00182702648808365 -0.182426696276785 -0.0108910717819002
0.00190238723721866 -0.181776122451746 -0.0103744820528908
0.00202589312894729 -0.181974722629725 -0.0109861546164062
0.00218478756120295 -0.182900642047427 -0.0125719049100633
0.00235166470711838 -0.184175153533548 -0.0146624580416884
0.0024868479734944 -0.18526263564551 -0.0165142895051322
0.00188590024285766 -0.189271555067335 -0.0184507807381701
0.00185528421073469 -0.187819404934818 -0.0161781681029994
0.00183759468202393 -0.18606383787802 -0.0136431173640767
0.00186194165722296 -0.184611742892158 -0.0117740956312618
0.00194402794726215 -0.183905075482103 -0.0111288177328684
0.00208489267938477 -0.184117179642105 -0.0118797237215562
0.00227032860515793 -0.185121358611644 -0.0138469842852936
0.00246810288138759 -0.186515642716508 -0.0164648441694138
0.00262904344920576 -0.187719424297101 -0.0187965629652331
0.000613908150352966 -0.0369669089040564 -0.000967969345199232
0.000625723829668319 -0.0368941322010356 -0.00096582931760219
0.000639315798139185 -0.0367976807145644 -0.000959778699444461
0.000654577172563864 -0.0366970628569681 -0.000956535038417693
0.000671125895028411 -0.0366080718205522 -0.000960954504857874
0.000688266828098831 -0.0365387650496146 -0.000974567327871782
0.000705020396085379 -0.0364876781343484 -0.000995075467804766
0.000720233148123006 -0.0364448015908971 -0.00101694891203997
0.000732760706387192 -0.0363949720415348 -0.00103296322080739
0.000650618718392305 -0.0411453510140227 -0.00130624108245865
0.000660811796342502 -0.0410447187190848 -0.00129047243021363
0.000672716382939413 -0.0409033286371997 -0.00126857170828588
0.00068648665363443 -0.0407600153341241 -0.00125364342762365
0.000701960617701877 -0.0406455125407652 -0.00125523900056303
0.000718544395987892 -0.0405741231632476 -0.0012764997585303
0.000735176064905135 -0.0405402205296909 -0.00131318799221646
0.000750423191690251 -0.0405206606068824 -0.00135479677069449
0.000762734695945906 -0.0404822412435381 -0.00138751692300094
0.000683304567684861 -0.0450734516705242 -0.00174786477610487
0.000692906594770613 -0.0449289596200961 -0.00170508704039536
0.000704610091440659 -0.0447268402701106 -0.00165256936342476
0.000718866911798435 -0.0445278413989576 -0.00161482545056141
0.000735756850595038 -0.0443800862363944 -0.0016097415454463
0.000754737312406155 -0.0443054421152743 -0.0016433341770274
0.00077447046473275 -0.044293840386229 -0.00170803299842754
0.000792871635206801 -0.0443073887651056 -0.00178462216257403
0.000807486056508692 -0.0442927346109588 -0.00184765181802685
0.000710387809098474 -0.0486519936742414 -0.00232133695631452
0.000720440074833085 -0.0484456281046078 -0.00222945899194941
0.000733469464552119 -0.0481647752817556 -0.00212187957887881
0.000750285622852494 -0.0478952814273683 -0.00204290156197741
0.000771305422435981 -0.0477057586181373 -0.00202460151643059
0.000796075075944991 -0.0476272954866527 -0.0020778588119419
0.000822815214719253 -0.0476449529885843 -0.0021896156800084
0.000848310488532685 -0.0477039493554482 -0.00232598288893867
0.000868460058104953 -0.0477280874586521 -0.00244147108670622
0.000730272142397911 -0.0518101408674737 -0.003056975981551
0.000741857987750894 -0.0515264684228805 -0.00288222041133287
0.00075780068972996 -0.0511509026575319 -0.00268221702140619
0.000779335032163117 -0.0507974174687405 -0.00253408095860471
0.000807411771062521 -0.0505582149998935 -0.00249256540109668
0.000841854868300809 -0.0504753292817554 -0.00257615032418274
0.000880366404176505 -0.0505285882608125 -0.00276334617576406
0.000918006236793625 -0.0506442465080553 -0.0029969848419219
0.000947908128781696 -0.0507207031815858 -0.00319852617538665
0.000741694319001242 -0.0545024440756508 -0.00397340527984302
0.000755939417720238 -0.0541330481990934 -0.00366956232205895
0.000776376560210364 -0.0536535382661129 -0.00332652407445254
0.000804697754678787 -0.0532077697941161 -0.00307215509176763
0.00084269340934899 -0.0529135231125592 -0.00299419141358619
0.000890871008799124 -0.0528250442980213 -0.00312170808731911
0.000946538011358537 -0.0529169430987823 -0.0034215614437425
0.00100240606086245 -0.0530954544731514 -0.00380288592251888
0.00104728899932078 -0.0532322137371635 -0.00413621164885379
0.000744455084465154 -0.0567005762438532 -0.00504528323189278
0.000762409856074155 -0.0562478950546591 -0.00456092020198663
0.000788663892194956 -0.0556670017109867 -0.00402005579246277
0.000825306859169358 -0.0551305103525331 -0.0036208806120804
0.000875322771550419 -0.0547810094516015 -0.00349291487071089
0.000940499053275318 -0.0546849536811737 -0.00367777396833641
0.00101816986632001 -0.0548125097836489 -0.00412852421252487
0.00109829174735858 -0.0550511802575782 -0.00471172964810201
0.00116361334459812 -0.0552471813392219 -0.00522751879549726
0.000740541784893331 -0.0583842197685226 -0.0061515320428479
0.000762802493248657 -0.057864701254823 -0.00545382606042197
0.000795389813669729 -0.0572016832078726 -0.00468289078140384
0.000840624909373086 -0.0565906168734247 -0.00411857959449287
0.000902903999432473 -0.0561936877163031 -0.00393376855368032
0.000985811367937692 -0.0560874549632363 -0.00418191085278359
0.00108730703679778 -0.0562394524880759 -0.004802943857182
0.00119473577311055 -0.0565233356227723 -0.00561931100601698
0.00128370753658778 -0.0567656711394139 -0.00634952043884435
0.00073485207418717 -0.0595398375609931 -0.00704288993072993
0.000760898394502791 -0.0589854316191488 -0.00615795387923348
0.000798779979431959 -0.0582786996690665 -0.00518837681600305
0.000850860394694198 -0.0576260408127122 -0.00448411867664998
0.000922752931933595 -0.0571991724098465 -0.0042514576369883
0.00101975454983459 -0.0570803445194925 -0.00455208044274019
0.00114073496472089 -0.0572371527063122 -0.00531663738326896
0.00127122141869066 -0.0575380072038811 -0.00633357678670555
0.00138064759384691 -0.0578008730037684 -0.00725141208648177
0.000829358889946678 -0.0751983674896204 -0.00743196685272234
0.00086465903914917 -0.0758495881849577 -0.00647073952405692
0.00091422491801931 -0.0766325944771464 -0.00542059309368478
0.000976726418274405 -0.077176120095597 -0.00466007981879791
0.00105539678609763 -0.0771982153956986 -0.00440858829282668
0.00115517039461434 -0.0766099927866815 -0.00473087954519949
0.00127642937469384 -0.0755532403183907 -0.00555392069297576
0.00140688186589652 -0.0743519790348706 -0.00665274911932195
0.00151706130973922 -0.0734023893928004 -0.00764743349699183
0.000842613474465276 -0.0764558956345591 -0.00706226774255479
0.000876392146926127 -0.0771374341023973 -0.00617984707438699
0.000923839900007144 -0.0779596534214663 -0.00521309599927082
0.000983562698503405 -0.0785376835689108 -0.00451120488639975
0.00105824186202712 -0.0785788468632963 -0.00427976155570217
0.00115208466149936 -0.0779894027031302 -0.00458013109871074
0.00126510323071427 -0.0769132786705865 -0.00534315844964469
0.00138577835061446 -0.0756834142876115 -0.00635793242877856
0.00148727864177623 -0.0747088771828388 -0.00727379829756142
0.000869869349634171 -0.0786826087791778 -0.00618315232413565
0.000899304923700747 -0.079320350318634 -0.00548869067398206
0.000940843918994924 -0.0800998808542278 -0.00472135993644426
0.000993226457244249 -0.0806528623766639 -0.00416004444481965
0.00105805909163173 -0.0806987078378608 -0.00397676836529473
0.00113789609236318 -0.0801464125230414 -0.00422459812991146
0.0012317910678412 -0.0791314449664017 -0.00484372058456871
0.00132990570956408 -0.0779703834967158 -0.00565737548072822
0.00141140690406192 -0.0770534157441931 -0.00638510286551787
0.000905379972578481 -0.0819511848615981 -0.00509659218432726
0.000929349796038254 -0.0824878727868747 -0.00461618630172734
0.000963249950303143 -0.0831602693228817 -0.00407962182153122
0.00100599084253236 -0.0836399942147904 -0.00368399835434411
0.00105809152909483 -0.0836771924568966 -0.00355789137931034
0.00112043831842137 -0.0831901100214032 -0.00374249396893428
0.00119134107648957 -0.0822975083956533 -0.00419115266998524
0.00126325601731561 -0.0812794999787951 -0.00477131526954017
0.00132208935281035 -0.0804831438785478 -0.00528425784067572
0.0009443448241741 -0.0862854853890443 -0.00405543731258726
0.00096309172039334 -0.0866900963224271 -0.00375623778685011
0.000989463387336445 -0.0872195954692152 -0.00341808705941402
0.00102249492026283 -0.0875983914907489 -0.00316773595121321
0.00106193780563902 -0.0876179818520402 -0.00309196861825486
0.00110756659648508 -0.0872098369372314 -0.00321943695569811
0.00115750947774558 -0.0864717389926558 -0.00351727554905614
0.00120656297875896 -0.0856363945519956 -0.00389550224767894
0.00124618422568938 -0.0849947716936541 -0.00422580377514469
0.000984663442218532 -0.0916794413597548 -0.00318539932597677
0.000999112175735923 -0.091946454934233 -0.00301596644793948
0.00101912428562387 -0.0923247495574274 -0.00282133909208641
0.00104383244388161 -0.0925951101135798 -0.00267760977312948
0.00107259971883682 -0.092593216268083 -0.00263866480647634
0.00110469619779211 -0.0922650667170189 -0.00272259483083536
0.00113848499133393 -0.0916869421917475 -0.00290814872564219
0.00117067811600544 -0.0910418467626492 -0.0031389438145466
0.00119651420657279 -0.0905613155119677 -0.00333748346972984
0.00102619782839932 -0.0980940487191527 -0.00251778418220152
0.00103751430991185 -0.0982383299277994 -0.00243191488158179
0.00105275965907389 -0.0984777095572866 -0.0023300964439051
0.00107117472043117 -0.0986470269190572 -0.00225584020092281
0.00109201760513207 -0.0986238379664067 -0.0022405455700409
0.00111445394915788 -0.0983681285552174 -0.00229477231553534
0.0011372241986874 -0.0979365290565609 -0.00240561560166688
0.00115836780319987 -0.0974656088858867 -0.00253975879325521
0.00117538474109666 -0.0971302161331236 -0.00265249249925141
0.00106951829433714 -0.105442895329599 -0.0020415519910745
0.00107890926879739 -0.105492380885558 -0.00200541148790142
0.00109104946813876 -0.105617255525844 -0.00195883854513838
0.00110531076602364 -0.105701289504781 -0.0019259893243684
0.00112100324047517 -0.105659320654966 -0.00192440770547945
0.00113736783539798 -0.105463933467991 -0.00195990748692079
0.00115347751454345 -0.105154910093697 -0.00202492076420953
0.00116816735182533 -0.104828055459781 -0.00210042977319595
0.00118014430681495 -0.104607166355572 -0.00216128395697154
0.00111506212036737 -0.113579073747232 -0.00173590314183375
0.00112367648242203 -0.113565945591973 -0.00172706731805708
0.00113426770018534 -0.113604095781345 -0.00171076509308924
0.00114635432621017 -0.113620599374548 -0.00170051886207096
0.00115935831699509 -0.113562767568544 -0.00170611638911968
0.00117263132277887 -0.113414308432842 -0.00173069283207887
0.00118545388288705 -0.113200941564381 -0.00176975486145683
0.00119705065443013 -0.112983548181058 -0.00181235025128256
0.00120667041589398 -0.112841050584469 -0.0018441273235936
0.00116277438473213 -0.122291658796543 -0.0015842111834633
0.00117162994354461 -0.122243148416595 -0.00158825576795639
0.00118203508661114 -0.122217486503431 -0.00158613585610484
0.00119366385108917 -0.122180515343138 -0.00158638469060608
0.00120605556192925 -0.12210830312957 -0.00159512472641079
0.0012186352640437 -0.121994609138559 -0.00161422835816395
0.00123074589513976 -0.12185332253391 -0.00164069163878719
0.00124170369042554 -0.12171505982331 -0.00166740910695027
0.00125088238658851 -0.12161896437111 -0.00168512298029029
0.00121208298346345 -0.131315641862253 -0.00157828081520719
0.00122199714939024 -0.131246278506098 -0.00158510716463415
0.00123333365149892 -0.131168238942786 -0.00158587327482774
0.00124593865254977 -0.131083720267202 -0.00158815556234719
0.00125945664817881 -0.130995695364238 -0.00159737748344371
0.00127332012172546 -0.130907601074048 -0.00161518079811387
0.00128678673672054 -0.130822909348325 -0.00163886488293168
0.00129902703810976 -0.130744688262195 -0.0016620806402439
0.00130924926711136 -0.130675263033367 -0.00167655902864552
0.00126207813414115 -0.140354793680411 -0.00171915135847089
0.00127359992631938 -0.140262006328198 -0.0017194902683958
0.00128669807732121 -0.140127864202006 -0.0017127672958406
0.00130143826397708 -0.139991154487138 -0.00170933055921621
0.00131756919218449 -0.139882141330074 -0.00171665906127467
0.00133445824962592 -0.139814419927662 -0.00173712483976059
0.00135112189378346 -0.139781542561818 -0.00176721997332147
0.00136635719324761 -0.139759461002271 -0.00179847210602507
0.00137895081302432 -0.13971397855173 -0.00181979153433535
0.00131180342020756 -0.149112429251804 -0.00201734380249473
0.0013251436616886 -0.148976740892395 -0.00199922638078707
0.00134049830276815 -0.148767759890782 -0.00197166880802761
0.00135826080654795 -0.148563733529889 -0.00195250688664284
0.00137832017972673 -0.148424854278799 -0.00195475106021746
0.00139991034249448 -0.148376240877145 -0.00198272201609337
0.00142162622637467 -0.14840114315649 -0.0020307306265847
0.00144162356786315 -0.148446571308636 -0.00208457352966216
0.00145797195632942 -0.148439446293153 -0.00212553647583579
0.00136057920001583 -0.157322051006527 -0.00249326531624426
0.00137552947197424 -0.157111881365001 -0.00243810251483911
0.00139322696212938 -0.156798322259808 -0.00236903587605108
0.00141460223906272 -0.156504031291044 -0.00231858323805279
0.00143978604655394 -0.156323659524829 -0.00231051318493151
0.00146782283067724 -0.156295998100563 -0.0023529223079636
0.00149666311030579 -0.15639289394614 -0.00243594413774752
0.0015234650537355 -0.156528723458846 -0.00253427379852243
0.00154517610181896 -0.156587051235882 -0.0026142822269983
0.001408270912422 -0.164769823934769 -0.00317664118087334
0.00142410221782987 -0.164449681582692 -0.00305475502367327
0.00144370802090685 -0.163997831654024 -0.00291117770339514
0.00146891779566212 -0.163587288202445 -0.00280459355057423
0.00150030275692676 -0.163352809380724 -0.00277758186073036
0.00153668571132767 -0.163349527162729 -0.00284477517152714
0.00157509700787051 -0.163536374408698 -0.00298918604249871
0.0016112107117525 -0.163790324134306 -0.00316619798849967
0.00164026197329116 -0.163946055689049 -0.00331567665210911
0.00145537132302842 -0.171303821812161 -0.0041011410780911
0.00147072841308256 -0.170843951609283 -0.0038674399064039
0.00149115022734004 -0.170224926250758 -0.00359932785461618
0.00151992951004784 -0.169675403934898 -0.00339925917679645
0.00155839670850199 -0.169375663216732 -0.00334014497509101
0.0016051600881616 -0.169399843313265 -0.00344692099949966
0.00165601741918537 -0.169692548038814 -0.00369152574471275
0.00170453146058251 -0.170088824086645 -0.00399834618202391
0.00174337947789659 -0.170369493608786 -0.00426302100352423
0.00150266226192064 -0.176829569127421 -0.00528596808952998
0.0015155456987024 -0.176215138452642 -0.00487877146443819
0.00153497364089078 -0.175414342710451 -0.00441844687881837
0.00156646844514997 -0.174713757846834 -0.00407535875048876
0.00161253257704369 -0.174342166142201 -0.00396669924390686
0.00167161586287992 -0.174394452489408 -0.00413184229431078
0.00173800457756066 -0.174800356807589 -0.00452736542012201
0.00180246229341332 -0.17535080517104 -0.00503256527782195
0.0018540029986417 -0.175770651709215 -0.00547458513258557
0.00155011183316519 -0.181296072328352 -0.00669247328210744
0.00155818360570074 -0.180534566595423 -0.00604307977561141
0.00157436218399149 -0.179560942442503 -0.00531725969016239
0.00160720980805827 -0.178715839507213 -0.00477960367227663
0.00166077411099138 -0.178274039008621 -0.00460351896551724
0.00173343464133853 -0.178350625951612 -0.00484556457295756
0.00181785430353804 -0.17886183544404 -0.00544415242409202
0.00190149152812633 -0.179557432519671 -0.00622148048900437
0.00196854439950172 -0.180110122669078 -0.0069097631749492
0.00159492797954966 -0.184681260165649 -0.00815474180465663
0.00159648523685335 -0.18380724160124 -0.00721928777719035
0.00160765555678254 -0.18270074260697 -0.00618482084600163
0.00164046526421979 -0.181743218241972 -0.00542542587083056
0.00170059470639535 -0.181244532408011 -0.00517294781746594
0.00178641880412375 -0.181335813188702 -0.00550029488586564
0.00188916009229308 -0.181923855021244 -0.0063286417257634
0.00199302430910533 -0.18272796811439 -0.0074209245453565
0.00207681331391257 -0.183381685998265 -0.00839912007457671
0.00163011026529424 -0.18699092759415 -0.00933606411910812
0.00162569949736056 -0.186066038882846 -0.00814947744731231
0.00163212193328832 -0.184898973709126 -0.00684838922092713
0.00166430667061212 -0.183888103015645 -0.00590097136948671
0.0017291669673116 -0.183358618102114 -0.00558420647449207
0.00182506141065179 -0.183449658711043 -0.00598250124655972
0.00194222868187606 -0.184065169805924 -0.00700488678794435
0.00206247845566356 -0.184912619486926 -0.00836856190602652
0.00216012326566691 -0.185609707587712 -0.00960081769416772
0.000573466604293133 -0.0369602440697303 0.000204753967132366
0.000574316803626543 -0.0368887014706781 0.000197355034722222
0.000574957503767492 -0.0367936851632258 0.000188824650161464
0.000575547496068465 -0.0366939950744048 0.000179520482227179
0.000576208801324503 -0.03660490604083 0.000169867549668874
0.000577001252355195 -0.0365342979524811 0.00016030246480595
0.000577919841765339 -0.036480913474283 0.000151218406889128
0.000578910951003086 -0.0364352765032347 0.000142922743055556
0.000579897376042538 -0.0363829307087943 0.000135615061121143
0.00061678733463035 -0.041103699713769 0.000233258754863815
0.000614663469684167 -0.0410080045782234 0.000224076908298152
0.000611651779132555 -0.0408723942529883 0.000213248573441314
0.000608196558537731 -0.0407338446958725 0.000201328690893327
0.000604713025974026 -0.0406216958752279 0.000188961038961039
0.000601514399017448 -0.0405496956978297 0.000176784230394104
0.000598779199200069 -0.0405126108244568 0.000165346652107095
0.000596558807956267 -0.0404885096896893 0.000155048367270784
0.000594811381322957 -0.0404458619043881 0.000146118677042802
0.000657739733249052 -0.0449879527647961 0.000261883438685209
0.000652710336305008 -0.0448539977723201 0.000250691666215044
0.000646093562124006 -0.0446641473560055 0.00023720178242755
0.000638629894263699 -0.044475451668753 0.000222198608732876
0.000631051452830189 -0.0443332834223615 0.000206603773584905
0.000623950508133562 -0.0442584035889071 0.000191328788527397
0.000617705664902479 -0.044241463577902 0.000177142041706048
0.00061247462825168 -0.0442468900545007 0.000164580391014524
0.000608237536873156 -0.0442245860534286 0.000153919342604299
0.000695714141146069 -0.0485084308784299 0.000290004058113515
0.000687862158934313 -0.0483214607905305 0.000276635898024805
0.00067766379664626 -0.0480630703613897 0.000260160487090763
0.000666169256960948 -0.0478123757805318 0.000241622128434701
0.000654467795180723 -0.0476330934354005 0.000222289156626507
0.000643480018782949 -0.0475543829958179 0.000203434245329529
0.000633822549374501 -0.0475625667147177 0.000186126443971253
0.000625772881028939 -0.0476069683134798 0.000171090330730363
0.000619320794282775 -0.0476172702420815 0.000158659887398065
0.000730154600356124 -0.0515896986894584 0.000316938038466241
0.000719632273298825 -0.0513390425360702 0.000301343482948476
0.000705919477045563 -0.0510015473098248 0.000281667135937657
0.000690380849791627 -0.0506796358210494 0.000259228872269591
0.000674509857142857 -0.050457402875132 0.000235714285714285
0.000659622660124066 -0.0503738055291725 0.00021285869239797
0.000646630529994664 -0.0504107441367922 0.000192126193969185
0.000635955035833201 -0.0505012628037975 0.000174484376775609
0.000627584050461137 -0.0505537717958509 0.00016033089253538
0.000760481938826539 -0.0541844605618277 0.000341861867536535
0.000747560773800457 -0.0538676279335622 0.000324155483625286
0.000730523887323944 -0.0534484712514994 0.00030125281690141
0.000711032299005957 -0.0530521938477869 0.0002747393914183
0.000691020935483871 -0.052784129262206 0.000246774193548387
0.00067227255393953 -0.0526940429669176 0.000219655001250098
0.000656058836174944 -0.052759680148824 0.000195337249814676
0.000642975562833206 -0.0528976630923492 0.000175082901751714
0.000632997717565516 -0.052995600450998 0.000159348093807929
0.000786023149617824 -0.0562695846350473 0.000363744316148966
0.000771118152799461 -0.0558945413540608 0.000344225211999716
0.000751144912358983 -0.0554023193068966 0.000318338270629138
0.000728008590517241 -0.0549376407016002 0.000287889439655173
0.000704088748743719 -0.0546256338147898 0.000255527638190954
0.000681682219827586 -0.0545268816218562 0.000224179525862068
0.000662474686864509 -0.0546158444301871 0.000196362385078181
0.000647262121185779 -0.054794492410992 0.000173664370742266
0.000635998140022768 -0.0549325377984794 0.000156584192551633
0.000806023573845373 -0.0578428341648691 0.000381380392488581
0.000789674406807479 -0.0574275971556151 0.000360506485389089
0.000767390957405346 -0.0568829215200457 0.000332188118149316
0.000741235242387332 -0.0563665733818262 0.000298373309633742
0.000713974420560748 -0.0560187138423674 0.000262149532710279
0.000688403835254794 -0.0559090409211127 0.000227057956830865
0.000666631143943437 -0.0560103445620696 0.000196179106659688
0.000649660443858738 -0.0562143368069062 0.000171419472325359
0.000637424368973101 -0.056378713063695 0.000153300710539672
0.000819806867525939 -0.0589228219872732 0.000393602738358469
0.000802616840277778 -0.0584922785261036 0.000371921875000001
0.000778866104390522 -0.0579253903994016 0.000342011591830927
0.00075066617769439 -0.0573838264428197 0.000305868341038752
0.000721041077922078 -0.057014540875068 0.000266883116883118
0.00069317078612491 -0.0568925412771172 0.000229073346811751
0.000669513808652957 -0.0569911656605528 0.000195973180103892
0.0006512596875 -0.0571988555642939 0.000169744791666666
0.000638337962127334 -0.0573697973844972 0.000150923040497971
0.000931467838803218 -0.0758803494257492 0.000450626682806618
0.000919772303394571 -0.076358837336686 0.000431174444087558
0.000902940564065514 -0.0769635562899398 0.000403932501766398
0.000880081784377511 -0.0773888203703678 0.000369434911809033
0.000851790675 -0.07738765 0.00033
0.000820432945511326 -0.0768808655511572 0.000289433635659537
0.000789645987462011 -0.0759989580710947 0.000252010884726446
0.000763244699682353 -0.075025881847287 0.000221238185602487
0.000744141328782453 -0.0742829905917042 0.000199052770319267
0.000936391927686891 -0.0771570165744347 0.000450658472816754
0.000925210633680555 -0.0776652361111111 0.000431523263888889
0.000909197797400911 -0.0783073803920871 0.000404936376574395
0.000887393240894791 -0.0787647391622844 0.000371407221464887
0.000860238485389611 -0.0787804967532468 0.000333116883116883
0.000829897850641215 -0.0782709772184813 0.000293651090684609
0.000799845504153917 -0.0773684679321141 0.000257078851490784
0.000773853484375 -0.0763652777777778 0.000226810069444444
0.000754923026618826 -0.0755958410850229 0.000204815748326805
0.000943298282037726 -0.0793133966756894 0.00044873813229572
0.000932739350772562 -0.0798024922665575 0.000430203284870639
0.000917934963260342 -0.0804260896583971 0.000404974345258292
0.000897949482292581 -0.0808731528184573 0.000373547209868849
0.000873068103971963 -0.0808958014018692 0.00033785046728972
0.000845118076817126 -0.0804125014177265 0.000301021523666544
0.000817175152956844 -0.0795475679791621 0.000266658429932706
0.000792725392267296 -0.0785808684663249 0.000237870757414914
0.000774699082748266 -0.0778387676789037 0.000216580764676027
0.000953461382724833 -0.0824585296877541 0.000446147828915271
0.000943682052800348 -0.0828834852398524 0.000428489847963383
0.000930410687538571 -0.08343756812826 0.000405151284529967
0.00091280514762931 -0.0838358517241379 0.000376607543103448
0.000891015684045226 -0.083854938442211 0.000344472361809046
0.000866478779094828 -0.0834210362068965 0.000311323491379309
0.000841740466188865 -0.0826432920213837 0.000280148059762713
0.000819826027085403 -0.0817723337709339 0.000253620569294635
0.000803436380610668 -0.0811074024150268 0.000233523662384128
0.00096809986103946 -0.0866587889597015 0.000444386701442277
0.000959322176789794 -0.0869877636329018 0.000427837585681645
0.000947851018995552 -0.0874366123424759 0.000406693143068941
0.000932973877985145 -0.0877593500594874 0.000381391881697719
0.000914740487903226 -0.0877666048387097 0.000353225806451613
0.000894214135785319 -0.0873958036981318 0.000324213725633886
0.000873385973406227 -0.0867373568939955 0.000296716790214973
0.000854736973819497 -0.086002747029703 0.000272924028941356
0.000840615650005149 -0.0854506802643617 0.000254403337213257
0.000988087179554812 -0.0919352125265478 0.000444803286891678
0.000980593420866809 -0.092155182265506 0.000429507495198754
0.000971156410279868 -0.0924830892090949 0.000410627131951843
0.000959202634595349 -0.0927182713163441 0.000388551743030273
0.000944716589285714 -0.0927089642857143 0.000364285714285713
0.000928444448789878 -0.0924051718480552 0.000339360692302166
0.000911867470768197 -0.0918780957998848 0.000315579538141315
0.000896916194331831 -0.0912968290131594 0.000294664645077162
0.000885516643718366 -0.0908728248285399 0.000277927782106701
0.00101376318170905 -0.0982590975342521 0.00044837165548987
0.00100788191461874 -0.0983762126090951 0.000434361667432246
0.00100070839409768 -0.0985864033670482 0.000417615956880489
0.000991800005881325 -0.0987353742230113 0.00039847484415432
0.000981103242469879 -0.0987082740963855 0.000377710843373493
0.000969110772930844 -0.0984675422723444 0.000356468782081449
0.000956867157073463 -0.0980666119377163 0.000336097112057492
0.000945792651642168 -0.0976336213367019 0.000317912103812586
0.000937369854099709 -0.0973316973617451 0.000302964398998549
0.00104485005325537 -0.105544030615255 0.000455622334597557
0.00104093603313326 -0.105578957782354 0.000442816828799047
0.00103627004416507 -0.10568814253977 0.000427925345097122
0.00103052218889127 -0.105761332705479 0.000411250749143835
0.0010236159504717 -0.105717627358491 0.000393396226415094
0.00101584280982449 -0.105530990068493 0.000375221853595891
0.00100788216081919 -0.105239342196609 0.00035773083076928
0.00100070034533519 -0.104933725883373 0.000341911113971385
0.000995347883006742 -0.104731487505268 0.000328574884112936
0.00108044945282101 -0.113638362840467 0.000466670428015566
0.0010788555255394 -0.113618174545918 0.000454885555064466
0.00107695779658943 -0.113648690936722 0.000441459494663082
0.00107451619502493 -0.113660022618575 0.000426678725210418
0.00107143374512987 -0.113601665584416 0.000411038961038961
0.001067834044987 -0.113458026057508 0.000395208353502149
0.00106408523529371 -0.113253829630418 0.000379945279788507
0.00106075089101282 -0.113047481685132 0.000365989169366598
0.00105847353453307 -0.112914611867704 0.000353952140077821
0.0011191090867874 -0.122324573047751 0.000481286406059218
0.00112015106394676 -0.122273411265432 0.00047025094521605
0.00112128506068353 -0.122244881431647 0.000457823143164693
0.00112233764401591 -0.122206088137638 0.00044430105553046
0.00112318357698676 -0.122134004966887 0.000430132450331126
0.00112379141290811 -0.12202266515009 0.000415875997436411
0.00112424742343918 -0.121885510925727 0.000402133799784714
0.00112474524739583 -0.121752091049383 0.000389471277006173
0.00112553990481684 -0.121660152014889 0.000378344565687274
0.00115895941716867 -0.131330346385542 0.000498981927710844
0.00116288069103774 -0.131261325471698 0.000488353773584907
0.00116729129383117 -0.131183691558442 0.000476399350649352
0.00117206457864238 -0.13109967384106 0.000463461920529801
0.001177031375 -0.13101225 0.00045
0.00118199817135762 -0.13092482615894 0.000436538079470198
0.00118677145616883 -0.130840808441558 0.000423600649350649
0.00119118205896226 -0.130763174528302 0.000411646226415094
0.00119510333283133 -0.130694153614458 0.000401018072289156
0.00119791597740148 -0.140351851558057 0.00051909990879996
0.00120486129272762 -0.140262423765432 0.000508486747685186
0.00121275652785253 -0.14013202416577 0.000496441872981701
0.00122150760943306 -0.139998256722145 0.000483392273666048
0.00123087917301325 -0.139890495033113 0.000469867549668874
0.00124048883364292 -0.139821989990127 0.000456430673367079
0.00124983648802476 -0.139786583476857 0.000443601184068893
0.00125836789592978 -0.139761073919753 0.000431791030092593
0.00126556053099428 -0.139712423379303 0.000421269119453549
0.00123392530885214 -0.149084711478599 0.000540899221789884
0.00124393000681218 -0.148956856280716 0.000529887684678024
0.00125547214978728 -0.148756582231627 0.000517173689032254
0.00126848220557291 -0.148559228253802 0.000503309899577358
0.00128262900487013 -0.148422834415584 0.000488961038961039
0.00129729305441516 -0.148371723070115 0.000474803021710076
0.00131161031832957 -0.148389897201233 0.000461421536516153
0.0013245890766356 -0.148426487488234 0.000449237590890912
0.00133527720379377 -0.14841131381323 0.00043847821011673
0.0012652185602086 -0.157254839043405 0.000563618626211546
0.00127821244260107 -0.15706009126382 0.00055181422745502
0.00129351667850687 -0.156763655743042 0.000537871987255443
0.00131108359770976 -0.156482430479452 0.000522512392979452
0.0013304467995283 -0.156306872641509 0.000506603773584906
0.00135067690357449 -0.156274246746575 0.000491015004280823
0.00137045661650886 -0.156357859520579 0.000476471836878155
0.00138827667893047 -0.156476225070453 0.000463457829774549
0.00140270900352929 -0.156518642836073 0.000452184155077959
0.00129053763399932 -0.164641294916555 0.000586502246440074
0.00130635611765044 -0.164349268373909 0.000573578571428571
0.00132548688704418 -0.163928610234229 0.000557915557625765
0.00134790577575072 -0.16354183219584 0.000540438039181817
0.00137295950753012 -0.163316225903614 0.000522289156626506
0.00139930894543711 -0.163304251308804 0.000504618334582412
0.00142506306178467 -0.163467374461006 0.000488371373436253
0.00144809481608865 -0.163689897680294 0.000474147657326596
0.00146645483019192 -0.163816910187448 0.000462161699071506
0.00130931191151454 -0.171086661707371 0.000608776932334035
0.00132770634395881 -0.170674822058456 0.000594527722931202
0.00135065824305048 -0.170109030696118 0.000576777561807856
0.00137817259801027 -0.169599956624832 0.000556677820822954
0.00140934616071429 -0.169315535714286 0.000535714285714285
0.0014423058186045 -0.169325600210768 0.000515409743844606
0.00147444337590145 -0.169578784294902 0.000497015768098986
0.00150290954084255 -0.169922166662879 0.000481300136792881
0.00152520976521228 -0.170154300937541 0.000468491998667584
0.00132177288615837 -0.17649556139021 0.00062959279244325
0.00134241860786367 -0.17595768960396 0.000613974980959635
0.00136907379067828 -0.175241576908821 0.000593964899925871
0.00140178169350531 -0.174604988255554 0.000570937967169865
0.00143932226209677 -0.17425789516129 0.000546774193548387
0.00147915579272422 -0.174288857986827 0.00052345642549853
0.00151781471691994 -0.174633453854707 0.000502625166790214
0.00155164774152704 -0.175100799733435 0.000485263404417364
0.00157763710279702 -0.175443969385727 0.000471617168901215
0.00132898127848024 -0.180826602480078 0.000647970043909579
0.00135149198121718 -0.180177553682941 0.00063112112812234
0.00138156014509644 -0.179327819322857 0.000608933933730616
0.00141927524676724 -0.178575574137931 0.000582973060344827
0.00146304706595477 -0.178169561557789 0.000555527638190955
0.00150956632650862 -0.178216537931035 0.000529095905172413
0.00155441420117613 -0.178640320527499 0.000505766721976704
0.00159312543889707 -0.179215627306273 0.000486768454619642
0.00162224645818426 -0.179656465417141 0.000472358464791022
0.00133270804079259 -0.18408502570631 0.000662824682794789
0.00135666702323703 -0.183360067023795 0.000645040258986997
0.00138963221700227 -0.182416809367056 0.000621046457634661
0.00143173335040577 -0.181580474099935 0.000592531704104467
0.00148099464602804 -0.181128698598131 0.00056214953271028
0.00153332459048452 -0.181182871663881 0.000532899562360138
0.00158338316678054 -0.181658532995385 0.000507320767174343
0.00162599373372311 -0.182305572243322 0.000486885698727448
0.00165742009442142 -0.182811809939097 0.000471856420233462
0.00133510066973239 -0.186320854849665 0.000673138267001416
0.00136010337673611 -0.185569355555556 0.000654812152777778
0.00139521098497652 -0.184591111666548 0.000629644894328613
0.00144055686615676 -0.183719386596938 0.00059936804268624
0.00149382426461039 -0.183244003246753 0.000566883116883118
0.00155027754230724 -0.183293897022296 0.000535573645164263
0.00160387121346865 -0.183782040009251 0.000508339877606204
0.00164895800520833 -0.184449130555556 0.00048685451388889
0.00168170987596189 -0.184975287490877 0.000471387511855022
0.000533418977653375 -0.0369848252919807 0.00137785989167579
0.000523243925828344 -0.0369109367150832 0.00136087107021988
0.000510861009965468 -0.0368131916335506 0.00133768526182871
0.000496708624430207 -0.0367110271458291 0.00131574797400448
0.000481422853395249 -0.0366202212063337 0.001300777451891
0.000465822738152185 -0.0365488876855213 0.00129518641451842
0.000450877055682341 -0.0364956801428724 0.00129746908195153
0.000437628262919251 -0.0364507408903419 0.00130271300844682
0.000427061747403067 -0.0363990577912171 0.00130409315277844
0.000583911380564493 -0.041132734477694 0.00177360696036176
0.000569325127361409 -0.0410332511856612 0.00173935522416205
0.000551214861636646 -0.0408933965220957 0.00169562933793547
0.000530350315935382 -0.040751530789699 0.00165667312065003
0.000507750339853302 -0.040638027852937 0.00163335192185046
0.000484648109830132 -0.0405670283510417 0.00163010288093263
0.000462463459376487 -0.0405329496458751 0.00164379560987979
0.000442724994789517 -0.0405128482690424 0.00166472757165144
0.00042689063968111 -0.0404737973811892 0.00167954762479998
0.000633962588698811 -0.0450301195236169 0.00227324965589504
0.000614022207492061 -0.0448893379804999 0.00220785155838658
0.000588729187783955 -0.0446919268782469 0.00212802023718853
0.00055918376334972 -0.044497626556302 0.00205989889681866
0.000526823551802222 -0.0443537690212657 0.00202326894270658
0.000493401899672942 -0.0442818178204696 0.00202600485379031
0.000461017044175066 -0.0442717100726947 0.00206209256968765
0.000432058215812611 -0.0442858789658079 0.00211339897750075
0.000408923534385352 -0.0442714637055941 0.00215502611723409
0.000684110512875746 -0.0485754187769972 0.00290421457180964
0.000657858552854649 -0.0483760946454991 0.00278516737979364
0.00062379151690042 -0.048104034407131 0.00264402069182224
0.000583333415872412 -0.0478432667688968 0.00252728104289514
0.000538343853307917 -0.0476610001582124 0.00246965789019482
0.000491165259900487 -0.047587623662085 0.00248463759230299
0.000444817513403607 -0.0476082195468507 0.00256133521836373
0.000403055232303013 -0.0476685842909518 0.00266733075391513
0.000369932178337784 -0.0476933910982672 0.00275781079330534
0.000735031319050184 -0.0516956302677959 0.00369566796055628
0.000701569428115471 -0.0514236257973822 0.00348897958069756
0.000657108320493742 -0.0510624632195898 0.00324854872102396
0.000603380537278504 -0.0507230258565363 0.00305434215878504
0.000542591738853172 -0.0504952263503283 0.00296465296576424
0.000477628822415259 -0.0504200386387595 0.00300153272047568
0.000412626127647944 -0.0504774175699333 0.00314647773302271
0.000353348510080608 -0.0505946418913214 0.0033442978973719
0.000306602537029273 -0.0506716082405421 0.00351727707105
0.000786977283343853 -0.0543438686224179 0.00466477206025255
0.000745572246776191 -0.0539925716353576 0.00432431387039973
0.000689300503192511 -0.0535351501507758 0.00393370495566019
0.000620195842883954 -0.0531104368421493 0.00362435191306625
0.000540611443596497 -0.0528327137021453 0.00348858580625459
0.000453722990965057 -0.0527547725813779 0.00356022780031352
0.000364788898246769 -0.0528515929359679 0.00381013192378249
0.000282275760940515 -0.0530311281350205 0.00415004130975845
0.000217285109794216 -0.0531674692672916 0.00445147572082106
0.000838750959001564 -0.0564924711961535 0.00578411067181764
0.000789035673531756 -0.056066303603606 0.00525889654500291
0.000720190470179889 -0.055517354744906 0.00466356070905951
0.000634574215539965 -0.0550105471310324 0.00420051093900729
0.000534368038794408 -0.0546835128718548 0.00400498383622813
0.000422534561908214 -0.0546009104331916 0.00412464819072005
0.000305141343854198 -0.0547336814653788 0.00451772052769927
0.000193830634646902 -0.0549719762078763 0.00505409236744054
0.000105751151551586 -0.0551657686281559 0.005535060807581
0.00088635778160909 -0.0581260797347565 0.00692969865497222
0.0008287594631539 -0.0576426505913845 0.00618774842836539
0.000747985392744877 -0.0570225250598033 0.00535642529529778
0.000646750378199816 -0.0564503563544919 0.00472036888988097
0.000526735078209654 -0.0560819265866358 0.00445919982014493
0.000390129328064174 -0.0559918075647108 0.00463368882031391
0.000243223115108157 -0.0561488202147938 0.00519006987451338
0.000100724993763106 -0.0564302808347903 0.00595483580603088
-1.30606470938511E-5 -0.0566679926602356 0.0066478502928244
0.000922466039213106 -0.0592417388548814 0.00784877432616709
0.000858873139901791 -0.0587316608297462 0.00691743145321249
0.000769101430189257 -0.0580770377881716 0.00588342003144104
0.000656145470400667 -0.0574708011540611 0.00510182697778128
0.000521084031885706 -0.0570771953100904 0.00478639932483881
0.000365177622496377 -0.0569764434896534 0.00500711182143899
0.000194513453550582 -0.057137876911474 0.00570183064275256
2.60364089015203E-5 -0.0574343773320446 0.00666364625858437
-0.000109700370894793 -0.0576903910183567 0.00754260112847015
0.00103532125819869 -0.0748827655020209 0.00834480245589144
0.000977188676385196 -0.0755817922537005 0.00734338695129529
0.000893473655372241 -0.0764208027652915 0.00623588535130484
0.000783494594752393 -0.0770139808299119 0.00540244209290734
0.000645117943791208 -0.0770714705258265 0.00506745684029525
0.000478135720139851 -0.0765023186962341 0.00530348632426736
0.00028971431857209 -0.0754502007118739 0.0060463346111169
0.000100672851227041 -0.0742439206218229 0.00707879060745902
-5.20938047683509E-5 -0.0732866556599941 0.00802599813485636
0.0010310159136643 -0.0761572950446003 0.0079740094018474
0.000975508187039647 -0.0768832473100997 0.00705217565441718
0.000895737479644879 -0.0777576843327505 0.00602965708005998
0.000790894461652639 -0.0783822784769417 0.00525711237024178
0.000659049229508883 -0.0784568695174694 0.00494481986785167
0.000500298808463604 -0.0778856666258726 0.0051614839350386
0.000321841162391787 -0.0768143096328618 0.00584636089393395
0.000143608283105313 -0.0755802000056578 0.00679605680289054
-2.01360698973338E-8 -0.0745988966999195 0.00766498320084327
0.00101658621616821 -0.0784237458387254 0.00708867269682043
0.00096662789381041 -0.0790977079759642 0.00635627414239865
0.000895368215032655 -0.0799202918625719 0.00553647481067858
0.000801893028213477 -0.0805123721681395 0.00490945337877984
0.000685008467477976 -0.0805869463983231 0.00465133709883013
0.000545788804773513 -0.0800509942063647 0.00482162193303286
0.000391576017813777 -0.07904124296059 0.00536794517910907
0.000239925926929321 -0.0778779198516563 0.00612034484435432
0.000118795995274756 -0.0769564596690648 0.00680308602672871
0.00100069723958486 -0.0817419925640921 0.00599431193438604
0.000957640418377203 -0.0823054040974793 0.00547800730089464
0.00089720082377041 -0.0830099940126415 0.00489339068123006
0.000818509642728044 -0.0835197000622737 0.00443867520001209
0.00072119239762931 -0.0835796954741379 0.0042458224137931
0.000607214711560414 -0.0831063969102259 0.00436131257395579
0.000483566553502666 -0.0822193076585374 0.00474468257851528
0.000364411060955381 -0.0812011724439141 0.00526915520801805
0.000270146326443873 -0.080402817727593 0.00574016863860834
0.000990712899657796 -0.0861252427213763 0.00494747520465905
0.000954733888672396 -0.0865482897974218 0.00461481736390457
0.000905464226752493 -0.087100267961625 0.00423352229454685
0.000842230462819927 -0.0875005690867302 0.00393128852714563
0.00076525020813145 -0.0875371719055789 0.00379757422558647
0.000676859194473513 -0.087140053611542 0.00386516784547267
0.000583067993514343 -0.0864073271901667 0.00410608895267566
0.00049443280331694 -0.0855733971804769 0.00443501573504414
0.00042477602490685 -0.0849316934762199 0.0047271350306961
0.000990399980192148 -0.0915623623904448 0.0040767847170483
0.000961158988574923 -0.0918415778216032 0.00387655135089571
0.000922314719888628 -0.092234886912663 0.00364366770893054
0.000873440553030598 -0.0925199827529538 0.00345502923359709
0.000815047364548405 -0.0925302268963164 0.00336657724180878
0.000749344928066663 -0.0922105103877781 0.00339953177389449
0.00068103755073051 -0.0916371932990335 0.00353635685192165
0.00061752040093967 -0.0909942752582013 0.00372428668677567
0.000567756447956204 -0.090514787596535 0.00388865520398967
0.00100042773154036 -0.0980135292453978 0.00341540790432894
0.00097745328031459 -0.0981656811504566 0.00330140470406072
0.000947886191015823 -0.0984148012572862 0.003165824438824
0.000911508556181469 -0.0985938971561424 0.00305286373807489
0.000868893173680096 -0.098579078528949 0.00299548919627667
0.000821850634986936 -0.0983295698881489 0.00300659051710444
0.000773793418465658 -0.0979019611152343 0.00307602695544921
0.000729666909850559 -0.0974333572441238 0.0031732127179556
0.000695134771546554 -0.0970994624825415 0.00325565145502977
0.0010195450527576 -0.105393545474552 0.00295319084325733
0.00100237516497883 -0.105448005803263 0.00289138186423816
0.000980913579027394 -0.105579042082016 0.00281488667674592
0.000955075800163796 -0.105669380846404 0.0027484659640029
0.000925361758240582 -0.105633002119007 0.00271088030821918
0.000893107281814905 -0.105442000353268 0.00270968672426613
0.000860633789983077 -0.105136077213214 0.00273936218757811
0.000831118171088759 -0.104811296508139 0.00278291806394127
0.000808061526852465 -0.104591910589741 0.00281688592579131
0.00104544357983245 -0.113557353393354 0.00266941113017903
0.00103366125578787 -0.113547269617839 0.00263697900035235
0.00101927774383671 -0.113589158302595 0.00259375604539596
0.00100226661897021 -0.11360954734944 0.00255383602357629
0.000982991923016833 -0.113555281107539 0.00252800346783224
0.000962345177599022 -0.113409777557847 0.00252074285514482
0.000941799878076519 -0.113198672509544 0.00252909866183718
0.000923298400888818 -0.112982940764443 0.00254362497408193
0.000908930590906753 -0.112841707042479 0.00255122275554617
0.00107524416807428 -0.122295927259707 0.00254688586292378
0.00106848031384738 -0.122249105159627 0.00252884577128854
0.00106034696001771 -0.122225452589917 0.00250183314242255
0.00105081107336323 -0.1221906077955 0.00247497771019918
0.00104007349499477 -0.122120450158158 0.00245530177937766
0.00102864345489047 -0.122008598893985 0.00244580331633744
0.00101735684468912 -0.121868864652698 0.00244469417593846
0.00100730029467551 -0.121731842170459 0.00244601325459359
0.000999631584566462 -0.121636693334628 0.0024414278223822
0.00110577791070184 -0.13134607075181 0.0025764017106876
0.00110371246189024 -0.131277283689024 0.0025619550304878
0.00110121007066522 -0.131199828271228 0.00253877731651298
0.00109816968686692 -0.13111599384387 0.00251513582780301
0.00109460610182119 -0.131028804635762 0.00249737748344371
0.00109069703885784 -0.130941684814879 0.00248820053265805
0.00108679504111532 -0.130858023437661 0.00248596084124644
0.00108338885060976 -0.130780749542683 0.00248523277439024
0.00108101533872334 -0.13071202435257 0.00247843813316511
0.00113379037805195 -0.14041333966045 0.00275769127294098
0.00113617067285708 -0.140319942274874 0.00273676555784135
0.00113889602386939 -0.140184891791571 0.00270589013208517
0.00114172030697534 -0.140047415590481 0.00267627872099925
0.00114442725089149 -0.139938105382198 0.0026564820083078
0.00114688053603509 -0.139870678823537 0.00265000870021097
0.00114905021856822 -0.139838575164649 0.00265439731360791
0.00115100896508289 -0.139817434824667 0.00266200266560405
0.0011528991508212 -0.139772644345421 0.00266227209831287
0.00115611955087685 -0.149202939773376 0.00309984474574248
0.00116281080124683 -0.149065014011487 0.0030596170050299
0.00117061102355587 -0.148853142856035 0.00300650018340224
0.00117900659653141 -0.14864653044215 0.00295946092370948
0.00118745508026135 -0.148506097045118 0.00293286398150489
0.00119547580886788 -0.148457262436139 0.00293240079445545
0.00120271624231568 -0.148483085938828 0.00295356449852299
0.00120898617567258 -0.14852996963217 0.00298299650032471
0.0012142493655856 -0.148523999914134 0.00300243211229019
0.00116985497712078 -0.157450507333468 0.00362184222500866
0.00118093072596041 -0.157235551780922 0.00354289124910569
0.00119397975316886 -0.156916082185147 0.00344567654437222
0.00120801035204137 -0.156616563599426 0.00336420861114274
0.00122197445473031 -0.156433017701199 0.00332404058219178
0.00123495389481835 -0.156404802836522 0.00333504105789381
0.00124630682270329 -0.156503416694135 0.00338881391445026
0.00125575579163954 -0.156642104738491 0.00346102639717379
0.00126337154028226 -0.156702872674657 0.0035184644972313
0.00117249784078853 -0.16494463380314 0.00435203755753962
0.00118836584049808 -0.164615582349339 0.00420396560473651
0.00120727914572329 -0.164153018790401 0.00402856597612476
0.00122741330210766 -0.163733191742133 0.00388647231409652
0.00124691196426107 -0.16349327412392 0.00382263823449459
0.0012642463301451 -0.163489370374127 0.00385405466928367
0.00127850335825657 -0.163679774160508 0.00396565842106785
0.00128956992664268 -0.163939434725397 0.00411404366025711
0.00129807520091542 -0.164100229992826 0.00423949759753705
0.00116221919220497 -0.171535865159517 0.00532272784934791
0.00118375220381782 -0.171060547715277 0.00505993354571146
0.00120969908933156 -0.170423280637077 0.00475544320685183
0.00123684743378015 -0.169858289471702 0.00451419753366932
0.00126208170811279 -0.169549893618869 0.00441223253975857
0.00128299984523943 -0.169573793308805 0.00447762623910006
0.00129842271656609 -0.16987347311248 0.00468487364935352
0.00130876924126116 -0.170280521812108 0.00495992476753104
0.00131594692993035 -0.170570912560834 0.00519887710693606
0.00113845424470836 -0.177131263621355 0.00655156867837116
0.00116703229929759 -0.176491559133877 0.00611215947727241
0.00120172329324122 -0.175661337297919 0.00561035852468352
0.0012371600529587 -0.174936327929726 0.00521960249499968
0.00126840490918584 -0.17455168010018 0.00506109363657525
0.00129185546497004 -0.17460461060778 0.00517831508409288
0.00130604440295848 -0.175023033570379 0.0055312051355045
0.00131238931744506 -0.175592319390119 0.00600108420056807
0.00131511352030118 -0.176029322261714 0.00641561539612118
0.001103180971103 -0.18167809310036 0.00799793786939326
0.00114042349180081 -0.180877855540883 0.00731335709734758
0.00118571137292265 -0.179859719866786 0.0065409235518098
0.00123068238027102 -0.178978439695493 0.00594888030293645
0.00126806746228448 -0.178518073060345 0.00571558793103448
0.00129277065508999 -0.178596893636988 0.00590279249160825
0.00130296473548204 -0.179128422856957 0.00645318979421574
0.00130149508168566 -0.17985419603696 0.00719154222962303
0.00129610090481253 -0.180434572870379 0.00785066803967198
0.00106288662354336 -0.185145510393292 0.00949333213973868
0.00110973477193855 -0.184217044336104 0.0085202423352475
0.00116650166935927 -0.183048754624384 0.00743466255362552
0.0012213284670233 -0.182041968208386 0.00661482184012881
0.00126446323449494 -0.181518813355805 0.00629837908393054
0.00128923408203874 -0.18161435908673 0.0065644661794858
0.00129335446188255 -0.18223178710361 0.00733946054936481
0.00128124222809821 -0.183079384305296 0.00838941715525666
0.00126496461785536 -0.183773313411633 0.00933702620559904
0.00102961206555505 -0.18752118970335 0.0106980263488811
0.00108475128510136 -0.186528150262334 0.00947225328180521
0.00115121941473751 -0.185284501955136 0.008116978789817
0.00121411155667547 -0.184213428415358 0.00710481285277433
0.00126166744115239 -0.18365466551712 0.00671914816234258
0.00128593073194161 -0.183751778483098 0.00705139944310221
0.00128415919734002 -0.184404428472149 0.00801653369397608
0.00126203479418898 -0.185306895662127 0.00933533311739146
0.00123551750964788 -0.18605521055287 0.0105359289018203
0.000494707149604785 -0.0370336473032122 0.00249805582024138
0.000473988390582484 -0.0369544733730799 0.00247262931045067
0.00044915974562073 -0.0368505742463206 0.00243622729155068
0.000420948340453963 -0.0367431521906073 0.00240279911521214
0.000390500100122634 -0.0366493447982718 0.00238292518861853
0.00035936699181148 -0.0365778436379858 0.00238083867611846
0.00032943829226096 -0.0365269612659819 0.00239329942457941
0.00030277465622672 -0.0364856859425098 0.00241061481174484
0.000281333584760345 -0.0364373856853459 0.00241952611242947
0.000552697058052642 -0.0412185055774172 0.00323619660421408
0.000526165554224093 -0.0411079155750493 0.00317920921220966
0.000493573084339292 -0.0409553861328831 0.00310537525856898
0.000456047235733652 -0.0408034019946182 0.00304155346698504
0.000415226804709448 -0.0406854258927193 0.00300804066757937
0.000373247636630197 -0.0406167946510838 0.00301278848593445
0.000332708869249541 -0.0405909483630418 0.00304929105714945
0.000296510247102184 -0.040582050164681 0.00309855331670198
0.000267475886051825 -0.040553185226859 0.00313473564454205
0.000612537565392148 -0.0451766651773423 0.0041707012391918
0.000578278541014404 -0.045014392720874 0.00405568983000722
0.000534994944368315 -0.0447926172252159 0.0039148076661364
0.000484223485716742 -0.0445791966865117 0.00379761123152888
0.000428167006204534 -0.0444274360431104 0.00374133029887702
0.000369747044100454 -0.0443610465069883 0.00376029986670075
0.000312711197364097 -0.0443680304727536 0.00384226596641829
0.00026152645418083 -0.0444051582151246 0.00395188060917061
0.000220792752879477 -0.0444116970183146 0.00404105851976504
0.000676168136690072 -0.0488168500988754 0.00535323886174435
0.000632211059853504 -0.0485782597393372 0.00513714624673093
0.000575008587196154 -0.0482617574860176 0.00488090326578514
0.000506516632041072 -0.047966243998843 0.00467312609120643
0.000429513651323746 -0.0477696289052889 0.00457960640148505
0.000347833507967028 -0.0477062513050333 0.00462521889246396
0.00026684072097867 -0.0477578001844832 0.0047880285391445
0.000193556626984808 -0.0478599885966258 0.00500492007003682
0.000135752155391958 -0.0479231755259907 0.00518937356750496
0.00074587945905965 -0.0520747075023544 0.00683919378361217
0.000690299275762774 -0.0517351556671815 0.0064568728784104
0.000615768478063926 -0.0512974787420679 0.00601200417072821
0.000524688644157884 -0.050898301811829 0.00565787292078146
0.000420294787477598 -0.0506454717879018 0.00550584833226703
0.000307250237066577 -0.050586421705425 0.00559709704683656
0.000192923923564786 -0.0506956431512055 0.00589449191337794
8.81846079265637E-5 -0.0508837152181434 0.0062903941126662
6.13917394824115E-6 -0.0510260278884 0.00663448413852315
0.000823227432273093 -0.0549061625470828 0.00866260548055065
0.000754322691397622 -0.0544462974598273 0.00802565637769074
0.000659229067285906 -0.0538656746841917 0.00729313505254045
0.000540894601975976 -0.0533450072474933 0.00671881704153087
0.000402698013346584 -0.0530264691406664 0.00648079596002512
0.000249661251689283 -0.0529725439429428 0.00664298001847173
9.12258076808676E-5 -0.0531501612563494 0.00714679700995482
-5.64263317449049E-5 -0.0534416844484716 0.00781920897264978
-0.000171738073566772 -0.0536818518906094 0.00841060968490526
0.000906775152207139 -0.0572714291385303 0.0107748080464096
0.000823462154679077 -0.0566843284330896 0.00978575320567388
0.000705584395474876 -0.0559524986570675 0.00865818206285055
0.000556873064144602 -0.0553038908621117 0.00778660539136691
0.00038035467505402 -0.0549157830723912 0.00743490543741093
0.000180477220825099 -0.0548659559648047 0.00769429328496358
-3.17713605262895E-5 -0.0551146416761841 0.00848024235192629
-0.000233732160716574 -0.0555162373269911 0.00953544860706441
-0.000391714800822023 -0.0558623673820616 0.010471163980554
0.000988708374108413 -0.0591155020277281 0.0129427418777048
0.000891397670996675 -0.0584166857103799 0.0115412374984559
0.000751135003941244 -0.0575516893393418 0.00995555878909575
0.000572713662803867 -0.0567906824570155 0.00874601252268504
0.000358312814502133 -0.0563400571819892 0.00826750468650016
0.000110760837706507 -0.056290235017931 0.00863775363833792
-0.000158462545918153 -0.0565973197042023 0.00974690530780027
-0.000420138097401512 -0.0570938448020535 0.0112481385924753
-0.000625888785560737 -0.0575336855726282 0.0125887604448561
0.001052884549201 -0.0603660498722317 0.0146808670132904
0.000944849499418381 -0.059602994148551 0.0129214810138973
0.00078731812087004 -0.0586606233113536 0.0109420062840463
0.000586068806422509 -0.0578332141471323 0.00944672991908442
0.000342312961860186 -0.057342277615294 0.00886248398920834
5.70122956205474E-5 -0.057285216003551 0.00932621462256043
-0.000258637496525126 -0.0576178589988897 0.0107096810745894
-0.00057037328421962 -0.0581633651275912 0.0125952976846551
-0.000816760047454324 -0.0586551597801599 0.0142879871853521
0.00115430417645351 -0.0724707139802224 0.0155287710083996
0.00105537538664177 -0.0737205430308789 0.0136482925208634
0.000906586477698412 -0.0751544987740524 0.0115360217316305
0.00070815226259103 -0.0761707651685559 0.00994511193345423
0.000456745411933365 -0.0763608857510223 0.00932509630747973
0.000151208219883722 -0.0756008565231829 0.0098186643412193
-0.000195766299119078 -0.0740715763588854 0.0112924502572327
-0.000543623493824649 -0.0722288079847146 0.0133067419077573
-0.000819680151338416 -0.0707030069569555 0.0151181007597841
0.00113891587236522 -0.0737237446775869 0.0148360386342995
0.00104424999550135 -0.074997341434707 0.0131012214645753
0.000902586208952959 -0.0764646969472803 0.0111505097932193
0.000713830900407 -0.0775127343037097 0.00967743993450246
0.00047498803350708 -0.0777219235145521 0.00910120301714936
0.000185466047793847 -0.0769627748891465 0.00955609196417192
-0.000142133772368186 -0.0754184066967202 0.0109166884264005
-0.000469403626739531 -0.0735531875661173 0.0127731198230637
-0.000728965599576846 -0.072007695566954 0.0144409743236069
0.00109907728235344 -0.076257968432652 0.0131562158066002
0.00101397676702914 -0.0773985677443866 0.0117788836944396
0.000888326225654607 -0.0787286902371946 0.0102215227201892
0.000721533799751222 -0.0796870115067064 0.00903388569015569
0.00051182856983393 -0.0798802526644036 0.0085632239224318
0.000260551053544109 -0.0791840952311482 0.00892456835081901
-1.95014705034219E-5 -0.0777697855910965 0.0100109262115714
-0.000295233136650413 -0.0760696992517643 0.0114832050088367
-0.000512806497017025 -0.0746690081031755 0.0127991813007884
0.00105305745641924 -0.0800057891586154 0.0110797474272859
0.00097995517646402 -0.0809188787676501 0.0101126178277326
0.00087446512232582 -0.0820056133782586 0.00901070090569083
0.000735783576047614 -0.0827946293919375 0.00815898035703363
0.000563520263304226 -0.0829471308911404 0.00781427240596578
0.000360802586766546 -0.0823534825182295 0.00806527538043139
0.000139751191218408 -0.0811617147340662 0.00883014325067905
-7.3643255638398E-5 -0.0797424628404813 0.0098587105424453
-0.000241086624139408 -0.0785864926188925 0.0107716818747041
0.00101566366699096 -0.0848425603414079 0.00909735449112532
0.000954813668090798 -0.0855027159377786 0.00847920081175504
0.000869680238262079 -0.0863148009763564 0.00776850368145435
0.000759622348090181 -0.0869075602536954 0.00721098076330229
0.000625256242123795 -0.0870093775389177 0.00697865974796145
0.000470504366786006 -0.0865308424922065 0.0071332738246325
0.000305701237012431 -0.0855911294500716 0.00761858331483796
0.000149688354612868 -0.0844865504568729 0.00826768832725863
2.76611871176202E-5 -0.0836036781752971 0.00883898343446831
0.000993642881825714 -0.0906750516272342 0.00744956084878638
0.000944292357029951 -0.0911029081988026 0.00708278471753042
0.000877644591918975 -0.0916598005241948 0.00665557342951125
0.000793384918518887 -0.0920672345654342 0.00631479336021856
0.000692625379960066 -0.0921199178641746 0.00616695641549418
0.000579151531406179 -0.091749687680404 0.00625148673053725
0.000460973977973183 -0.0910469551193801 0.00653314972785345
0.000350949283991591 -0.090235600308639 0.00690924061098962
0.000264913391929886 -0.0896060494404518 0.00723582525741085
0.00098755596556833 -0.0974355642359601 0.00619550214707464
0.000948627822573609 -0.0976749430643395 0.00599199192193829
0.000897906028779801 -0.0980204171072407 0.00574929705461043
0.000835362352717229 -0.0982722583532458 0.00555134114175656
0.000762200157206548 -0.0982833170614852 0.00546037306361458
0.000681560454540364 -0.0980047444249309 0.00550001006617274
0.000599209565593493 -0.0975017312770597 0.00564972652443475
0.000523550474653331 -0.0969352308765527 0.00585004016190731
0.000464289728984352 -0.0965142102160159 0.00601912064041707
0.000994742837036136 -0.105041980330013 0.00531466326296553
0.00096510746371744 -0.105144503319327 0.00520956086232456
0.000927761807161533 -0.105328893545081 0.00507807865109104
0.000882839920935599 -0.105459877884366 0.00496699308078475
0.000831399085836054 -0.10543837164699 0.0049114512419582
0.000775795827047827 -0.105231846375097 0.00492507794872976
0.000719950710768532 -0.104884876211819 0.00499649885861689
0.000669180193756593 -0.104506843769041 0.00509256573367453
0.000629337858559935 -0.104240202380172 0.00516801006965066
0.00101122123719831 -0.113365689038674 0.00476833154904467
0.000989799121239389 -0.11338004044773 0.00471827860567633
0.000963580342770975 -0.113449195694459 0.00464891353724184
0.000932735225783248 -0.113490536036388 0.00458671360015209
0.000898068154838669 -0.113444181895052 0.00455170718284425
0.00086120915401289 -0.1132911435393 0.00455182044534709
0.00082469373459731 -0.113059575290477 0.00458078236457221
0.000791784724328413 -0.112817276328957 0.00462002908475677
0.000765951228051 -0.112652581571207 0.00464419152995112
0.00103258339630737 -0.122219016611523 0.00452516503765189
0.00101839673616212 -0.122182368054054 0.00450183467875946
0.00100145471218494 -0.122170063462186 0.00446242253584368
0.000981858712569484 -0.122143985240167 0.00442397778003231
0.000960122274892357 -0.12207723934338 0.00439942604951561
0.000937271190739519 -0.121962453784091 0.00439396308220971
0.000914854017522868 -0.121814494585155 0.00440366598670743
0.00089480208445787 -0.121666780915062 0.00441673068574501
0.000879122575029225 -0.121562253742147 0.0044169564675172
0.00105436810433523 -0.131361924032364 0.00456887144106713
0.00104658627765935 -0.131293300765542 0.00455198554625846
0.00103749730406804 -0.131215857722231 0.00451939881642112
0.00102703357517312 -0.131131961854239 0.00448651415275445
0.00101539220292208 -0.131044714285714 0.00446498701298701
0.00100310584765263 -0.13095759625827 0.00445948073257687
0.000991039511897865 -0.130874022264526 0.00446640353418308
0.000980291094810241 -0.130796912510771 0.00447503604594927
0.000972005068472556 -0.130728390509512 0.0044706740651651
0.00107222049164112 -0.140523947522674 0.00489972542701272
0.00107022632711583 -0.140420509470849 0.00487041808498411
0.00106802054324312 -0.140273847244382 0.00482316244787003
0.00106523374731374 -0.140127151824519 0.00477893532232819
0.00106168411019914 -0.140013992411195 0.00475355479009688
0.0010574729413651 -0.139949229395413 0.00475320433227695
0.0010530023384488 -0.139925319751564 0.00477272964045949
0.00104890628988283 -0.139915070859085 0.00479719745600923
0.00104591155705014 -0.139880012211099 0.00480626846058329
0.00108197105032632 -0.149434698137978 0.00553519513051278
0.00108547152269567 -0.149271812653851 0.00546933440378741
0.00108970767193127 -0.149031431286369 0.00538013562529656
0.00109378533780255 -0.14880229439612 0.00530328786821419
0.00109699261080607 -0.148652421561321 0.00526561332983492
0.00109898775416345 -0.148609916626456 0.00527737321210229
0.00109987555169474 -0.148655467840623 0.00532944311351843
0.00110016057609573 -0.148728677935855 0.0053959552853908
0.00110058473172853 -0.14874634247885 0.00544186754189824
0.00107967941744078 -0.157854288325981 0.00651092198713396
0.00108887794211637 -0.157589400156049 0.00637171439448412
0.00109979521265647 -0.157213303510194 0.00619921454456432
0.0011106167044813 -0.156869244213002 0.00605776066855988
0.00111979669718171 -0.156667041835508 0.00599544015448739
0.00112643989153219 -0.156651203992236 0.00603035438144819
0.00113049449031114 -0.156788652155738 0.00614580245322326
0.00113273107858791 -0.156979417947844 0.00629483741661585
0.00113447312478281 -0.157087241755152 0.00641382873750895
0.00106170535962877 -0.165594950388979 0.00787997715943655
0.00107753500854357 -0.165174382068655 0.0076095596855957
0.00109628546495774 -0.164608477313563 0.00728873718706447
0.00111454268573684 -0.164107762568824 0.00703280301304457
0.00112939472255124 -0.163834066915092 0.00692695682725579
0.00113915260149753 -0.163852527551808 0.00700277560739313
0.00114374753957363 -0.164113389354081 0.00723052441001598
0.00114477063590988 -0.164468027990161 0.00752644917298084
0.00114499733658265 -0.164715076604731 0.00777605117394671
0.00102500459886974 -0.172526812175514 0.00970335932286105
0.00104937234624793 -0.171894537738829 0.0092147087705724
0.00107827139795832 -0.171080392380076 0.00864772057014074
0.00110560411209634 -0.170377731259301 0.00820311491899875
0.00112627184560347 -0.170012067012581 0.0080261247280728
0.00113739990407121 -0.170073785831575 0.00816953836468375
0.00113904417433807 -0.170493262895847 0.00858306278579676
0.00113440261824403 -0.17106281311221 0.00912334215328493
0.00112906074313093 -0.171501281162038 0.00959052896121988
0.000968120499086478 -0.178563108491963 0.0120162030946054
0.00100398431300463 -0.177671790224264 0.0111911281082955
0.00104655203742769 -0.176558268925018 0.0102456932901573
0.00108550522135181 -0.175614278085581 0.00951410704214369
0.0011124927602854 -0.175138905485545 0.00923007798369162
0.00112294043640072 -0.175251301515473 0.00947631683409668
0.00111713469598291 -0.17585976782695 0.0101735015696258
0.00110086360803047 -0.176688963717025 0.011090361965561
0.00108446487592537 -0.177363457032852 0.0118935894536711
0.000893619130294461 -0.183623661501828 0.0147458237413933
0.000944459784532006 -0.182450681211627 0.0134536230002281
0.0010047240692539 -0.181013295727977 0.0119858400899428
0.00105811943439988 -0.179810660860876 0.0108641776779167
0.00109201620584488 -0.179217664041511 0.0104365585206763
0.00109965579273735 -0.179382207278242 0.0108218976804616
0.00108154587403193 -0.180191261132721 0.0119057813801754
0.00104697516024354 -0.181300581178472 0.0133433976520478
0.00101329478715532 -0.182232584132498 0.0146138870618749
0.000812169451850848 -0.187588492795369 0.0175759437047041
0.000880179910942471 -0.186160336196427 0.0157349721162252
0.000960516339967789 -0.184430982657158 0.0136593778731238
0.00102976863270506 -0.182997887015903 0.0120921754442683
0.00107062814656415 -0.182299219910695 0.0115028492776998
0.00107398353058144 -0.182505833433796 0.0120457114852634
0.00104040064978517 -0.183488770178065 0.0135721468885586
0.000982983732768486 -0.184847435346964 0.0156164895969215
0.00092765267174434 -0.186011948032757 0.0174364326595565
0.00074525299708777 -0.190289056370315 0.0198552395745159
0.000828221551038386 -0.188706810448673 0.0175367961082805
0.000925889381503875 -0.186802521495127 0.0149371086143828
0.0010085554172288 -0.185232492118955 0.0129918157234288
0.00105505425118302 -0.184468076193695 0.0122668025048032
0.00105433947340539 -0.184691659289117 0.0129422401043107
0.00100686516931635 -0.185768059501625 0.0148446482323851
0.000928826146719808 -0.187268912785762 0.0174125399876444
0.00085383814802884 -0.188570598693364 0.0197108249423083
0.000457862825748897 -0.0370882221220424 0.00351768527948589
0.000427585469327522 -0.0370025018435471 0.00348620219912961
0.00039150733464995 -0.0368909606021263 0.00343954333848252
0.000350641863748894 -0.0367771036159671 0.00339700108975819
0.000306618964142213 -0.0366798365919467 0.00337315538229985
0.000261661462946322 -0.0366085889363704 0.00337374170263863
0.000218472814924716 -0.036561203444615 0.00339410146419572
0.000179985607321003 -0.036525134932862 0.00342062217161218
0.000148964791898466 -0.0364816157714806 0.00343476953388567
0.000523114165597669 -0.0413222475248232 0.00455004154339376
0.000485798778432003 -0.0411971189863608 0.00447532535022598
0.000440146608678915 -0.0410279072142188 0.00437735435604565
0.000387656669695822 -0.040862564799107 0.00429337862950321
0.000330576776979023 -0.0407386590755636 0.00425148155846457
0.000271884746636312 -0.0406731204045929 0.00426252619322592
0.000215227807430052 -0.0406580975590793 0.00431723431883923
0.000164673313194545 -0.0406639288076692 0.00438896299533948
0.000124164823335557 -0.0406484424866377 0.00444160614004372
0.000592708273055489 -0.0453619007311207 0.00584923128382687
0.000545602768183146 -0.0451710668808892 0.0056947077693204
0.00048613444231849 -0.0449166899402061 0.00550446334060591
0.000416326411838015 -0.0446774609424829 0.00534727774947969
0.000339177789167912 -0.0445146975211583 0.0052747722132388
0.000258737119233379 -0.0444551496614487 0.00530663401783148
0.000180236738917013 -0.0444842604300422 0.00542548567517655
0.000109912428240125 -0.0445512768093586 0.00558182819438657
5.41510791759499E-5 -0.0445850491866124 0.00570858137766108
0.000670106828054949 -0.0491300344213113 0.00748284205476357
0.000610379678546188 -0.0488390548153523 0.0071891855948701
0.000532366765749256 -0.0484627540702077 0.00683979500534722
0.000438675949957796 -0.048120000483377 0.00655777236576398
0.000333135926513404 -0.0479031972753446 0.0064345917548554
0.000221105960063393 -0.0478520837453965 0.0065045970889888
0.00011011771454733 -0.0479438049663189 0.00673675173176396
9.99873537268794E-6 -0.0481005449668467 0.00704267117772236
-6.84724879989236E-5 -0.0482136029092129 0.00730176549404031
0.000759459633883955 -0.0525740725988157 0.00952309268523139
0.000684354216628322 -0.0521444147564028 0.00900108829142449
0.000582688179814495 -0.0516034735588641 0.00839105990661469
0.000457774977596573 -0.051122719991389 0.00790643202593528
0.000314222540356968 -0.0508346248027849 0.00770281751797742
0.00015870403734996 -0.0507955877654313 0.00783746418908278
1.72004199083323E-6 -0.0509726367964747 0.0082577325423896
-0.000141381347510632 -0.0512536010207738 0.00881243907069984
-0.00025237198574079 -0.0514809413952019 0.00929187755862002
0.000864007286132595 -0.0556541247828038 0.0120141427604378
0.000771130218997732 -0.0550497686968301 0.0111439035477569
0.000640766896218932 -0.054302328223883 0.0101357631511608
0.000477222525555152 -0.0536498920935096 0.00934469105748683
0.000285643430317104 -0.0532737156818339 0.00902165365582898
7.35511586670601E-5 -0.0532500577220238 0.00925646629753946
-0.00014525216308837 -0.0535345320977495 0.00996548236076252
-0.000347561182539639 -0.0539738578491807 0.0109039408670191
-0.000503200962268211 -0.0543491931517441 0.0117223767802157
0.000982420427395005 -0.0583150371197597 0.0148900966905924
0.000870348305441701 -0.057514588375558 0.01354162450465
0.000707505986451111 -0.0565340362695908 0.0119856549915785
0.000499744387714496 -0.0556891161458774 0.0107780613451482
0.000252328402590146 -0.0552142347692412 0.0102954354643286
-2.74407267803511E-5 -0.0552064628903482 0.0106678540424865
-0.000322855384339823 -0.0556104023878246 0.0117730560679344
-0.000600692430073728 -0.0562291327996647 0.0132428277139589
-0.000813304302542132 -0.0567733915375018 0.0145293191201455
0.00110282427751505 -0.0604490047762921 0.0178348877027713
0.000972328753128277 -0.0594661089160013 0.0159318337094564
0.000776989883155205 -0.0582663692334381 0.0137397516884594
0.000524830720562556 -0.0572413687257614 0.0120551981207986
0.000220795284559435 -0.0566728907325091 0.0113926086320846
-0.00012932841028536 -0.0566756464215237 0.0119228518748346
-0.00050709256399682 -0.0571863528556503 0.0134843346744552
-0.000868486641195278 -0.057970960357846 0.0155733045219481
-0.00114423810297795 -0.0586730311204992 0.0174043123654717
0.00119872690570293 -0.0618881698247803 0.0201833897937015
0.00105451120003508 -0.0607933130529123 0.0178070379182374
0.000833899290414317 -0.0594560070100599 0.0150702731192968
0.000546968651997571 -0.0583167631808097 0.0129813682226217
0.000198175729168769 -0.057685017022625 0.0121677517361453
-0.000208567520055414 -0.0576855748559315 0.0128315171355542
-0.000654115177561862 -0.0582528387159573 0.0147809194600035
-0.001085585966686 -0.059133623437696 0.0174011088479778
-0.00141415011803408 -0.059930170776914 0.0196976715213796
0.00128265493382656 -0.0694185717140018 0.0212336237161822
0.00115362653199623 -0.0713588148708216 0.0187227947108039
0.000946760364900013 -0.0735743273345879 0.0158269606572193
0.000663834292859835 -0.0751592575410287 0.0136187484673451
0.000303189300381245 -0.0755260608222031 0.0127595507856725
-0.000133739011440156 -0.07449896035166 0.0134608553619999
-0.000625088936227519 -0.0723175067558177 0.0155223995346186
-0.00110810493362065 -0.0696294411335007 0.018296315469634
-0.00147715255147487 -0.0673855845088509 0.0207247059333657
0.00125527862191621 -0.0706368596185405 0.0203208312964504
0.00113112276865059 -0.0726016348751295 0.0179936902802546
0.000934160117643925 -0.0748494937026462 0.0153145534016803
0.000665653805599336 -0.0764662989293639 0.013269906142299
0.000324036536458333 -0.0768547065972222 0.0124724361111111
-8.89455415665898E-5 -0.0758334478538991 0.0131193128509446
-0.000552285189849507 -0.0736435215770682 0.015023949286287
-0.00100720622676352 -0.0709387503853575 0.0175863384089959
-0.00135590163604649 -0.0686757466958879 0.0198337290461001
0.0011872560051623 -0.073517099285197 0.018056122541575
0.00107475663434862 -0.0752505812075789 0.0162007738289569
0.000900729622662834 -0.0772470902699434 0.0140644663752794
0.000665353967215237 -0.0786937704845575 0.0124228813084067
0.000368041094473947 -0.0790436037022301 0.0117759432509271
1.25273360554567E-5 -0.0781259405365465 0.0122895792620702
-0.000381026961004104 -0.0761633680721924 0.013807370563686
-0.000763222452833458 -0.0737508583579183 0.0158401759960666
-0.00105677222220783 -0.0717361487571801 0.017623301857266
0.00110834036482316 -0.0778211926044653 0.0152475663240282
0.00101094003740878 -0.0791809179843819 0.0139413054942519
0.000865625343185254 -0.080766959773128 0.0124345230821021
0.000671918350128393 -0.0819246463334789 0.0112649256306994
0.000430442424110311 -0.0821976268405833 0.0107960559537326
0.000146708913303169 -0.0814392287232999 0.011153441117914
-0.000161140146040936 -0.0798382544091151 0.0122195839598743
-0.000455395262610566 -0.0778887376902156 0.0136394121159398
-0.000681925116517553 -0.0762715995899215 0.0148831396630914
0.00104185535943179 -0.0832422240941525 0.0125641020784336
0.000960257512992468 -0.0842062596724984 0.0117289939054048
0.000843552568015472 -0.0853564513067898 0.0107614497148754
0.000691269571144314 -0.0862007233617068 0.0100016849813212
0.000504929166888804 -0.0863863247524753 0.009689791926885
0.000290593599544175 -0.0857972126904062 0.00991172358471986
6.31572159339363E-5 -0.0845816930451402 0.0105878851664209
-0.000150722629239318 -0.0831206634339027 0.0114844746267337
-0.00031597779732655 -0.0819252770063082 0.0122667030950044
0.000997527283237889 -0.0895808955460606 0.0103298092441597
0.000930997100571652 -0.0901994963333525 0.00983604107116958
0.000839894136768182 -0.0909680122347888 0.0092579934231535
0.00072407982635903 -0.0915339546789709 0.00879776746739434
0.000585468332881855 -0.0916404767501818 0.00860250916498102
0.000429591209374936 -0.0912019371343321 0.00872642958053678
0.000267697590327687 -0.0903277351041295 0.00912009480294735
0.000117616568024704 -0.0892951740107775 0.0096408710091385
1.08260837319649E-6 -0.0884705640375536 0.0100903268769441
0.000975400455556705 -0.0967342258912043 0.00862414265877542
0.000922596523068409 -0.0970854488779011 0.00835286692260104
0.00085322294383507 -0.0975549966257081 0.00802767421269356
0.000767463051046604 -0.0979003918107946 0.00776359793671998
0.000667202191146072 -0.0979438983004134 0.00764605052824989
0.000556910001470041 -0.0976260500491861 0.0077072031374298
0.000444550972863297 -0.0970234871334438 0.00791835157639751
0.000341605647802286 -0.0963286886914711 0.00819726347810998
0.000261234076437779 -0.0957942506827927 0.00843140308193154
0.000971056800346231 -0.104624008275687 0.00742160340176687
0.000930425396307649 -0.104787996268011 0.00728466347584084
0.000879004631545713 -0.105040757429393 0.00711153466246675
0.000817148041255471 -0.105223656290048 0.00696617578105344
0.000746461657184858 -0.10522059354677 0.00689659240190765
0.000670265733188358 -0.104993037200912 0.0069211999861043
0.000593931738596231 -0.104591987892563 0.00702406079171318
0.000524655765893266 -0.104144282570978 0.0071594034110593
0.000470299779530611 -0.103816113671253 0.00726499474208312
0.000978674700966714 -0.1131425351592 0.00667332950792941
0.000948646941728424 -0.113188017560783 0.00661153770999877
0.00091186788881595 -0.113291941906816 0.00652314320375951
0.000868699499126234 -0.113359871434306 0.0064442961814267
0.000820362555504631 -0.113323227513843 0.0064022655081365
0.000769164835983483 -0.113159921376628 0.00640768641636903
0.0007185899891823 -0.112901412296059 0.00645170785516812
0.000673052365479516 -0.11262439422636 0.00650865317349039
0.00063719890719896 -0.112429167492158 0.00654359311619323
0.00099230932896171 -0.12212983650963 0.00634010518833902
0.000971423848129079 -0.122106102353197 0.00631471978802982
0.000946557067269886 -0.122108210650162 0.00626703821587024
0.000917944609631445 -0.122093198971839 0.00622033725069267
0.00088639386873071 -0.122030595389661 0.0061921912037037
0.000853399829113707 -0.121911758919619 0.00618953303751071
0.000821141618886369 -0.121752940935201 0.00620676752226605
0.000792282004454593 -0.121591238317377 0.00622750344851159
0.000769550041683309 -0.121474499167618 0.00622936382121079
0.00100630381513333 -0.13137660448 0.00640199712
0.000993307715258856 -0.131308189032698 0.0063852666893733
0.000978237887959513 -0.131230766666497 0.00634668716208687
0.000961075510670732 -0.131146780640244 0.00630733612804878
0.000942197106132075 -0.13105941509434 0.00628309433962264
0.000922459551829268 -0.130972222103659 0.0062801931402439
0.000903177427326962 -0.13088866181628 0.00629349492187984
0.00088596749386921 -0.130811669277929 0.00630807391008175
0.000872479423666667 -0.13074335264 0.00630356362666667
0.00101536907473018 -0.140644625111416 0.00686015299501601
0.0010093337443925 -0.140528454299232 0.00682622542159881
0.0010025994096041 -0.140367064492798 0.0067673477608503
0.000994719333073325 -0.140208700299997 0.00671231088747631
0.000985570072820216 -0.140090731346451 0.00668275540123457
0.000975476770719554 -0.140029474764207 0.00668701165344196
0.000965214402074611 -0.14001612757515 0.00671777111164191
0.000955878826122464 -0.140019873064986 0.00675426746471079
0.000948660971587566 -0.139997315604359 0.0067683321941886
0.00101455062082161 -0.149696278711672 0.00773752790719501
0.00101503588029231 -0.14950165846257 0.00765327216474422
0.00101593518080451 -0.149224988456443 0.00753669408292582
0.00101607616127618 -0.148967231323537 0.00743686758247268
0.0010146466591132 -0.148805521363809 0.00739060678769397
0.00101145011981295 -0.148771403090111 0.0074118455646461
0.00100697589045077 -0.148842499047009 0.00748775913983749
0.00100227680457148 -0.148949654967796 0.00758245650121674
0.000998683848245998 -0.148997732998058 0.00764747429607886
0.000999159399872584 -0.158324021164604 0.00908011299776107
0.00100645165793504 -0.157995474253106 0.00889499872477043
0.00101525374134946 -0.157547006742017 0.00866387545787537
0.00102313182714582 -0.157146055959043 0.00847532280788235
0.00102818965997588 -0.156920277862833 0.00839552151528289
0.00102959114316421 -0.156920834284706 0.00844920258322261
0.00102776845108468 -0.157108687717722 0.00861299684274155
0.00102429518601785 -0.157366738236263 0.00882182092784524
0.00102141526980412 -0.157535147741113 0.00898775160946996
0.000964755099845595 -0.166370592848578 0.0109560434606911
0.000980181078945319 -0.165833170878604 0.0105907795927521
0.000998452061649805 -0.165134684088184 0.0101556032259822
0.00101494165773281 -0.164530073741562 0.00980952185132565
0.00102595904369545 -0.164213339917317 0.00967021148369316
0.00102974178645547 -0.164261428603969 0.00978107397855831
0.00102690527775542 -0.164614000175109 0.0101005139235527
0.00102033112562217 -0.165091592264509 0.0105122612707581
0.00101435108941097 -0.165449667362946 0.010858048238764
0.000907442488968263 -0.173730906056524 0.0134435447870091
0.000933690085490089 -0.172898291435497 0.0127794725356501
0.000964655270881201 -0.171856406149748 0.0120053160575848
0.000992010064793122 -0.170975828714338 0.0113987673823717
0.00100914581425927 -0.170536554075803 0.0111615832348462
0.00101288332937082 -0.170648499782787 0.011366886094859
0.00100428609522948 -0.171224542337677 0.0119440386594514
0.000988666560075337 -0.17200493571569 0.012693152844684
0.000974274181193075 -0.172633737124595 0.0133373744486755
0.00082511550348727 -0.180326068064714 0.0165871188148086
0.000866312678733032 -0.179114421308238 0.0154644423040075
0.000914948095744597 -0.177634796517554 0.0141683142942322
0.000956803045643709 -0.17640572836993 0.0131636041791558
0.000980837003903275 -0.175812567555217 0.0127779966488957
0.000981786543908447 -0.176004379229574 0.0131273401188764
0.000961410480004302 -0.176862695638335 0.0140992216869579
0.000928893623948001 -0.178030108066679 0.0153684635650803
0.00089904606892776 -0.179008954321701 0.016471124941264
0.000720720468770739 -0.186041558626028 0.0202885267612862
0.000781668823784792 -0.184396372636783 0.0185331948968148
0.000853777580913559 -0.182415028222711 0.0165149526033228
0.000914347313503838 -0.180790352935016 0.014965309004102
0.000946346817471793 -0.180023152848247 0.0143786318833381
0.000941763876833425 -0.180303165946308 0.0149240228332346
0.000903168429408032 -0.181479993050461 0.0164370193559463
0.00084504578617719 -0.183090277177672 0.0184265700063715
0.000791922743818506 -0.184470800156875 0.0201621650846517
0.000607996469295037 -0.190643217627378 0.024120343089731
0.000691657086867483 -0.188586482828651 0.0216286893181607
0.000790854814662322 -0.18612647393403 0.0187685597802435
0.00087258028671115 -0.184128356678893 0.0165917640256714
0.000913032334031273 -0.183196399949846 0.0157762483898374
0.000901162139588707 -0.183554137530198 0.0165454642669506
0.000840226621611389 -0.185025694840816 0.0186819066004683
0.000750672774024375 -0.187054423802823 0.0215118390760055
0.000669044424191896 -0.188815440770481 0.0239845019882205
0.00051567285148833 -0.193757796878955 0.0271932098456552
0.000618952321622176 -0.191440637741109 0.0240706123809366
0.000741683346226891 -0.188674756941646 0.020486551981041
0.00084159544754478 -0.186439132138817 0.0177755427910591
0.000889123057291667 -0.185398937152778 0.0167666805555556
0.000870658101552973 -0.185795996006074 0.0177253182390502
0.000789863235491828 -0.187442527788208 0.020393144414185
0.000672208441258524 -0.189729366537256 0.0239460271942604
0.000565165453402872 -0.191727325846701 0.0270505207041849
0.000422925327117121 -0.0371238989587086 0.00439986499700691
0.000384486703309643 -0.0370325947719113 0.00436581547251336
0.00033888078242328 -0.0369144972317137 0.00431320287122196
0.000287386858285215 -0.0367951591580404 0.00426501426733844
0.000232063506739426 -0.0366950589765451 0.00423859775762425
0.000175701709727593 -0.036624276204471 0.00424073251233883
0.000121662255043187 -0.0365802216329597 0.00426578425443682
7.35475861666903E-5 -0.03654896905216 0.00429743643104603
3.47130305135474E-5 -0.0365098403904169 0.00431351364568932
0.00049436371547436 -0.0413918131090202 0.00565974186964098
0.000447975593741069 -0.0412539369482216 0.00557489652083975
0.000391415305066213 -0.0410700073965403 0.00546180476224794
0.000326532831989497 -0.0408928885927951 0.00536481858881311
0.00025612803504066 -0.0407638482856891 0.0053173638135746
0.000183901898648125 -0.0407012510408596 0.00533231157311105
0.000114345393115556 -0.0406960686139728 0.00539849007725938
5.24034778057882E-5 -0.0407151811753559 0.00548402683288266
2.80540673305699E-6 -0.0407116937150248 0.00554581339551308
0.000572389208534373 -0.0454973213760231 0.0072270495664815
0.000514682995048271 -0.0452811544252678 0.00704865151121051
0.000441915840993715 -0.0449976528515346 0.00682715918163731
0.000356588014191349 -0.0447353029632583 0.00664415628534628
0.00026245483145282 -0.0445627233479761 0.00656094606009729
0.000164564770253356 -0.0445094397562292 0.00660084881144988
6.93533243946603E-5 -0.0445585435531281 0.0067430473765337
-1.56398542860737E-5 -0.0446524216309012 0.00692855931790655
-8.28274997356834E-5 -0.0447105145022057 0.00707768226216802
0.000661737245618038 -0.049376207622635 0.00917293166375737
0.000589286730048913 -0.0490386181466006 0.00883239463835981
0.000494436166082928 -0.048608607557383 0.0084248246195379
0.000380460606761269 -0.0482231785796277 0.00809560180890228
0.000252262219069309 -0.0479880938781531 0.00795315492320014
0.000116637620098871 -0.0479481073880968 0.00803817689346902
-1.70810027409438E-5 -0.0480761268029186 0.00831360540929707
-0.000137015794225435 -0.0482818584483499 0.00867444901529506
-0.000230448398970288 -0.0484393056412566 0.00897816817936817
0.000768108565083372 -0.0529853799174484 0.011570734732322
0.000677672476471549 -0.0524759122336318 0.0109666489465153
0.000554344176299032 -0.0518421876330237 0.010256206799635
0.000402395533042414 -0.051287421926203 0.00969049591662839
0.000227990765953679 -0.0509671328674224 0.00945403319290046
3.98948356232578E-5 -0.0509462434504121 0.0096148546297778
-0.000148653464653138 -0.0511846637318291 0.0101100637610003
-0.000319013013417942 -0.0515489020480534 0.0107601759531802
-0.000449771937236673 -0.0518514124085134 0.0113184077359137
0.000896113881266967 -0.0562864709871674 0.014459261447743
0.000785084981159189 -0.0555556606701835 0.0134586971770799
0.000626900785164933 -0.0546588390984672 0.0122889296775997
0.000427276904143419 -0.0538865378123942 0.0113665756955661
0.000193641611003141 -0.0534574221253942 0.0109904546097852
-6.34576298786841E-5 -0.0534613200455209 0.0112681463157296
-0.000326072777274195 -0.0538426880451323 0.0120990880210021
-0.000565704622436308 -0.0544140370603144 0.0131916904382259
-0.000746986769153271 -0.0549074351290144 0.0141358599681446
0.00104438597043506 -0.0592080977256272 0.0177521012664918
0.000911626972986699 -0.0582244787533185 0.0162166731244121
0.000713736062601213 -0.0570224901257948 0.0144197358400745
0.000458651438566549 -0.0559985020721276 0.0130134535237257
0.00015496534119822 -0.0554433728285609 0.0124503049277042
-0.000185756216243692 -0.0554741785753144 0.0128883124873896
-0.000540691199685241 -0.0560193776571547 0.0141785647734868
-0.000868292897436358 -0.0568311167681793 0.0158786326871185
-0.00111270015974757 -0.0575454168779293 0.0173460610299782
0.00119740203986568 -0.0615943641023717 0.0210841126686701
0.00104462161076031 -0.0603733526826684 0.0189420608607097
0.000806901902244122 -0.0588775921641376 0.0164232008436655
0.000495216071145388 -0.0576109242688204 0.0144632559073724
0.000119166554731853 -0.0569325493858028 0.0136884727627009
-0.000309742691365595 -0.0569840172450788 0.0143105305192197
-0.000764531214144564 -0.0576808797301253 0.0161288734623485
-0.00118886876972908 -0.058720253744866 0.0185304621484082
-0.0015013711346666 -0.059642701414454 0.0205932262731149
0.00131975745227222 -0.0631948373430997 0.0237074100382259
0.00115297535411633 -0.061828096919472 0.0210620428651081
0.000884456711264465 -0.0601436470586094 0.0179327680081601
0.000527932333661224 -0.0587179460253885 0.0155051207454207
9.37905578234296E-5 -0.0579538791183834 0.014552519167068
-0.00040694607414049 -0.0580083358089641 0.015330175092225
-0.00094423647324413 -0.0587911288416772 0.0175956248147927
-0.00144894166264819 -0.0599671722211234 0.0205913844501536
-0.00181656041869061 -0.0610149945413126 0.0231490871633373
0.00138819440626041 -0.0668730435841361 0.0247922392255209
0.00124262508233856 -0.0693648817330989 0.0220394070950955
0.000993044801350441 -0.0722539207258398 0.0187676012688701
0.000642082889527638 -0.0743529303975695 0.0162259494079954
0.000192608256447686 -0.0748826989105532 0.0152278599455148
-0.000346630515266694 -0.0736072216409109 0.0160410571743548
-0.000940886418078845 -0.0708350521405689 0.0184118536108522
-0.00150734970761406 -0.0674185150698578 0.0215441249379435
-0.0019207322468307 -0.0646027817375249 0.0242069410891385
0.00135127106067581 -0.0680524478561974 0.0238027677894219
0.00120999962406206 -0.0705763140153587 0.0212349341344768
0.000971953806211267 -0.0734998756450839 0.0181978980614961
0.0006392981165872 -0.0756306854477078 0.015841598038439
0.000214450223342725 -0.0761839978573269 0.0149152413244168
-0.000294449933833595 -0.0749196576982835 0.0156659853098257
-0.000854976255141916 -0.0721451305560398 0.0178597082318093
-0.00139022062743038 -0.068713220744054 0.0207632585745754
-0.00178382612814713 -0.065871019035071 0.0232437031080948
0.00125979037038162 -0.0712166967116602 0.0212880926156079
0.00112982267709763 -0.0734406776182151 0.0192210095109631
0.000919324912583011 -0.0760180038404135 0.016790768232924
0.000629139824093401 -0.0779048939272329 0.0148994432383706
0.00026169413045593 -0.0783978574268313 0.0141498871256979
-0.000174190734535524 -0.0772761799650447 0.0147458481367611
-0.000649394825690119 -0.0748182565810817 0.0164949823329753
-0.00110063355108656 -0.0717841408020043 0.0188077626723765
-0.00143609488251694 -0.0692617022252945 0.0207956143935241
0.00115308848292473 -0.0759911490996253 0.0181379127374461
0.00103880164776037 -0.0777293791179513 0.0166682699290319
0.000863001502892895 -0.0797538660998668 0.0149484624234526
0.000625640771206855 -0.0812429788497482 0.0136019715917636
0.000329442344832493 -0.0816252769637339 0.0130607389168971
-1.63179946542117E-5 -0.0807162712627968 0.0134756519344134
-0.000387079890093554 -0.0787464863471205 0.0147051856131443
-0.000735658975399811 -0.0763305796913013 0.0163275544262858
-0.000997941758702629 -0.0743223155751775 0.0177288581312285
0.00106182766740187 -0.0819150893509647 0.0151010321688129
0.000964876698471862 -0.0831418157446572 0.0141544636741086
0.000823650767582472 -0.0845909218292883 0.0130472849549533
0.0006379986964726 -0.0856609236043735 0.0121733638112665
0.000410881846602313 -0.0859221252748279 0.0118148206661014
0.000151019453824195 -0.0852325311729728 0.0120733138118681
-0.000122359773474835 -0.0837688285359958 0.0128544167049196
-0.000376537815546897 -0.0819920647654673 0.0138833327401976
-0.000570076946734686 -0.0805261323102767 0.0147726219257359
0.000998402490080237 -0.0886941349111504 0.012549496674786
0.000918601963884344 -0.0894798724698833 0.0119880532421475
0.000808232489532692 -0.0904364049991864 0.0113260474076869
0.00066744044057323 -0.0911444748509583 0.0107974998107869
0.00049915102702479 -0.0912994149878553 0.0105742051423414
0.000310724982655009 -0.0907991000812097 0.0107196313578895
0.000116245637286496 -0.0897708108253173 0.0111756330406853
-6.26965842866907E-5 -0.0885413868326273 0.0117755345902249
-0.000200452806839458 -0.0875456292139267 0.0122895589469126
0.000962484379803745 -0.0961888120012333 0.0105847200283939
0.000898628777582594 -0.0966387599615892 0.0102773973093665
0.000814340596696063 -0.0972188024949497 0.009905981480697
0.000710069209938564 -0.0976479936093005 0.0096038806508036
0.000588427302072052 -0.0977206389656753 0.00947054146903884
0.000455131583694078 -0.0973674715695257 0.00954342087438982
0.000319973163534778 -0.0966756789998447 0.00978885730887354
0.000196739185940483 -0.0958665550722378 0.0101109313697169
0.000100951112425693 -0.0952319846166087 0.0103790518753932
0.000948184362750496 -0.104319323855866 0.0091898922497473
0.000898581193900159 -0.10453771060548 0.00903734572788801
0.000835723434194141 -0.104851362143641 0.00884149755244071
0.000760201063209336 -0.105080692829441 0.00867670562059128
0.000674148295143278 -0.105094210556258 0.00859884922039612
0.00058173332851654 -0.104847919141672 0.00862931351490083
0.000489500739300468 -0.104398652469666 0.00874938190079545
0.000406058511731473 -0.103889036376936 0.00890560286918476
0.000340682525632505 -0.103506569436642 0.0090255174100508
0.000948145057694588 -0.112993751549755 0.00831949608424931
0.000910945689845628 -0.113066812761755 0.00825403069035256
0.000865434517968047 -0.113201691097656 0.008156337319676
0.000812165665306481 -0.113293399523091 0.00806859039016475
0.000752739958657588 -0.11326555155642 0.00802258521400778
0.00069004245830835 -0.113093263897675 0.00803066312816529
0.000628315752402585 -0.112810961638928 0.00808237202957858
0.000572847114529734 -0.112503316529118 0.00814761189323636
0.000529135022535559 -0.112281316713913 0.00818551876802762
0.000955174196822596 -0.122076757126041 0.0079358944021829
0.000928591027274049 -0.122064548392863 0.00791274027507663
0.000897044900933116 -0.122079572479893 0.00786225609498551
0.000860907305333748 -0.122074556201268 0.00781173693898649
0.000821250870010712 -0.122015829791477 0.00778175524897518
0.000779966769832512 -0.121893610373161 0.00778036821378671
0.000739739095557121 -0.121725379717814 0.00780090764508107
0.000703790646438676 -0.121551511295506 0.00782403276616939
0.000675382382041394 -0.121424216576894 0.00782338855579351
0.00096270038248563 -0.131388680490576 0.00802036873412645
0.000945171519666667 -0.131320672613333 0.00800721752
0.000924949946014651 -0.131243515274437 0.00796715161819375
0.000902084320279112 -0.131159705056667 0.00792501661545746
0.000877122549698795 -0.131072484939759 0.00789949397590362
0.000851199246942453 -0.130985457940985 0.00789785502215242
0.000825989794801006 -0.130902118467089 0.0079139387819812
0.000803507271933333 -0.130825415226667 0.00793003304
0.000785771842851891 -0.130757448837054 0.00792201276567304
0.000964792835143639 -0.140723593326953 0.00857540253835693
0.000955144428928244 -0.140596513913461 0.00854202923044714
0.000944396614827857 -0.140422433107372 0.00847804052612396
0.000932081987322388 -0.140254057784679 0.00841741489336598
0.000918161882066326 -0.14013211907856 0.00838565627923727
0.000903163362629664 -0.140074216881171 0.00839251983678297
0.000888157993708721 -0.140070417823398 0.00842926573335968
0.000874582467481759 -0.140086681637023 0.00847125597908471
0.000863951072894291 -0.140075252196115 0.00848512328284677
0.000956046670349632 -0.149876602050805 0.00962548585917637
0.000953696230878681 -0.149654356096951 0.00953318772861944
0.000951484473039611 -0.149345924919883 0.0094016123806252
0.000948091357484933 -0.149063128756375 0.00928854324605868
0.000942690336089494 -0.148891230933852 0.00923731517509728
0.000935236485244685 -0.148864842222933 0.00926426336977037
0.000926516490351846 -0.148958825326811 0.00935414007328192
0.000917962177194052 -0.149096191359742 0.00946451090876884
0.000911281194227439 -0.149171184240207 0.00953817855547406
0.000931442105590375 -0.158671161529547 0.011218115079334
0.000936673344486945 -0.158286838150549 0.0110082129425112
0.000943213748388406 -0.157774557893558 0.010742976214432
0.000948280527399152 -0.157323352519061 0.010526351367914
0.000949820353718921 -0.157076924589128 0.0104361009692373
0.000947106346508977 -0.157092437968775 0.0105012235735235
0.000940930954780256 -0.157325444026508 0.0106940532665867
0.000933386838797075 -0.157643394464554 0.0109378971628285
0.00092726027581 -0.157865373802206 0.0111294367188444
0.000886283378850963 -0.16697694305972 0.013422136360826
0.000900590703110283 -0.166337111915017 0.013003508053382
0.000917618585894549 -0.165521402384578 0.0125012620494131
0.000932057191234539 -0.164824524523711 0.0121013639945906
0.000939823247755091 -0.164469720602077 0.0119419693056506
0.000939207355161006 -0.164544753498525 0.012074028182081
0.000931319631440829 -0.164979546915425 0.0124483699819772
0.000919835685016605 -0.16556655231699 0.0129282272538089
0.000909946337868936 -0.166022512799475 0.0133283584764518
0.000816503050247238 -0.174707726434683 0.0163136548673642
0.000842917057865277 -0.173700681513312 0.0155520507412407
0.000874084199077463 -0.172457739146134 0.0146582939380247
0.000900434922287817 -0.171418752131145 0.0139562978299007
0.000914563613170445 -0.170913948449857 0.0136832854957135
0.000913244641598162 -0.171071546710038 0.0139254374987563
0.000898265265660812 -0.171788002492871 0.0145990477852325
0.00087620591088401 -0.172755479315865 0.0154687788248994
0.000856712471466852 -0.173550789878987 0.0162115838445169
0.000720022524122494 -0.181785994917297 0.0199271988769982
0.000763119653469271 -0.180299324247605 0.018645969446465
0.000814071661512823 -0.178498124198026 0.0171532103225915
0.000856515348226426 -0.177014918585651 0.0159904902957541
0.000877931165867331 -0.176316323926914 0.0155451259346544
0.000872826475581124 -0.176580428281407 0.0159548463121628
0.000844043723228494 -0.177662851984354 0.0170853816935618
0.000802808914965002 -0.179128722748017 0.0185520137617697
0.000766188130001617 -0.180370120975213 0.0198142277735568
0.000600342709839086 -0.188061056692852 0.0241358308185033
0.000665271024270673 -0.186019016498475 0.0221497798563803
0.000742564314358096 -0.183563491550973 0.0198340432365839
0.000806023309767198 -0.181562076890053 0.0180413712381758
0.000836066464364124 -0.180637937168645 0.0173619849081151
0.000824143599534883 -0.181023484114006 0.0179999331054942
0.000774431839717572 -0.182530489651604 0.0197558847233814
0.00070463944673802 -0.184579601287367 0.0220431517358633
0.000642831760418353 -0.186339233538297 0.0240102748783302
0.0004728665436005 -0.193196680244377 0.0284476221454451
0.000562495206646464 -0.190625461188348 0.0256583270597902
0.000670153052056808 -0.187534060984211 0.0223904408199507
0.000757588395382647 -0.185030548386342 0.0198727471278429
0.000797001974813906 -0.183886809414651 0.0189259783454576
0.000776366316470669 -0.184383517552515 0.0198252411669029
0.000701207284309884 -0.186294634546617 0.0223015249795238
0.000596770408322223 -0.188905625751514 0.0255386912121939
0.000504800558164381 -0.191158571381461 0.0283095189660445
0.000369456667464413 -0.196647852016533 0.0318658246706887
0.000479949070475768 -0.193744230483027 0.0284060893514282
0.000613831164762383 -0.190239924556084 0.0243283864596823
0.000721966449522461 -0.187407929639288 0.0211944204348006
0.000769339438563832 -0.186115713506766 0.0200212399456591
0.000740894662201399 -0.186673258906612 0.0211420016874418
0.000643198930337923 -0.188833707383228 0.0242308127948884
0.00050809353737576 -0.191798588064861 0.0282761293267634
0.000389829104262349 -0.194357658703118 0.0317180267945136
0.00114686276793798 -0.027752821672829 -0.00231324236772724
0.00109797087091532 -0.0278240436389237 -0.00231940070805544
0.00103810980447996 -0.0279179788426105 -0.00231866445371844
0.000971504173150814 -0.0280094799140727 -0.00231455042114647
0.000902612120805693 -0.0280789705351269 -0.002309720628646
0.000835477511117826 -0.0281178205428369 -0.00230527411337275
0.000773305244199571 -0.0281305638438003 -0.00230044119469428
0.000718279265189608 -0.0281333728175853 -0.00229283125451989
0.000671570388554593 -0.028149130396585 -0.00227910397817311
0.00123591014364686 -0.023457974981997 -0.00171087197801933
0.00117310379481326 -0.0235669443037137 -0.00172322731302539
0.00109534111325159 -0.0237154462850203 -0.00173209611643117
0.00100905159951809 -0.0238507203000788 -0.00173647881942316
0.000920736750913859 -0.0239325385583885 -0.00173565175193119
0.000835973500269511 -0.0239447294793167 -0.00172944128022164
0.000758919765762154 -0.0238996719230763 -0.00171827415924772
0.000692223381058861 -0.0238346700286954 -0.00170306446207463
0.000637148739533925 -0.0238009290487517 -0.00168490383900378
0.00138700527735416 -0.019331606989158 -0.00123996420591551
0.00130183513019835 -0.0195098402254739 -0.00125661018435732
0.00119489257695348 -0.0197454021614239 -0.00127240166383854
0.00107676920873406 -0.0199493226666923 -0.00128299040162349
0.000957652395628664 -0.0200540824234049 -0.0012851348515878
0.000845678885725879 -0.0200333139618558 -0.00127772309675952
0.000746409470501408 -0.0199092722597963 -0.00126208459123778
0.000663007753022537 -0.0197466313718103 -0.00124160259417057
0.000596638807856546 -0.0196334531804527 -0.0012206510904154
0.00161191898487124 -0.0154378481854658 -0.000874809782893373
0.00149327131712103 -0.0157290987071571 -0.000895863843405144
0.0013421367948193 -0.0160978537596157 -0.000918194313909373
0.00117636463290819 -0.0164054618361242 -0.000934481550271958
0.00101221027536081 -0.0165470644312886 -0.000939255863795923
0.000861631398531793 -0.0164822520288963 -0.000930590522104584
0.000731961559978803 -0.016246305007178 -0.000910626133664307
0.000626750662184554 -0.0159409661148734 -0.000884949977491275
0.000546682430948664 -0.0157047947520502 -0.000860853007703685
0.00192386493789496 -0.0118201572361573 -0.000594168960586394
0.00175722735474457 -0.012276608105703 -0.000620532997750735
0.00154199926936543 -0.0128356466800751 -0.000650027495059266
0.00130816382915224 -0.0132903146991899 -0.00067231078604031
0.0010814175108671 -0.0134853280347518 -0.00067969534632719
0.000878952682192344 -0.0133614518590851 -0.000669469292580027
0.000710001339486675 -0.01297088072053 -0.00064457959353098
0.000578096485873637 -0.0124651665559416 -0.000612825771897204
0.000482846940908923 -0.0120524686454206 -0.000584473082312445
0.00233113734839312 -0.00851740400043677 -0.000381211479546904
0.0020990346787212 -0.00919154929896879 -0.000413689705676864
0.00179523448212763 -0.0100011224234477 -0.00045102532725063
0.00146901175276077 -0.0106485116354305 -0.000479665282426667
0.00115983452143894 -0.0109139386554551 -0.000489680542993297
0.000891373868045322 -0.0107146012517637 -0.000477606279905043
0.000674403517519998 -0.0101231847043026 -0.000447180984339443
0.000511740250316384 -0.00935473828736592 -0.000408453352195225
0.000401217411313034 -0.00871021650383027 -0.000374855628105707
0.00282160540587505 -0.00560090648931699 -0.000223962181251529
0.00250721746930533 -0.00652825916351134 -0.000262454212378022
0.0020903948805346 -0.00763243178019282 -0.000307404694425905
0.00164849964942768 -0.00850536617368283 -0.000342076406201388
0.00123922446286208 -0.00885306069156123 -0.000354500734104804
0.000893211934339814 -0.00856655308863694 -0.000340584329304451
0.000621796958835968 -0.0077403168684147 -0.000304739483349949
0.000426260486977758 -0.00666223141458773 -0.000259069589597001
0.000302145675681129 -0.00574696802456867 -0.000220150075641433
0.00333629577939974 -0.0032247124982264 -0.000115573106961076
0.00293283729538951 -0.00439360618044496 -0.000158257116154722
0.0023913920787757 -0.00578384312208408 -0.000208642075643374
0.0018240160728157 -0.00687464708155088 -0.00024754131796916
0.00130899858908623 -0.00730135773866049 -0.000261624516127256
0.000883242634679577 -0.00693123373100749 -0.000246443703137228
0.000557416159901053 -0.00587733101925074 -0.000206801689798984
0.000330763148124191 -0.00449654820426835 -0.000156178087562729
0.000196533131021008 -0.00332045284229224 -0.000113565907270935
0.00375067533198 -0.00163458589588135 -5.26680445167519E-5
0.00327513639294223 -0.00295447499387544 -9.56291410356695E-5
0.00263021668424036 -0.00452871686829415 -0.000146737912435747
0.00195916292373831 -0.00575946565365996 -0.00018619500811328
0.00135798894817976 -0.00623656939863863 -0.000200536497251937
0.000868328798093628 -0.00581248308059059 -0.000185355383494618
0.000499860412371706 -0.00461054798657618 -0.000145420745421434
0.000250078962929862 -0.00303177040166151 -9.43494052970625E-5
0.000110371103532626 -0.00168866025199508 -5.17350488390846E-5
0.00102247765522074 -0.0277912056681698 -0.00178293334815646
0.000981753107952107 -0.0278593020383019 -0.00178554370137828
0.000932003851004662 -0.0279496284647919 -0.00178248758214773
0.000876754504623803 -0.028039079630842 -0.00177701890761228
0.00081970135683049 -0.0281095695784526 -0.00177161217266659
0.000764178481579261 -0.0281529439167001 -0.00176730100192393
0.000712818007094097 -0.0281730421675367 -0.00176339547442122
0.000667412963634785 -0.0281843345353098 -0.00175770636758677
0.000628932207418784 -0.0282074686575742 -0.00174716900054626
0.00109379932493888 -0.0235434773966745 -0.00131164507426639
0.00104092235230899 -0.0236423416594031 -0.00131931606787563
0.000975663690935585 -0.0237794141697723 -0.00132398881245256
0.000903418350985947 -0.0239069597502893 -0.00132540758622815
0.00082960356126824 -0.0239884329324986 -0.00132341225819547
0.000758838516699986 -0.0240088933662435 -0.00131803781744077
0.000694554028133444 -0.0239791373766764 -0.00130950961111868
0.00063893762250113 -0.0239324437506837 -0.0012981868322045
0.000593051649684434 -0.0239146763495275 -0.00128442782379268
0.00121775636213215 -0.0194942565104346 -0.000948340055040677
0.00114556024867555 -0.019650112643559 -0.000959108555066382
0.00105532043549075 -0.0198605033049136 -0.000968866838543421
0.000955968552958944 -0.020046514202808 -0.000974938985669077
0.000856007008965204 -0.0201479741536784 -0.000975341257992418
0.000762162872809984 -0.0201410189006523 -0.000969422371300299
0.000678994539960825 -0.0200449036292413 -0.000958050757531387
0.000609081638550023 -0.0199164711838544 -0.000943355666790838
0.000553386632283937 -0.0198332830876427 -0.000928048804754376
0.00140481143118177 -0.0157199206735512 -0.000670984415223497
0.0013037176732434 -0.0159678983081533 -0.000684503420607667
0.00117580472069114 -0.0162879229943138 -0.000698537013938463
0.00103618591525066 -0.0165599365255069 -0.000708454016890249
0.000898406214903391 -0.0166925642921182 -0.000710797543650528
0.000772271425351041 -0.0166500154540124 -0.000704372030803979
0.000663679837848755 -0.0164622866105561 -0.000690577568552167
0.000575407160306607 -0.016217001532564 -0.000672987548130759
0.000507939794407785 -0.0160335529975271 -0.000656216181505469
0.00166671412147072 -0.0122723792916124 -0.000461565177829944
0.00152391623103907 -0.0126527281354059 -0.000478120776689426
0.00134136859972809 -0.0131254138678313 -0.000496415396426326
0.00114453586977266 -0.0135159513187121 -0.000510005587774454
0.000954712364948113 -0.0136923211246777 -0.000514095616494492
0.000785774372451103 -0.0136032179076459 -0.000507011722691269
0.000644874942509188 -0.0132920374803747 -0.000490642217580599
0.000534489632065282 -0.0128862695243819 -0.000469888401904374
0.000454040441013853 -0.012560918182992 -0.000451133289913731
0.00201103305711546 -0.00919081918587862 -0.000305725227806293
0.00181056577646178 -0.00974248253108148 -0.00032561364740762
0.00155232304844569 -0.0104110494953995 -0.000348264924222059
0.00127821566208253 -0.0109524258079686 -0.000365458856777663
0.00102060371810182 -0.0111845627917493 -0.000371158607884844
0.000798091053444521 -0.0110373378410601 -0.000363272011297853
0.000618460335174556 -0.0105696294615601 -0.000344130643081157
0.000483048107412453 -0.00995778453424705 -0.000319878603880056
0.000389497352405137 -0.00944849817813476 -0.000298638394668586
0.00242788616661127 -0.00652960617873458 -0.000192756746392131
0.00215345058452679 -0.00727782340285407 -0.00021580465070721
0.00179819279377941 -0.00817136593257091 -0.000242444571202427
0.0014278760224142 -0.00888428874928992 -0.000262823049133427
0.00108901756777784 -0.00917944971222907 -0.000269881960611399
0.000804738854664525 -0.00896659653819583 -0.00026121905369631
0.000582184415178385 -0.00832003784688965 -0.000239506070647184
0.000420538598348394 -0.00746961488763671 -0.00021191738221573
0.000315095357085218 -0.00674714814866169 -0.000188177529377037
0.00286740400946655 -0.00439578784447132 -0.00011552230998721
0.00251076299939173 -0.0053304292678374 -0.000140645929295483
0.00204787628874231 -0.00643812291959208 -0.000169894312917919
0.00157380299167974 -0.00731223741912245 -0.000192282322512253
0.00115033531249999 -0.00766597971718598 -0.000200189675060774
0.000803837586285645 -0.00739165531706096 -0.000191084747891318
0.000539391470980663 -0.0065754329351478 -0.000167791132690099
0.00035334083410089 -0.00549490422849242 -0.000138054915753683
0.000238557130164135 -0.0045667990436011 -0.00011271081928553
0.0032235945500991 -0.00295673148469487 -6.93799838705373E-5
0.00279820862346117 -0.0040083207619827 -9.43794653850436E-5
0.00224506112050428 -0.00525115961884518 -0.000123590253671677
0.00168552543881264 -0.00622556782272279 -0.000145916677200112
0.00119392315958556 -0.00661526450604221 -0.000153862849445906
0.000798411215189958 -0.00630246636902502 -0.000144988589919802
0.000501727676921742 -0.0053785381433667 -0.000122026799042916
0.000297673803149927 -0.0041488864058198 -9.26008547723842E-5
0.000177189001883814 -0.00308721287680737 -6.76503452370425E-5
0.000877608515824482 -0.027849151806605 -0.00119172481522164
0.000846969942751882 -0.0279135957870624 -0.00119138561845775
0.000809715648623298 -0.0279997751198375 -0.00118688162204776
0.000768415478471175 -0.0280868961253472 -0.00118078435162699
0.000725771273386851 -0.0281585549168431 -0.00117506727705517
0.000684234495099595 -0.0282071298216734 -0.00117058312721096
0.000645762888180995 -0.0282356660237993 -0.00116683885805556
0.000611719147045192 -0.0282566900428008 -0.00116216219548326
0.000582874303745888 -0.0282882885712194 -0.00115418613949364
0.000924787746696546 -0.0236667520775978 -0.000871386431907416
0.000884557591215415 -0.0237541663095259 -0.000874736934774837
0.000835177138926807 -0.0238784326901185 -0.000875763777935233
0.000780582281595205 -0.0239974702137489 -0.000874681507270382
0.000724744701627235 -0.0240788573672583 -0.000871688116102366
0.000671086975635086 -0.0241090204516117 -0.000866951280499395
0.000622201084613395 -0.0240969584635293 -0.000860570939909049
0.00057979960758407 -0.0240713864375131 -0.000852557687294586
0.000544784777700605 -0.0240720837233691 -0.00084281216178136
0.00101060369149221 -0.0197135095327237 -0.000627922233420782
0.000955614508370137 -0.0198441995728341 -0.000633289860288345
0.000887309592902936 -0.0200265801480511 -0.000637657314311888
0.000812190760346459 -0.0201929982850075 -0.0006397378474314
0.000736471815244063 -0.0202914508112529 -0.000638592030093426
0.000665126382118348 -0.0203008330797912 -0.00063395025541696
0.000601604075297072 -0.0202370337317219 -0.000626297395408617
0.00054795021382387 -0.0201480889007338 -0.000616722087751335
0.000505044134917058 -0.0200996462319712 -0.000606558971366368
0.00114275341425054 -0.0160796192289411 -0.000445118765111497
0.00106606962653312 -0.0162788865108018 -0.00045193879013791
0.000969765095133448 -0.0165447143927022 -0.000458716558817165
0.000864798584385097 -0.016777806335419 -0.000463094875452399
0.000760996402931058 -0.0169016459178143 -0.00046331680943818
0.000665543664026 -0.0168854897396433 -0.000458802860718129
0.000582865509248332 -0.0167535068805075 -0.000450324421909176
0.000515162365007516 -0.0165776033904525 -0.000439752723126403
0.000462987306772361 -0.0164554728339741 -0.000429442207951761
0.00132956366531165 -0.0128281076186801 -0.000309805419233078
0.00122183108043498 -0.0131221133438093 -0.000317948329728156
0.0010854602748105 -0.0134983987590197 -0.000326750762937755
0.000938809209907801 -0.013818672103314 -0.000333005471134508
0.000797150885864158 -0.0139762321644359 -0.000334308201021026
0.000670500174339489 -0.0139283133512295 -0.000329840692156484
0.000564121285192265 -0.0137088551401444 -0.000320609743516395
0.000479938012575855 -0.0134189425611102 -0.000309116277418907
0.000417690723134154 -0.0131960803091099 -0.000298526210568641
0.00157590228957249 -0.0100014413975995 -0.000211407622061377
0.00142529937003877 -0.0104120548369925 -0.000220800451748136
0.00123399524512378 -0.0109221200295599 -0.000231367249537932
0.001031952494849 -0.0113470539621595 -0.000239194526637224
0.00084200607109223 -0.0115450698917783 -0.000241359341416971
0.000677285269460279 -0.0114593600879937 -0.000236860951153585
0.000543317372377781 -0.0111345276500782 -0.000226897198832913
0.00044101978637504 -0.0107053698843198 -0.000214481466733372
0.000368699079225584 -0.0103572893623432 -0.000203456301584187
0.00187372179604126 -0.0076379001131594 -0.00014169907779079
0.00166790658306994 -0.00817532903098976 -0.000152105804031775
0.00140681330479784 -0.00883000965910879 -0.000164036063508075
0.00113692955810937 -0.009366920058095 -0.000173037672567217
0.000890375990243944 -0.00960785803455672 -0.000175831460683471
0.000682966621701595 -0.00948146521334182 -0.000171302487476856
0.000519427502952151 -0.00904230170032524 -0.0001607750591574
0.000398773719343474 -0.00845984150257349 -0.000147618923363416
0.000317315812581142 -0.00797259714488792 -0.000136193720788792
0.00218671828106903 -0.00579208782096088 -9.45419321838568E-5
0.00191897216573984 -0.00644385175654182 -0.000105423521759413
0.00158096665606518 -0.00722814034947039 -0.000117997821136922
0.00123904928851975 -0.00786394737881568 -0.000127547135609425
0.000934822947905519 -0.00814235078419713 -0.000130671385604806
0.000685605634876544 -0.00797972497177543 -0.000126230550067137
0.000494191420615172 -0.00743756970564993 -0.000115581146294056
0.000357055375166314 -0.00671410919571821 -0.000102215330982415
0.000268313441147009 -0.00609735347581093 -9.07459031713707E-5
0.00244025209746761 -0.00453814566556011 -6.53180202753086E-5
0.00211983901701833 -0.00525780181007912 -7.58010479573737E-5
0.00171735364248101 -0.00611819994409729 -8.79494151540355E-5
0.00131669307460473 -0.00681097417093569 -9.71859252783308E-5
0.000966785680183074 -0.00711075312214159 -0.000100276632930504
0.000685357241518616 -0.00692708901541421 -9.61515423912923E-5
0.00047307057868088 -0.00632367434884084 -8.60909605156546E-5
0.000324080908133029 -0.00551346513571573 -7.34185002882747E-5
0.000230678502453385 -0.00481510769992137 -6.2605340067588E-5
0.000717819424618834 -0.0279021902502334 -0.000553959592026914
0.000698647479463463 -0.0279645045222716 -0.000551288895605677
0.000675578356534693 -0.0280483368524986 -0.000546186785529044
0.000650040900921757 -0.0281346826793494 -0.000540154292449587
0.000623580154562585 -0.0282084162052379 -0.000534377699721939
0.00059765212833526 -0.0282622754250891 -0.000529425328515515
0.000573482392894909 -0.0282986071691047 -0.000525108743926411
0.000551990640797447 -0.0283283242750046 -0.000520562335026413
0.000533765420364978 -0.0283674111966055 -0.000514507270962404
0.000736372169556906 -0.0237755802399424 -0.000397749943063727
0.000710704585175356 -0.0238551702129989 -0.000397392870204912
0.000679526428345671 -0.0239708593121568 -0.000395578720320215
0.000645015365442506 -0.0240849431454384 -0.000392645635520015
0.000609455234603934 -0.0241681526087871 -0.000388895035128896
0.000574925244747825 -0.0242078871422304 -0.000384535683699329
0.000543128345738752 -0.0242116183964996 -0.000379636811525014
0.000515323383867584 -0.0242043428115665 -0.000374117199866924
0.000492309452071453 -0.0242209136802496 -0.000367766981399654
0.000776506965652749 -0.019900879647452 -0.000281437301357594
0.000741651741423781 -0.0200135535330703 -0.000282335997078537
0.000698770690931668 -0.0201762265017561 -0.000282454176403552
0.000651418260024597 -0.0203299415664336 -0.000281446532813456
0.000603137571468859 -0.0204289368115756 -0.000279090860784733
0.000556957675962254 -0.0204541129538615 -0.000275382581952017
0.000515202462164988 -0.0204185601626295 -0.000270542846481908
0.000479480371682017 -0.0203632245272799 -0.000264948369506764
0.000450725982223259 -0.0203441830994763 -0.000259003668491876
0.000842465385218829 -0.0163788396621132 -0.000196178971496925
0.00079484493930368 -0.0165423654272856 -0.000197841059358469
0.000735532900621851 -0.0167690904799741 -0.000199186331931379
0.000670436777981793 -0.0169756829099471 -0.000199450113514081
0.000605079229656017 -0.0170969310049979 -0.000198083716922679
0.00054380901877088 -0.0171057954436978 -0.000194950655199407
0.000489663722313861 -0.0170217100247483 -0.000190371001741839
0.000444526564164923 -0.0169040853210348 -0.000185007316122621
0.000409305053970947 -0.0168333070034441 -0.00017963365248661
0.000938456919051429 -0.0132811572301909 -0.000134819927921875
0.000873267990514941 -0.0135107823154083 -0.000136988414801057
0.000791340072379409 -0.0138165101160693 -0.000139151799438401
0.000702424803312873 -0.0140876897155925 -0.000140283212273624
0.000614958455024701 -0.0142367060345676 -0.000139624225098055
0.000534948250964077 -0.0142270704936342 -0.00013695500127327
0.000466103247650031 -0.0140852473001162 -0.000132664425076532
0.000410362804848667 -0.0138916616858952 -0.000127601144185187
0.000368327868377997 -0.0137541518978144 -0.000122765997942606
0.00106642279799197 -0.0106528534593931 -9.16009861255746E-5
0.000977606440108948 -0.0109570025805621 -9.4087115991469E-5
0.000865595094238346 -0.0113501493723313 -9.67695996867301E-5
0.000746058919243887 -0.0116926750752039 -9.84697165222627E-5
0.000631367048820004 -0.0118726656148625 -9.83029400580554E-5
0.000529327916366316 -0.0118430307025602 -9.60000799556502E-5
0.000444042027469977 -0.0116374833754318 -9.19949025051938E-5
0.00037710840764513 -0.0113590081063843 -8.7249038041718E-5
0.000328436893266756 -0.0111450443901759 -8.28906747735992E-5
0.00122119483906686 -0.00851953681063815 -6.19476996536592E-5
0.00110244038939875 -0.0088961759053384 -6.45620972501538E-5
0.000953114617025155 -0.00937410120421252 -6.74887143816309E-5
0.000797131970930509 -0.00978595688925638 -6.94925679134191E-5
0.000651523340474176 -0.00999626191332865 -6.96390093214154E-5
0.000525642168218763 -0.00994722801981605 -6.76388830930824E-5
0.000423434736149954 -0.00967902065654269 -6.39444509434916E-5
0.000345648300694246 -0.0093161964326512 -5.95599669423026E-5
0.000291107618359127 -0.00902530335087077 -5.56542984549074E-5
0.00138309403783 -0.00689535025018586 -4.22757861074808E-5
0.00123101900939254 -0.00732921147869233 -4.48140503860651E-5
0.00104129478379381 -0.00787411985152825 -4.77079641708391E-5
0.000847508996107019 -0.00834093101335549 -4.97607026734135E-5
0.00067124995706592 -0.00857559168173735 -5.00646199385554E-5
0.000522753494993587 -0.00851138102035095 -4.83387705739963E-5
0.000405213300358062 -0.00819274334837337 -4.50229585277118E-5
0.000318128112980665 -0.00776076781833267 -4.10889126118719E-5
0.000259020670612539 -0.00740579965062385 -3.76599799535164E-5
0.00151368297354432 -0.00578408196678688 -2.97784585077917E-5
0.00133320282101389 -0.00624574977813134 -3.20384803267034E-5
0.00110988014510161 -0.00682313283382743 -3.46370172610887E-5
0.000885692675764575 -0.00731696364829466 -3.65056127313461E-5
0.0006855905578212 -0.00756433116769744 -3.68354539766183E-5
0.000520064175366543 -0.00749357529975457 -3.53784449752977E-5
0.000391388653767845 -0.00715016408247651 -3.25305643457692E-5
0.000297867858335568 -0.00668238833020807 -2.91585539863949E-5
0.000235871762977758 -0.00629268245078943 -2.62578998755969E-5
0.000550238248037973 -0.0279318799839685 0.000109086660161079
0.000543237393904321 -0.0279950673416512 0.000113704224537037
0.000535199286329386 -0.0280800347800599 0.000118889451022605
0.000526314227166361 -0.0281684565912649 0.000124442533168326
0.000516889198675497 -0.0282456407097858 0.000130132450331125
0.000507333024409979 -0.0283043438830808 0.000135734519798545
0.000498119368137783 -0.0283464600836629 0.000141067491926803
0.000489730851466049 -0.0283820481856677 0.000146017997685185
0.000482593771626356 -0.0284260387387385 0.000150544311585412
0.000537974540856031 -0.0238306131691048 9.46260700389105E-5
0.000527816357562499 -0.0239096239871447 9.82538906548585E-5
0.00051595156836788 -0.0240250256381743 0.000102354979946598
0.000502647931943792 -0.0241408094410706 0.000106696393093234
0.000488384974025974 -0.0242288508753879 0.000111038961038961
0.00047383711050103 -0.0242767436664587 0.000115190685619333
0.000459813453299496 -0.0242910627856122 0.000119049794504993
0.000447157364797067 -0.0242949552461742 0.000122620833776206
0.000436622743190661 -0.0243209187139697 0.000125996498054475
0.000528854526337969 -0.0199896022217507 8.03962073324908E-5
0.000515537587822458 -0.0200986349797672 8.32916418274438E-5
0.000499668321964789 -0.020257939657771 8.66131850056555E-5
0.000481604434503425 -0.0204119579174626 9.0072624143836E-5
0.000462046547169811 -0.0205172633282543 9.33962264150942E-5
0.000442011163099315 -0.0205552803261088 9.63999785958902E-5
0.000422728451008727 -0.0205375429095531 9.90429908607472E-5
0.000405473447620854 -0.0205015706946436 0.000101436300942987
0.000391364203539823 -0.0204989524612561 0.000103801011378003
0.000523539057070775 -0.0165134890292493 6.70441826124838E-5
0.000507149770326137 -0.0166675290211162 6.94502756086358E-5
0.000487142873036997 -0.0168848876832999 7.22666622305032E-5
0.000463974925656285 -0.0170884956603227 7.51304079157595E-5
0.000438630204819277 -0.0172174533152153 7.77108433734941E-5
0.000412571798599818 -0.0172458390645592 7.98132183200106E-5
0.000387566780942241 -0.0171905687418243 8.14464067074793E-5
0.000365411189710611 -0.017105135376105 8.28234956361966E-5
0.00034762200750038 -0.0170619033514709 8.42918718759348E-5
0.000522177514028345 -0.0134771566499431 5.50687136739468E-5
0.000502905873068138 -0.0136873397476603 5.7190233726903E-5
0.000478715512927174 -0.0139733461437524 5.97265150026884E-5
0.000450162829457272 -0.0142353626204744 6.22263873586895E-5
0.000418588142857143 -0.0143931438754838 6.42857142857142E-5
0.000386029660627036 -0.0144122895305354 6.56860479737496E-5
0.000354930480032599 -0.0143154559108621 6.64801550904692E-5
0.000327702817799836 -0.0141734484137035 6.69819065490126E-5
0.000306279835154392 -0.0140804663659791 6.76623553244331E-5
0.000524290178251352 -0.0109264622892998 4.48144749888632E-5
0.000502444315308454 -0.0111960663021062 4.67989718202591E-5
0.000474177042253521 -0.0115536804004566 4.92147887323942E-5
0.000440132592390789 -0.0118772327796804 5.1518852755817E-5
0.000402077064516129 -0.0120664174884098 5.32258064516129E-5
0.000362758554663724 -0.0120776239068466 5.40867545757859E-5
0.000325436234247591 -0.0119392617004515 5.41951445515196E-5
0.000293215348057883 -0.0117397361732141 5.39626428027421E-5
0.000268426165356594 -0.011594570199106 5.39755636666718E-5
0.000528719829403155 -0.00888205156997847 3.64850544804034E-5
0.000504724496647034 -0.00920425142965356 3.84131643840476E-5
0.000472715160346 -0.0096258587228132 4.07932301488332E-5
0.000433398099137931 -0.0100056987041463 4.30002155172414E-5
0.000389009251256281 -0.010224912935826 4.44723618090452E-5
0.000343107090517241 -0.010230872473629 4.49308189655171E-5
0.000299861240430508 -0.0100570710413347 4.45061141438468E-5
0.000263091229367726 -0.00980780830652514 4.36972528739711E-5
0.000235454880956253 -0.00961691949772642 4.31864368189949E-5
0.000533729928100152 -0.00734277711477878 3.01589071223143E-5
0.000508093824369067 -0.00770098002235844 3.20467885357469E-5
0.000472962348299913 -0.00816766143192964 3.44017350378242E-5
0.000429074041412911 -0.0085888595855511 3.65421593065745E-5
0.000379123579439252 -0.00883183290824838 3.78504672897197E-5
0.000327482880944962 -0.00883661961274153 3.80265742288191E-5
0.000279211550351304 -0.00864016598718666 3.72310401531723E-5
0.000238767324964716 -0.00835817951635179 3.60272537498065E-5
0.000209018129081374 -0.00813676915788868 3.51599898494334E-5
0.000537330052833941 -0.00628640347027884 2.57974615748866E-5
0.0005105869375 -0.00665726677993314 2.76114583333333E-5
0.000473238076211485 -0.00714115530763872 2.98920870988401E-5
0.000426039813301671 -0.00758029601117776 3.19397625065492E-5
0.000372056922077922 -0.00783600587554781 3.3116883116883E-5
0.000316319222879029 -0.00784442977011694 3.31185496429473E-5
0.000264578010745037 -0.00764338213363847 3.21231409663417E-5
0.000221732534722222 -0.00735269263090091 3.07218750000001E-5
0.000190721117512786 -0.00712207065918239 2.96767595686728E-5
0.000382792432858409 -0.0279310426527074 0.00077198964453317
0.000387931655849652 -0.0279985598525725 0.00077856395227332
0.000394869476961332 -0.0280886532414775 0.000783849089601871
0.000402557503268443 -0.0281823490234124 0.000788940082031744
0.000410067097013754 -0.0282643842691077 0.000794554752688811
0.000416766104229454 -0.0283271371366791 0.000800807516699938
0.000422387513736693 -0.0283723591140466 0.000807146263322565
0.000426993057350517 -0.0284101869552567 0.000812481429334233
0.000430865140361178 -0.0284557788741278 0.000815456740008543
0.000339895190701357 -0.0238166902791022 0.000586729694517032
0.00034517642247547 -0.0239035546092961 0.000593650234174286
0.000352500704574085 -0.024028276419825 0.000600068113395439
0.000360225243417124 -0.0241533468875466 0.000605841836890417
0.000367029807840887 -0.0242494004987423 0.000610782113841463
0.000372196671004708 -0.0243033121891354 0.000614706666900211
0.000375665752483811 -0.0243215375391202 0.000617482171136874
0.00037790249829791 -0.0243276405879307 0.00061904624099218
0.000379659753086471 -0.024354878686725 0.000619390650244198
0.000281907271505848 -0.0199540455298154 0.000441739008387887
0.000289995158542334 -0.020076239709034 0.000448478619319166
0.000300893456101731 -0.0202511903911383 0.000455302348978079
0.000311764828726778 -0.0204204489950945 0.000461261538624304
0.00032047802613388 -0.0205383014319958 0.000465563463524459
0.000326061348059118 -0.02058495559607 0.000467823453121013
0.000328698602669181 -0.020571892339658 0.000468184228883503
0.000329406075069782 -0.0205376039015695 0.000467264414348199
0.000329575033340429 -0.0205353092150255 0.000465942782464178
0.000206069397299836 -0.0164437369234591 0.000329444845700057
0.000220675056820686 -0.0166190463734621 0.000336021037517499
0.00023952276037957 -0.0168616881717705 0.000343121969717017
0.000257629963270877 -0.0170894100672805 0.000349207625771307
0.000271467494600085 -0.017237403719884 0.00035302734315845
0.000279656865406065 -0.0172778312365349 0.000354034881663362
0.00028277890710932 -0.0172277161016487 0.000352574712657434
0.000282681091187278 -0.0171424334841737 0.000349771085142909
0.000281661605093431 -0.0170974124052888 0.00034715045618925
0.000108699785037401 -0.0133573725570668 0.000243666828954057
0.000134946825773888 -0.0136008074087451 0.000250265841358243
0.000167700463881394 -0.0139262677831438 0.000257723533594298
0.000198363008437221 -0.014225145842781 0.000264025073283847
0.000221234035059607 -0.0144109461164422 0.000267536660430494
0.000234456677128139 -0.0144464697046637 0.00026756954378978
0.000239346674041014 -0.0143547900952663 0.000264629434044212
0.000239032216121905 -0.0142099529727753 0.000260251492813314
0.000237093300274108 -0.0141114227599935 0.000256476222241788
-1.28498574906747E-5 -0.0107399320403444 0.000179330056944039
3.1629451482586E-5 -0.0110593520454086 0.000186099994019228
8.57748204314806E-5 -0.0114758508827433 0.000193981104643668
0.000135314633513245 -0.0118533201863516 0.000200569888011226
0.000171524098234509 -0.0120821910716646 0.000203908547389658
0.00019220293354963 -0.0121151375226829 0.000203183374173663
0.000199976084852015 -0.0119814789203179 0.00019903203630061
0.000199854214463946 -0.0117746218274853 0.000193329224433621
0.000197136454771857 -0.0116183614100259 0.00018853075157834
-0.000155608099578449 -0.00861691515270545 0.000132309678842036
-8.58387875386336E-5 -0.00900943742765106 0.000139261439241513
-2.62880419168159E-6 -0.00951368341031558 0.000147501456037904
7.17631640734889E-5 -0.00996776453351954 0.000154337983892569
0.000124981849180996 -0.0102403092644466 0.000157570043804174
0.000154940006884383 -0.0102743159619404 0.000156288917803414
0.000166305878467521 -0.010104834026472 0.000151230477516085
0.000166574185834249 -0.00984302211310291 0.000144521562596122
0.000163127102536036 -0.0096344342808642 0.000138922867257933
-0.000303689869316545 -0.0070019743213985 9.93054377125256E-5
-0.000204311329194546 -0.00745147248417744 0.000106278326675713
-8.7872958799024E-5 -0.00802469551326387 0.000114629354274839
1.39585058349243E-5 -0.00854013373311146 0.000121521394386168
8.53069652919532E-5 -0.00884988751655528 0.000124633353473949
0.000124855019489701 -0.00888950547978154 0.000123010815942826
0.000139851516326611 -0.0086981473187521 0.000117441037198397
0.00014053348354512 -0.00839976691749062 0.000110177468364914
0.000136420704877662 -0.00815509947732623 0.000104133862244097
-0.000423660706770284 -0.00589771115125171 7.76473775174917E-5
-0.000298490507995519 -0.00637438809584756 8.43238636134324E-5
-0.000153725966398781 -0.00698115504690729 9.23671669630337E-5
-2.91788276243907E-5 -0.00752816995038961 9.8984303670504E-5
5.67684783594996E-5 -0.00786039461359727 0.000101893766126115
0.00010387593906744 -0.00790984812810516 0.000100160074206036
0.000121719339636633 -0.00771696796422766 9.4563939722236E-5
0.000122782466649299 -0.00741018381345546 8.73261248418312E-5
0.000118232633895816 -0.0071548709956355 8.13155434403521E-5
0.000223360767306836 -0.0279057302566766 0.00140940118516492
0.000239889467873948 -0.0279803175728869 0.00141833017404054
0.00026087167238824 -0.0280786975059008 0.00142425477237261
0.000284117374756646 -0.0281801305889088 0.00142932347288642
0.000307547381080318 -0.0282679399468796 0.00143502422000458
0.000329550391800211 -0.028333799841198 0.00144174382942051
0.000349156997805746 -0.0283795981241997 0.00144862259744807
0.00036602902136598 -0.0284163586035966 0.00145377191589804
0.00038031537811516 -0.0284605730820582 0.00145476354246241
0.000152333900797631 -0.0237470422777031 0.00105967471087578
0.000171999102194814 -0.0238486130953846 0.00107035959504601
0.000197202874970008 -0.023990460900439 0.00107969619903376
0.000224542074677751 -0.0241308743647129 0.00108738258236982
0.000251020320040141 -0.0242372310565282 0.00109309289055396
0.000274609899234276 -0.0242949266375281 0.00109658495808704
0.000294427335982854 -0.0243109819316417 0.00109775897383342
0.000310584761615345 -0.024311335947206 0.0010966706577473
0.000323850000247726 -0.0243326857012816 0.00109346598705637
4.97056114631634E-5 -0.0198168183169495 0.00078695323200417
7.75822377301364E-5 -0.0199659975308608 0.000798294965957593
0.000113263873759691 -0.0201722589851944 0.000809534667767948
0.000150969536148371 -0.0203689174739766 0.000818709757913129
0.000185924957729452 -0.0205040317560712 0.000824248205959829
0.000215278533254391 -0.0205551205564066 0.000825467899911351
0.000238215149771324 -0.02053492783108 0.000822784491615304
0.000255514595006127 -0.020486726231968 0.000817582138344338
0.000268864189834108 -0.0204706421170076 0.000811756070017989
-9.03064982237613E-5 -0.0162047887823195 0.000576227013887643
-4.72525137472411E-5 -0.0164268793931601 0.000588234747332422
7.39854604066012E-6 -0.0167236645895184 0.000601099121310349
6.36428186674302E-5 -0.0169979084568756 0.000611553828693307
0.000113713251048181 -0.0171738105073099 0.000617029878376162
0.000153513223346074 -0.0172190002462038 0.000616483256178454
0.000182463329148136 -0.0171529045286481 0.00061072807723522
0.000202468028055004 -0.0170395688085737 0.00060219377201304
0.000216642285907761 -0.0169671002513781 0.000594143062879361
-0.000274879195149418 -0.0129734853115335 0.000415237152579203
-0.000207126994790402 -0.0132941360989643 0.000428315422895522
-0.000122033656100887 -0.0137088365260777 0.000443012359191883
-3.6696462808064E-5 -0.0140832017320305 0.00045489980067425
3.64951070956155E-5 -0.0143125698901787 0.000460514871114183
9.18775365126221E-5 -0.0143526281080216 0.000458483105740319
0.000129589702730809 -0.0142305676401788 0.000449959599848901
0.000153437140491203 -0.0140349689587778 0.000438292909929912
0.00016871140813668 -0.0138870915344717 0.000427954200910158
-0.000508888499576372 -0.0101649280021368 0.000294075907580773
-0.00040429614327915 -0.010604835696114 0.000308601334258771
-0.000274398021617252 -0.0111604703524536 0.0003253646702408
-0.000147468421558821 -0.0116539741701815 0.00033884715329206
-4.23927945911184E-5 -0.0119478722091298 0.000344769274700885
3.36186842413621E-5 -0.0119845743304897 0.000341456963251104
8.23395005977424E-5 -0.0117997800982961 0.000330360226848999
0.000110562018150232 -0.0115093243806048 0.000315654688771379
0.000126682339669427 -0.0112719853812295 0.000302936491530144
-0.000786130268610075 -0.0078169937595951 0.000205075016047437
-0.000631856617933573 -0.00838463036771421 0.000221117169724654
-0.000442472618920722 -0.0090908890007753 0.000239872960347104
-0.000262160689743323 -0.00971123885351644 0.000254859492571267
-0.000117799589467436 -0.0100750717295912 0.000261130804976151
-1.75090626166951E-5 -0.0101120151725895 0.000256779435701672
4.33836480539987E-5 -0.00986597933259373 0.000243478946140613
7.57949547560745E-5 -0.00947953537159297 0.000226073617092224
9.20724298919084E-5 -0.00914986799193545 0.000211147876715571
-0.00107493448873587 -0.00598376066178301 0.000142722367423025
-0.000863506566884411 -0.00666492717671842 0.000159816134099109
-0.000606875267961443 -0.00750502560197147 0.000179900266583178
-0.000368265293317506 -0.0082377138898618 0.000195836945814264
-0.000182649049254302 -0.00866547663491917 0.000202304160795802
-5.79029883993349E-5 -0.00870831979146467 0.000197280208636983
1.45732459986605E-5 -0.0084163220451085 0.00018254805691265
5.03842352488491E-5 -0.00795271428319201 0.000163328046792568
6.6090632106402E-5 -0.00754660733895386 0.000146872721882561
-0.00130848334995411 -0.00473851528781231 0.000103129814963715
-0.0010479691727043 -0.0054860845877729 0.000120154134443203
-0.000734391273325808 -0.00640474322482503 0.000140182684351093
-0.000447694554149552 -0.00720423011396959 0.000155988145008557
-0.000228969593226553 -0.00767378431913561 0.000162291860995686
-8.50935898664868E-5 -0.0077291266271194 0.000157112847739478
-3.81752007642592E-6 -0.00742259044821535 0.000142202493920948
3.43662256547092E-5 -0.00692594649953542 0.000122741590290637
4.93625511626026E-5 -0.00648351455956046 0.000106072731958217
7.89394017566258E-5 -0.0278734291930973 0.00200025215451207
0.00010547372918416 -0.0279561140068859 0.00201214965319885
0.000138790607825042 -0.0280639654481509 0.0020195634529785
0.000175743815067838 -0.028173940210877 0.00202530261917084
0.00021326688853988 -0.0282675459488662 0.00203133439488881
0.000248886032190177 -0.0283356118466863 0.00203821144134084
0.000280995113113199 -0.028380325925867 0.00204487387958802
0.000308880755447045 -0.0284140291427867 0.00204892655202981
0.000332557074539689 -0.0284551212545778 0.00204726489842108
-1.55605684739736E-5 -0.0236594196686946 0.00149916406762985
1.6548651784194E-5 -0.0237785881594113 0.00151423589918436
5.72446816454406E-5 -0.0239408621562214 0.0015273115188701
0.000101661289643068 -0.0240990040546191 0.00153757085174814
0.000145370161091326 -0.0242161463008202 0.00154428698262654
0.000185188732487319 -0.0242758510506403 0.00154706095701541
0.000219478661895175 -0.0242860880869597 0.00154592253542502
0.000248006693493995 -0.0242762028438504 0.00154131076880358
0.000271533330233654 -0.0242877184467147 0.00153388647965431
-0.000154965050460515 -0.0196423103749121 0.00110586800899347
-0.000110290808781414 -0.0198246066585636 0.00112277989389434
-5.34620884068189E-5 -0.0200691828023532 0.00113962363573765
7.31265741436617E-6 -0.0202984453356616 0.0011529526211127
6.50040264781081E-5 -0.0204522315207324 0.00116006920076285
0.000115089263534619 -0.0205046432318317 0.00115986740293874
0.000155808667885517 -0.0204704224998885 0.00115315911659941
0.000187668349977469 -0.0203996574362105 0.00114243996646503
0.000212585357606548 -0.0203621474654693 0.00113109538021937
-0.000347261149921097 -0.015897365310085 0.000799445859544877
-0.000280542184319094 -0.0161778678554436 0.000818507456143355
-0.00019576998658848 -0.0165421961730565 0.000839059592758186
-0.000107069804365431 -0.0168731162404845 0.000855385752198857
-2.58452548666437E-5 -0.0170801001051031 0.00086307131489536
4.13401152402998E-5 -0.0171248623859524 0.000860384042674688
9.27329338969843E-5 -0.0170305323250616 0.000848791995813593
0.000130153931115239 -0.0168735536841448 0.000832555372971669
0.000157387634629392 -0.0167598556739667 0.00081740204694032
-0.000602234000457622 -0.0124751533228949 0.000562714171928678
-0.00050067987340585 -0.0128933020716984 0.000584862710737198
-0.000372063924723735 -0.0134210411796998 0.000609841363057214
-0.000240464741828549 -0.0138892511869944 0.000629676419864326
-0.000124103674080139 -0.0141684670366862 0.000638267756770407
-3.22356631358172E-5 -0.0142047839694715 0.000633268665786711
3.38996211980983E-5 -0.0140316684347559 0.000616759976628082
7.84375087351925E-5 -0.0137587057724222 0.00059470846232837
0.000108102062388511 -0.0135380632761407 0.000575155357779565
-0.000926530962459874 -0.00941350122957322 0.000381958532455465
-0.00077408740592218 -0.0100064547936406 0.000408083535538267
-0.000581736692078667 -0.0107405761188737 0.000438250510606555
-0.000389353194316805 -0.0113810223107328 0.000462122967275363
-0.000224944054735486 -0.0117512396835709 0.000471920222507845
-0.000100755007509639 -0.0117791986000788 0.000464700965219815
-1.64616602566895E-5 -0.0115103297221978 0.000443119161245302
3.5804975199895E-5 -0.0110935041456355 0.000414825550686842
6.70715750810522E-5 -0.0107378402321144 0.000390269608058487
-0.0013116113674599 -0.00676580771786776 0.00024716618923272
-0.00109171622048113 -0.00755619325041608 0.000277530526893694
-0.000815267313768485 -0.00852443402339804 0.000313004317008422
-0.000544929341508913 -0.00935903732210644 0.00034092052599552
-0.000321201841763078 -0.00983261002394963 0.000351992377869418
-0.000158861447181209 -0.00985490926915139 0.000342782514479394
-5.44912559533962E-5 -0.00948349847001182 0.000316412384262876
5.01901206114906E-6 -0.00890853200182839 0.00028203225272313
3.62896939307843E-5 -0.00840306010802446 0.000252458299950402
-0.00171330395690006 -0.0046392007152236 0.000152271329954496
-0.00141708556394614 -0.00561433810302561 0.000185894889841506
-0.00104584266269876 -0.00680360343728883 0.000225391935806793
-0.000690020802499525 -0.00782058498544916 0.000256274161955159
-0.000403474163166212 -0.00839317982152425 0.000268263717346327
-0.000202250498742079 -0.0084167409770605 0.000257645740491102
-7.85198877536236E-5 -0.00795844312014175 0.000227798837951075
-1.31569787749275E-5 -0.00724308780401671 0.000188856281382103
1.65222419695857E-5 -0.00660282531658677 0.000155479034298724
-0.0020371952416859 -0.0032027640989646 9.41570701357738E-5
-0.00167673190569521 -0.00429225994540875 0.000128413249361201
-0.00122561594149301 -0.00562101158012194 0.000168762433197844
-0.000799033864849909 -0.00675431005703062 0.000200153899546839
-0.000461603687363337 -0.00739469490479185 0.000212196182779239
-0.000229540151149449 -0.00743036576886402 0.00020120432171524
-9.0855877831238E-5 -0.00693258869076937 0.00017053079600494
-2.14088452283168E-5 -0.00614334844935766 0.000130422755919288
6.35501085706163E-6 -0.00542878785290148 9.6108280275693E-5
-4.50832542835497E-5 -0.0278579450106741 0.00253047781697759
-1.04076560141982E-5 -0.0279475250330862 0.0025459144084857
3.29298268531532E-5 -0.0280634549840957 0.00255565624036555
8.10803421055619E-5 -0.0281806333064761 0.00256275648694352
0.000130219898858637 -0.0282789481875801 0.00256935160039249
0.000177180391829198 -0.0283484892102885 0.0025760475691281
0.000219814089459682 -0.0283917460460527 0.00258170318095922
0.000257063858845114 -0.028422283283824 0.00258373225832006
0.000288796597441384 -0.0284602518210692 0.00257877425655626
-0.000156655828864623 -0.0236049968901892 0.00189800241112342
-0.000114732299848401 -0.0237394259895266 0.00191780070591181
-6.18010872639186E-5 -0.0239194540779959 0.00193513670834215
-3.76885749670142E-6 -0.024092874480035 0.00194840399333902
5.38605331328332E-5 -0.0242189933246859 0.00195627432002457
0.000106980323125288 -0.0242797386265886 0.00195811952660363
0.000153296633692683 -0.0242839914938592 0.00195417567158012
0.000192228860359271 -0.0242642515396755 0.00194546871841331
0.000224469768520939 -0.0242664699493016 0.0019334442401752
-0.000321953972231676 -0.0195176852071567 0.00139649145613371
-0.000264586171199115 -0.0197289620907444 0.00141942179840967
-0.000191659724121187 -0.0200071922891244 0.00144247885187558
-0.000113045631996772 -0.0202649146674359 0.00146045843665553
-3.74336657508723E-5 -0.0204344722596019 0.00146933207029829
2.93127902591163E-5 -0.0204868661957852 0.00146749588273007
8.45753043728418E-5 -0.0204387494883075 0.00145623550043575
0.000128506589540351 -0.0203465637504299 0.001439365509536
0.000163097704121014 -0.0202890303482275 0.00142203540049581
-0.000549788370970214 -0.0156581828536502 0.00100127200616446
-0.000466072017697866 -0.0159899521927386 0.00102817965553068
-0.000359280751430204 -0.0164139566091156 0.00105741093960019
-0.00024625694726101 -0.0167947918980069 0.00108040171531803
-0.000141049210789655 -0.0170283279494317 0.00109059191828434
-5.22376425959316E-5 -0.0170707902312777 0.00108545303496428
1.72589053390028E-5 -0.0169488657207035 0.00106721861167724
6.89277486901318E-5 -0.0167506776403608 0.00104228147512197
0.000106889028858044 -0.0165986845758479 0.00101923151053035
-0.000850712232177234 -0.01206751141586 0.000691870446269151
-0.000726290045317406 -0.0125709049499453 0.000724406653912151
-0.000567189811501938 -0.0131986849001134 0.000761290535541542
-0.000401925028776945 -0.0137500725957961 0.000790370123591477
-0.000252960161684366 -0.0140722949811704 0.00080242641532557
-0.0001326136098267 -0.0141022652909945 0.000793967080360224
-4.37241959171083E-5 -0.0138795524730766 0.000768176276736346
1.75888291146535E-5 -0.0135338344620501 0.000734123177700356
5.88412923790042E-5 -0.0132461122095256 0.000704050723732609
-0.00123132842288773 -0.00878201324319519 0.000452097361769393
-0.00104877386037112 -0.00950726112034206 0.000491773489982103
-0.000814592937870785 -0.0103990326601774 0.000537800590336029
-0.000575786832269241 -0.0111703751787565 0.000574045662075483
-0.000367118177830998 -0.0116070938329508 0.000588470581648832
-0.000205452499996942 -0.0116227032339886 0.000576595047879432
-9.26498528857077E-5 -0.0112723043553814 0.000542554196719397
-2.09300465246876E-5 -0.0107371101190242 0.000498234085929058
2.22510575282929E-5 -0.0102735629696197 0.000459915243287593
-0.00168048034037869 -0.00587141391833319 0.000270816109160347
-0.00142277649735244 -0.00685072445194172 0.000318058249452684
-0.0010906114148649 -0.00804927403606832 0.000373620778608594
-0.000757712415559136 -0.00907566541493929 0.00041723970969158
-0.000475049752502674 -0.00964591037614366 0.000434172225404202
-0.000264177707824783 -0.00964860491781952 0.000419051573805662
-0.00012460065460143 -0.00915533632490203 0.000376853493350687
-4.30416087632666E-5 -0.0084044071232477 0.000322155765936293
-3.43887070477024E-7 -0.00774098204527466 0.000275419020647114
-0.00214587682270889 -0.00349098406778359 0.000142653021095834
-0.00180550997486012 -0.00470945155455635 0.000195738598231695
-0.00136403720748992 -0.0062037831183432 0.000258778154050639
-0.000927911833383584 -0.00747654024101485 0.000308089160896237
-0.000566250531904701 -0.00817818853400696 0.000326943413099003
-0.000304501330108037 -0.00817580264596121 0.000309399394105776
-0.000138583165600272 -0.00755485203783066 0.000260972865342078
-4.89110439533691E-5 -0.00660500698061314 0.000198213840466237
-9.07214970728294E-6 -0.00575776785061306 0.000145037338974911
-0.00251776699479894 -0.00189227984494708 6.64346352476081E-5
-0.00211008520273195 -0.00325820657411046 0.000120856130195794
-0.00157766525987243 -0.0049430750011575 0.000185945220317561
-0.00105611774188616 -0.00637791052145055 0.000236744861136512
-0.000629937777833036 -0.0071719047308226 0.000256010718395497
-0.000327247316298176 -0.00717948730876242 0.00023773209304584
-0.000140602035610143 -0.00649294335682642 0.000187492624118655
-4.51868319860658E-5 -0.00543104434372091 0.000122357437440825
-8.68213344961401E-6 -0.00447904166784311 6.7527033340435E-5
</DataArray>
</PointData>
<CellData Tensors="stress" >
<DataArray type="Float64" Name="Stress" NumberOfComponents="6" format="ascii" >
-14.2793578195298 -55.5492467746209 -125.163820089541 1.21385975534275 -199.357517144097 0.590531831298011
-13.9616691955462 -54.6950235671827 -125.288184146072 -1.26233422242121 -199.255450104767 0.443460141526736
-13.5084455801554 -53.5098465089687 -124.732908197155 -4.13225293917422 -199.250903746891 0.27336573658794
-12.9790275265817 -52.1357770018872 -123.915705233648 -7.31826913911659 -199.247962439788 0.0832317312158534
-12.4321778888541 -50.7150500217743 -123.208903605265 -10.7066198327929 -199.164354814391 -0.121394315605322
-11.9125070848014 -49.3577182084036 -122.837341633488 -14.1593476282479 -198.956678278609 -0.332602732677628
-11.4403539280432 -48.1171990671513 -122.815359744714 -17.5315597255786 -198.634227443881 -0.540820963486427
-11.0086004416174 -46.9820512659295 -122.944441210203 -20.6902109724382 -198.257805511413 -0.735931055625448
-10.587472999807 -45.8866317219614 -122.872333924182 -23.5299666562954 -197.92380102205 -0.908601838688948
-10.1354546417493 -44.7363698445288 -122.193352033141 -25.9825680202559 -197.737617555199 -1.05154834760618
-10.8566992239236 -44.3821398316519 -120.796100503142 5.19282173897266 -161.905835085614 0.340736747634297
-10.6627220793143 -43.7941947065516 -120.76316010833 2.65177962899624 -161.972338689415 0.196871371124496
-10.3829224965122 -42.9965297673611 -120.036596964967 -0.360452336153417 -162.405065651168 0.0288590128119058
-10.0597867041255 -42.0917926133489 -119.115729256994 -3.73632416378312 -162.88194349836 -0.160954920739766
-9.73477205083361 -41.1821845664259 -118.444893362651 -7.32751038567936 -163.118803356165 -0.367299243717991
-9.4376704350849 -40.3436717350303 -118.28626769833 -10.9654192821888 -162.953591799151 -0.582045739011744
-9.17814332681198 -39.6052493763107 -118.643567916003 -14.4846928932213 -162.393787748089 -0.794799377648374
-8.94269955483876 -38.9410173117092 -119.259915171448 -17.7448206115325 -161.61523607187 -0.99402263602973
-8.69869746036077 -38.2789432397158 -119.69122267624 -20.6455794006618 -160.912746326405 -1.16859960129193
-8.40435505643723 -37.5241522345916 -119.433657827523 -23.1332918790756 -160.614805749222 -1.30956779258172
-8.64132054821994 -36.5101162604241 -124.831421609441 9.86785482906452 -125.603107505302 0.152850882137043
-8.51421241846317 -36.0407844845902 -124.182052506077 7.15888085393401 -126.013216524107 0.00514686290036967
-8.32573947821935 -35.4121683521572 -122.632673348716 3.82941660050859 -127.0813686262 -0.172824066264229
-8.12596555420329 -34.7539226126671 -120.991776124677 0.0323040275643532 -128.20630645844 -0.378848725771189
-7.96159178974725 -34.1896467307784 -119.981299442009 -4.02557279051243 -128.852838650534 -0.606989308095426
-7.86169064932935 -33.799713732873 -120.020649968446 -8.11770393996943 -128.712186423649 -0.847600451179029
-7.82711637325524 -33.5940941477303 -121.103824938117 -12.0317015847263 -127.791336457774 -1.08776568980531
-7.82721640517225 -33.5036323898968 -122.797185345879 -15.5966125426286 -126.411838997763 -1.31238978160061
-7.80616585010752 -33.395320345055 -124.359978351357 -18.7007063593188 -125.118379570286 -1.50619056901901
-7.69853194603016 -33.1109763894545 -124.962851831178 -21.29732320989 -124.517265236987 -1.65644555423975
-7.58648779558467 -32.0827671570512 -137.657143162784 15.2847769007222 -90.9820110237912 0.0489223866424003
-7.46034795407814 -31.5477039835066 -135.737581241504 12.3022277480631 -92.0155796712084 -0.109891529600202
-7.27068741805579 -30.8207264782997 -132.437573191689 8.45879474459721 -94.0515121242214 -0.311355431440545
-7.10519142896721 -30.1475676587158 -129.203932719452 3.97549411411551 -96.1149036682562 -0.552460052453456
-7.04284566749671 -29.753721890773 -127.332231454867 -0.848849297680212 -97.3327755682454 -0.825304352221212
-7.12783406164274 -29.7713728896848 -127.568137864659 -5.69501301802153 -97.2004900240143 -1.11728179201883
-7.35265428840381 -30.1936788445633 -129.8953691155 -10.2721728510098 -95.7256103400176 -1.41117286446948
-7.65411331005915 -30.86416781434 -133.532975951071 -14.3529985940318 -93.4267282002023 -1.68588171130032
-7.92569460358171 -31.5093061140463 -137.14534577553 -17.7963928316864 -91.1873874084181 -1.91892233193249
-8.04744139899468 -31.8178920276603 -139.246600549411 -20.556644925792 -89.9879907016511 -2.09097593946619
-7.67823176595875 -31.3064884846331 -159.896923180453 21.5241952628614 -58.423879303655 0.0519646448455808
-7.46342907617608 -30.4395224915595 -155.747099209072 18.1699699380747 -60.433438926933 -0.125456753302138
-7.14787227999589 -29.2307737382518 -149.307530364455 13.5930191519345 -63.8837639134101 -0.366173471164412
-6.90072584785584 -28.1791220786599 -143.174230366699 8.11634589039757 -67.2852994543003 -0.664637739166196
-6.87173586882089 -27.7329668284786 -139.668698200299 2.17753277892616 -69.3010444599648 -1.00903094670646
-7.14140224844511 -28.1437206540501 -140.112763174174 -3.76694180552819 -69.1616333789263 -1.38215814248853
-7.6930797904086 -29.3872109552133 -144.477981065694 -9.31016198832895 -66.8760349079428 -1.76072509618968
-8.40759854140643 -31.1497788969555 -151.381709525505 -14.1369871735684 -63.2307087045928 -2.11480681843685
-9.08589090839603 -32.8912157711805 -158.435629399409 -18.0540800634692 -59.5767686022356 -2.41057811193757
-9.50657445160584 -34.0050223451372 -162.981990598778 -21.0095832128188 -57.4120823482355 -2.61794394784922
-8.90549061868668 -34.3479529410239 -192.052030625312 28.6504892158378 -28.2395327916548 0.182158515099501
-8.48101185077864 -32.7753843397 -184.371574397627 24.850370817449 -31.5938617682906 -0.0212765052724874
-7.86740434757054 -30.5350399998424 -172.828661664415 19.3054405859206 -36.97079353575 -0.319564306640129
-7.38070468546128 -28.5895786967964 -161.938658193128 12.4896850198851 -42.1795909173336 -0.701438752752959
-7.29680817033508 -27.790201833703 -155.709295541347 5.0432769363718 -45.2603419560858 -1.14811978386868
-7.76122009696785 -28.6019682876823 -156.38429210997 -2.38625267581789 -45.0986520886856 -1.63607702122707
-8.74641815686132 -30.9807007573977 -163.920199551953 -9.23383075935854 -41.7053879342495 -2.13453191333061
-10.0439136786848 -34.3534815395435 -175.979771240982 -15.0586129703287 -36.2168658559819 -2.60169216778482
-11.3000215239994 -37.7217495013342 -188.452099109425 -19.5825377308207 -30.6137398657183 -2.98680500201489
-12.1207786547291 -39.9625223834707 -196.72952333399 -22.735362252157 -27.1013269416965 -3.24283434337365
-11.1856996409076 -41.086772722601 -233.545886633272 36.571115991392 -0.912842818227517 0.44658607430947
-10.4092120235762 -38.3576789148144 -220.863249395093 32.3000037890881 -5.89565040586291 0.210997081401129
-9.28414854067193 -34.3871193397338 -201.824626638842 25.5709340791146 -13.6587116186145 -0.164330308940046
-8.36190478520554 -30.8926917412067 -183.89696461477 17.0733889685474 -21.1056585200864 -0.657240938528421
-8.1156932208675 -29.3651857815349 -173.615222774428 7.72844729502257 -25.4942221152211 -1.23755346365819
-8.78990943567132 -30.5977180333431 -174.548529195112 -1.56988957589811 -25.2963597112032 -1.87378741095938
-10.3440773032257 -34.5223777779908 -186.635470925769 -10.0600770226702 -20.5248065958479 -2.52725520464718
-12.4403352028437 -40.181403479645 -206.172018302122 -17.1345841494999 -12.7355299139891 -3.14166897731569
-14.4894690430147 -45.8632405610351 -226.470268100736 -22.3853485626698 -4.70196167342628 -3.64251715493937
-15.8280519040996 -49.6218109082042 -239.928989995699 -25.7012987894254 0.453809640088567 -3.95757070005451
-14.2140716369467 -50.6043396892384 -280.811670036866 44.7620130640508 22.4884337291428 0.81792399900959
-12.9661010232931 -46.3321332391476 -262.033285649696 40.0741034254185 15.8421397469772 0.547761771754675
-11.1317929833852 -39.9695690048184 -233.432693527778 32.0486434349676 5.52923632829065 0.0804137163243192
-9.58954825734089 -34.2979328786116 -206.464590933827 21.6522787241501 -4.31950748985097 -0.544622468443748
-9.078369343641 -31.68224288405 -190.975612270041 10.1572839495084 -10.1001661497052 -1.28061440552166
-9.96987724049602 -33.3428914585275 -192.182938491196 -1.25883102104818 -9.85666242007828 -2.08711782559991
-12.2091578181238 -39.1851380078787 -210.005435374651 -11.6188478744182 -3.6029537344991 -2.91858660746175
-15.2951900225094 -47.7565889424004 -239.042585184104 -20.1162394639841 6.67070328977494 -3.70314850706737
-18.3248148439756 -56.3796651460936 -269.231502509775 -26.1619533731621 17.3150670995826 -4.33641525587341
-20.2654178452046 -61.9621183518945 -288.929766294623 -29.5720380585138 24.1570599633155 -4.71281754292194
-17.2757178632712 -60.5327959141103 -325.010482545899 51.9583197857541 40.0024926032948 1.20730837078499
-15.5421879439801 -54.6638351916158 -300.360623866782 46.9994376569189 32.0910796363523 0.906868305093429
-12.9464198226165 -45.7180876906732 -262.0561099856 37.817315146868 19.7124973914788 0.348779084384191
-10.7274954636209 -37.6659090012312 -225.831528635305 25.6572759217115 7.90154718652728 -0.406408190090641
-9.91063815515617 -33.8281422998266 -205.013215301818 12.1463634325457 0.99253614112913 -1.29263117960949
-10.9981024858503 -35.8711917192512 -206.470775973133 -1.26735415227811 1.28105290548521 -2.26059290156576
-13.920442144529 -43.6725279818322 -230.103887990089 -13.4065062942585 8.75282527767454 -3.25982730891267
-18.0091140666754 -55.2635459961091 -268.810781393651 -23.2635618889221 21.0727919251408 -4.20455922464479
-22.0246735683171 -66.9157825450879 -308.982739794952 -30.0441515080509 33.846001217231 -4.96015894970873
-24.5327935584461 -74.2695229442603 -334.643953476703 -33.4703849871916 41.9762994186176 -5.38648464361366
-19.2703995779064 -67.1145733590511 -352.622051515889 56.2834717420497 49.3192167970612 1.46655052283894
-17.2153621204349 -60.1687139779084 -324.379028895063 51.2509652348341 41.0137561582871 1.1476118722302
-14.0941573768342 -49.4062900151517 -279.797469236235 41.4246132586137 27.8962129618788 0.528731487421324
-11.3999987585863 -39.6514175712262 -237.474330053479 28.1978383604833 15.3606034417031 -0.314057504426735
-10.3626672496941 -34.9234176938408 -213.119291885906 13.4173182220913 8.03782158365915 -1.29986018986515
-11.5764662158294 -37.2128668882325 -214.738296515918 -1.28801228788448 8.355497936617 -2.37215335423853
-14.9590816092168 -46.3715790475333 -242.214953665518 -14.5961490802979 16.2994114491338 -3.47668070956801
-19.720662948113 -60.0495487432873 -287.273770220285 -25.3493897324366 29.3992111150706 -4.51875056450085
-24.3842619659656 -73.7574884315883 -333.878999011688 -32.6017553283518 42.9528400600865 -5.3450055452065
-27.2416857012703 -82.2464928608187 -363.164868052698 -36.0095143972126 51.4916973029557 -5.79510193619215
-19.0739083542564 -66.7804466358037 -352.10969885894 56.4535268143982 52.7807536893896 1.44427822972745
-16.5462635935127 -59.0379702553917 -322.612565112481 51.8531716435281 52.9372177934938 1.0739017747425
-12.6916450606825 -47.052280413711 -276.048765628967 42.7397377768386 53.2140577351028 0.378819346762671
-9.31444752552378 -36.1769974506738 -231.831464326532 30.23800989512 53.5472933866292 -0.529988844035878
-7.89705024647707 -30.848702742049 -206.36755124514 15.9356329357194 53.8817312965506 -1.54673497915332
-9.15127158191037 -33.2390971966277 -208.019291103016 1.29896407222322 54.1890787737748 -2.60663017768558
-12.9740528697136 -43.1481993802445 -236.65348422001 -12.385219409525 54.4604291974842 -3.66176198236594
-18.4281863478179 -57.9703579901911 -283.614144726265 -23.8473249196616 54.6889839219961 -4.63485223110773
-23.786714695773 -72.8054667802976 -332.170438110373 -31.8779688541563 54.8580765246472 -5.39669080055209
-27.0714222400263 -81.9778878641825 -362.673730303518 -35.7948828209594 54.9465674467251 -5.8092818376643
-16.521830260742 -59.2427079783014 -323.005976088511 52.5895151411619 52.9425673067438 1.12382736592508
-14.3330855610305 -52.6079891447572 -297.103056996951 48.0554731618317 53.0964909010669 0.777037020399074
-11.0359053191334 -42.4926935153416 -256.840532936683 39.5617145053886 53.3608669271293 0.150238312072562
-8.16769163527512 -33.3779947015054 -218.751286678384 28.1043503388007 53.6739753707118 -0.663334915124353
-6.99551463517858 -28.9861374269082 -196.845225613364 15.0667102699702 53.9823212070533 -1.57465606353258
-8.1342651476256 -31.1571337342296 -198.344452743021 1.73997011086896 54.2575468271452 -2.52714310970001
-11.4928326053353 -39.7144213950391 -223.131029882351 -10.7352252295786 54.491015163749 -3.47683842915164
-16.2588962101527 -52.4381056381096 -263.725380509386 -21.2472563334752 54.6796945816948 -4.35463056044476
-20.9535503343135 -65.2042501675906 -305.837179445424 -28.7540191500983 54.8157827179403 -5.04818152421005
-23.8860441112992 -73.2468327785135 -332.726371269823 -32.6573698163823 54.8887734611939 -5.43741267869406
-12.3700493429734 -47.4274147016349 -275.806738192636 46.2499726227259 53.2427645202755 0.619021323714678
-10.7436481674654 -42.528504365368 -255.916222275651 41.9513838562323 53.3809435498174 0.315875547751734
-8.32632969282474 -35.2036145145233 -225.601731479974 34.5354778892923 53.6097322228413 -0.202077970492137
-6.24842601692588 -28.6682355883915 -197.006497746907 24.7657472211317 53.8769913609568 -0.868501424865064
-5.45496503663178 -25.6309656532888 -180.574316420057 13.7104311874331 54.1364970062168 -1.6179059774129
-6.41500783765322 -27.4624003578753 -181.837522575154 2.41033983207722 54.3619600205784 -2.40411322752905
-9.05321091414771 -34.0169128936983 -200.698301020222 -8.19186906239132 54.5448340252266 -3.18758137690768
-12.7418084879676 -43.6189050757154 -231.417060808892 -17.2025523696434 54.684978437904 -3.91080177863135
-16.3733194963967 -53.2514507929253 -263.335156504874 -23.8257512060264 54.782835954004 -4.48766133665123
-18.7006437627374 -59.4814087766561 -284.152165091572 -27.6109702087851 54.8383780953367 -4.82834431410781
-7.80888151036389 -35.2271873435397 -224.180380964405 39.1857757442698 53.6391189824025 0.0930013436840985
-6.76586490286959 -32.0785870795465 -210.607827645217 35.2647364172551 53.7533820340844 -0.157045650165082
-5.21891696268092 -27.4347353192048 -190.20937168635 29.0575792108029 53.9365208351444 -0.559420188794268
-3.91407747167476 -23.350850620368 -170.995806185479 21.1023259136887 54.1481787185793 -1.07187327197325
-3.48521315784426 -21.5867691363625 -159.980421057534 12.1631901597199 54.3515567029406 -1.65029090023028
-4.25377744755814 -23.0541153827992 -160.99096380956 3.02425707860195 54.5241510430018 -2.25917694597827
-6.16127371787783 -27.6401668323424 -173.951230100651 -5.58333439502559 54.6581074582849 -2.86499217801024
-8.76686240064595 -34.2041975333887 -194.877295988552 -12.9858723382668 54.7550250666481 -3.42287077835021
-11.3212116361187 -40.7669572000247 -216.603350796296 -18.617506041119 54.8204187557075 -3.87204734273992
-12.996556072566 -45.1201920593435 -231.009105763079 -22.1644797717922 54.8608373417244 -4.1515622991111
-3.62510042325661 -25.115030492583 -177.071059038958 32.5542538367362 54.1001794504039 -0.352425877661999
-3.05684518128174 -23.3573755757056 -168.740814110269 29.08349809305 54.1884352982305 -0.549543179876223
-2.18930039755501 -20.754740576221 -156.204617431772 23.9993255418268 54.3266146863444 -0.849796089115543
-1.48022845364363 -18.5169378680707 -144.382988923412 17.6686437504788 54.485084626635 -1.22779582337158
-1.32275392172731 -17.6919112155203 -137.643090792182 10.6174197445104 54.6361798180839 -1.65517035065553
-1.91857413841836 -18.8302611951522 -138.426147523774 3.4094079504228 54.7619986427322 -2.10596601433531
-3.22463280940053 -21.8492661797517 -146.675872649291 -3.41643839894919 54.856004458887 -2.55367438934347
-4.9535593022307 -26.0341780777214 -159.838749230104 -9.37363822750819 54.9205185624106 -2.96514059802999
-6.63320226116848 -30.1866808724296 -173.44335723927 -14.0719431879227 54.9628914304033 -3.29943086871097
-7.75035872209674 -32.9925786968254 -182.495314280107 -17.2960656891526 54.9921207240834 -3.51715977151068
-0.138383169588117 -18.0157814272992 -137.992241018382 26.8156466204673 54.6143120034475 -0.682553538810927
0.101047044884693 -17.2010445612561 -133.408813230966 23.8025241741138 54.6788897035637 -0.832215165162262
0.512502417598012 -15.9353838610496 -126.303773118358 19.6697493829537 54.7783742867094 -1.04991466694925
0.828624119639128 -14.8892679274799 -119.560355819692 14.6665754879775 54.8918276717429 -1.32068696547027
0.819252080119758 -14.6454954083091 -115.755095908266 9.14965639104335 54.9994068539863 -1.62660926024239
0.366515747030216 -15.5104948233949 -116.350463991713 3.51300280417087 55.0877826799886 -1.94942061655154
-0.499143811711651 -17.4259614114243 -121.306510739394 -1.85955996805471 55.1519764389865 -2.26942110985035
-1.60030208931044 -19.9715783136392 -129.082508835268 -6.62534936800591 55.1943015058612 -2.5631401355692
-2.65355774533396 -22.4631442410073 -137.031725781319 -10.5165477600095 55.2217738332434 -2.80366955849591
-3.35406937334597 -24.1592473113026 -142.221250249343 -13.3826493211774 55.2430759117259 -2.96605530129159
2.59968173625359 -13.9732620921741 -107.323979314627 22.0252291846498 55.1831355160697 -0.900492695265032
2.63948993274966 -13.7234443959454 -105.145859493947 19.4345998006538 55.2285722873969 -1.00988571187262
2.77876262985297 -13.2374682582276 -101.457452152779 16.069966463285 55.2972466620736 -1.16350729334765
2.86657583342319 -12.8706882910714 -97.8941942854489 12.1017173185805 55.3750701318855 -1.35248210545805
2.77376612680266 -12.9304536390845 -95.9179338205053 7.77119223187609 55.4485852948851 -1.56550092460315
2.43523594905484 -13.576073139334 -96.3645696662843 3.35012378533276 55.5085376119865 -1.79005808846212
1.87187894329131 -14.7676931616975 -99.2065269345218 -0.892949089170463 55.5514103997718 -2.01218502250353
1.1892575256503 -16.2688640212009 -103.554492705631 -4.71886981419856 55.5790450492186 -2.21581530240781
0.552092241139925 -17.70455626082 -107.899658970424 -7.94225723786167 55.5969702671274 -2.38353046609481
0.136670393083907 -18.6712548164979 -110.57305995909 -10.454977549758 55.6120936190706 -2.49964618586765
4.63513032927685 -12.6934351708299 -84.2689286033973 18.0864113201401 55.8137217876205 -1.02294322778828
4.5705549913619 -12.7435984620163 -83.4986630939223 15.8612308893829 55.8449467651596 -1.0992057763352
4.56700724550664 -12.6606477053314 -81.8021788946651 13.0977548296673 55.8899949631327 -1.20406996251303
4.54068720733134 -12.6299799643446 -80.08818290783 9.91326162588256 55.9403462548616 -1.33212422632413
4.42077532922834 -12.8099597284936 -79.1650185097805 6.47204296688109 55.9878026809675 -1.47613859749604
4.17257690067335 -13.2804468897943 -79.4955085024731 2.96166967177822 56.026604655283 -1.62766706700691
3.81007147646637 -14.0149835137855 -81.0609967344067 -0.430006694695789 56.0544505003592 -1.7771167668666
3.39486448413204 -14.882766818629 -83.3627729097324 -3.53494336144821 56.0723954324322 -1.91377695813357
3.0212043515896 -15.6810568688915 -85.5613069406774 -6.22230395599337 56.0838987904607 -2.02653729007696
2.78985644479333 -16.1923058913612 -86.7253608723243 -8.41218732257306 56.0933668654958 -2.10563980422279
6.0257111835659 -13.8103661369029 -67.8328963115966 14.878659531965 56.5142465971717 -1.06799443068084
5.92016518715841 -13.9930116790163 -67.8035389497121 12.9533261616915 56.5351611274476 -1.11777519698398
5.85772078980236 -14.0782952813483 -67.1736981631133 10.646155859057 56.5616301255743 -1.18632796904334
5.790349971327 -14.1712306349632 -66.4504125874098 8.03834835174245 56.5901205250918 -1.27012171375162
5.67805726102187 -14.360284551686 -66.0810400480428 5.24359284487831 56.6171147041889 -1.3643373885409
5.50178227142232 -14.68920001628 -66.3210868738021 2.39396868507735 56.639973099259 -1.4632153580189
5.27059025343533 -15.141136802242 -67.1581352425863 -0.375977301108925 56.657353907553 -1.56025134499919
5.02090119134197 -15.6400804925193 -68.3129276998336 -2.94455036240579 56.6692084762717 -1.64843389748563
4.80768392733711 -16.0696775573889 -69.3176839468283 -5.21584862321841 56.6764574838084 -1.72079816083655
4.68987955316985 -16.304545330005 -69.6505375432422 -7.12864412618211 56.6804521844028 -1.77139748097301
6.80920766665996 -16.9848441546448 -57.1829186513598 12.3038326922603 57.292803532377 -1.05035873615549
6.70349270812412 -17.1950559392847 -57.4717358673373 10.6118540028466 57.305017544498 -1.08005191677367
6.63609547333105 -17.3010898496971 -57.3271116258163 8.63634460741966 57.3146065412312 -1.12292782538607
6.57430554985596 -17.3844977159667 -57.0567309534823 6.4340018596273 57.3233048641673 -1.17627767323375
6.49094320272309 -17.5142449634679 -56.9297177790828 4.08644393219244 57.3324629839609 -1.23650963648424
6.37280401137434 -17.725924147728 -57.0994114356384 1.69159476962974 57.3426130345418 -1.29944750993126
6.2254502545934 -18.0097195685558 -57.5576691197933 -0.648093838593939 57.3531845735628 -1.36057681067247
6.07264553595498 -18.3114048117317 -58.1356947519847 -2.83821009339343 57.3625242154683 -1.41530059336954
5.95048524151808 -18.5462830963898 -58.5513136381891 -4.80315367320918 57.3682445168596 -1.45930542558084
5.89805170704414 -18.6215702293678 -58.4875048889236 -6.49301070249622 57.3677760641319 -1.48906738739065
6.9954573868536 -21.9359489903839 -51.7333700560687 10.2957353769061 58.1583151328046 -0.979737837796366
6.91862399482404 -22.0950786330542 -52.0629444315166 8.77398399875266 58.159834129562 -0.996003972085357
6.88573183186162 -22.1113589049172 -52.0177592173602 7.02191655585773 58.1494957225494 -1.0232626745339
6.86397961704767 -22.0851501574001 -51.8427529597467 5.07985319955814 58.1357582130341 -1.05873384563555
6.82541538529771 -22.1034312274701 -51.7517804056936 3.01086968416605 58.1261181754934 -1.09906835966348
6.75520071554397 -22.214760150241 -51.8671946123064 0.895152790100814 58.1249911043544 -1.14074344692178
6.65633052906255 -22.4147254341689 -52.183726739806 -1.17994389141643 58.132485074991 -1.18032343124983
6.54920526627471 -22.6466702617802 -52.5691416062538 -3.13174161984528 58.1444265207293 -1.21462332311215
6.46618081854388 -22.8174328780278 -52.8015229212655 -4.8928928494788 58.1536091022129 -1.240873618374
6.44289566786535 -22.8229357716909 -52.6304639888479 -6.41827524596232 58.1518696347913 -1.25694823267807
6.56579999411382 -28.4552482122197 -51.1445675997451 8.81698843784291 59.1227122616172 -0.860155360464515
6.5461242841286 -28.4787074175335 -51.2903572173501 7.40814167185831 59.1064334591557 -0.870546057653573
6.58739452927886 -28.288822677202 -51.027198037943 5.78398538257221 59.0665004681937 -0.892914171121691
6.64134039107288 -28.0466983678786 -50.6519006859244 3.97432938660923 59.0212955274503 -0.9233925699071
6.66553045956296 -27.8949597732589 -50.4260170864632 2.03429452572016 58.9873613609459 -0.957863596184707
6.63574352905585 -27.9167360685028 -50.5006336176916 0.0399431758528393 58.9746887095081 -0.992608228203592
6.552962312386 -28.1122005361362 -50.8723802331437 -1.92170996074569 58.9840719142457 -1.02451844964609
6.44305221440807 -28.3990989124566 -51.3839329981571 -3.76570943099398 59.0071582914373 -1.0510057672944
6.34929738025736 -28.6368529317853 -51.7688736996742 -5.42169982495609 59.0290915425073 -1.06989074859173
6.31997595516112 -28.6672537788581 -51.7274025499112 -6.84277498314236 59.0330010587609 -1.07948805800895
5.47361866274689 -36.4196340124412 -55.3065369723425 7.8534027259304 60.2035925434972 -0.689518577385295
5.54965780255876 -36.1893507369828 -55.0130976593956 6.50757861771505 60.1555351458207 -0.7031242791979
5.71984952356264 -35.6329677237599 -54.1696777345164 4.9251753889161 60.0671430886426 -0.733232294176331
5.90004201695216 -35.0270899491499 -53.2554548829436 3.12989719340892 59.9726124779146 -0.773443634968445
6.0148810531634 -34.6197283549359 -52.6973159686558 1.17813123667504 59.9029048326821 -0.817620910415485
6.02013847467366 -34.5574623051373 -52.7431702759192 -0.845610630895563 59.8767248472086 -0.861024490047325
5.91500658583313 -34.844949861442 -53.3909276464897 -2.84038347188368 59.8956508149227 -0.900297886613013
5.74191279074688 -35.3452620540914 -54.3887449036594 -4.70473230364059 59.944272309814 -0.932755998007004
5.57404544153231 -35.8204389996461 -55.3065433399772 -6.35324549591902 59.9950971537108 -0.955781499928752
5.4932895390248 -36.0030396628667 -55.6631516123092 -7.72979509704985 60.0170788309659 -0.966918989606157
3.64596384477829 -45.7994050084392 -64.3191706474689 7.40882999860578 61.4260649592381 -0.459512569978318
3.87759698016232 -45.1408488421918 -63.2244698649113 6.08512728398918 61.3234368244205 -0.487554080554134
4.26266944779348 -43.9777410680803 -61.2854146419559 4.46480594730958 61.1551746456069 -0.541159901195432
4.64968240693076 -42.7841549010657 -59.3491418235653 2.56914138696926 60.9813383733029 -0.609105751860649
4.90184013046524 -41.9880024375113 -58.1750992778995 0.465088441052027 60.856405783448 -0.681500437004093
4.93850472564438 -41.8422477853259 -58.2036424192226 -1.74134716382144 60.8130002974868 -0.751801470924309
4.75695955939551 -42.3566582807764 -59.4337192686377 -3.92007649384604 60.853640656946 -0.816126952756404
4.43247873481142 -43.2978719770139 -61.4225339029668 -5.93713183649142 60.951123875369 -0.871119953561153
4.09686392507224 -44.2568938547659 -63.4075949656697 -7.67754673857991 61.0570091707003 -0.912352269901138
3.89762303933664 -44.7752256310355 -64.5387755920645 -9.0666390772995 61.1169172977471 -0.934689140443536
0.992983605516141 -56.6414325182212 -78.4325738093623 7.4988020257858 62.8209889062347 -0.156723734367838
1.47076274691887 -55.3084891618204 -76.007851420609 6.16727957073672 62.6307191685952 -0.212877017825262
2.20415483729976 -53.1866051965645 -72.2036968429802 4.43363080427468 62.3350818403686 -0.309892107927183
2.92439053972431 -51.0731249863131 -68.5203418690531 2.32067842981497 62.0362280943557 -0.427975373017199
3.38856130838155 -49.6884563439695 -66.3031790335929 -0.0830542483735836 61.8265246128403 -0.550971340414933
3.45453470152654 -49.454949306579 -66.3258102270879 -2.63535775312962 61.7603986027136 -0.669925680777237
3.11717742705309 -50.3888708258907 -68.5884802251316 -5.16002407180148 61.8414567776136 -0.780748147943657
2.50892347549475 -52.1000965624166 -72.3164478464625 -7.47156694239754 62.0234501173611 -0.879039356873706
1.86474740564816 -53.8981011032729 -76.1596057168588 -9.40663456007479 62.2239447934092 -0.956490078680953
1.44841997898738 -55.0081593835937 -78.610660033686 -10.8592652850888 62.3506240567319 -1.0020264215226
-2.55682432669132 -68.9821223233418 -97.8461836209001 8.13587467234853 64.4135211667743 0.23283026563001
-1.70961773749449 -66.6622123864981 -93.3808983200162 6.78018646571651 64.0931235399962 0.132931740250579
-0.43728667766031 -63.105704811694 -86.6292213643488 4.86159358787575 63.6051643339917 -0.0316817330185184
0.798460602653515 -59.6177570781148 -80.171302631296 2.41040217073512 63.1182705179053 -0.226743521809907
1.58294919607135 -57.3708455425707 -76.3060315034178 -0.448749104043379 62.783479436997 -0.426267308099323
1.67747167814265 -57.0411049384863 -76.3341254144767 -3.52066420195624 62.6876583648303 -0.618725815075633
1.07353894966195 -58.6534103867993 -80.2580784161183 -6.564898886024 62.8355201438023 -0.801192422677639
-0.00566770402152019 -61.5806714702343 -86.7779628095075 -9.32241949875466 63.151809101791 -0.968248501483122
-1.15674177915199 -64.6948056490051 -93.5861059813078 -11.5566522351831 63.5013592751474 -1.10453542939653
-1.92291118226404 -66.721506700075 -98.0863675321309 -13.112366290623 63.7322273228376 -1.18761239901968
-6.9609584252123 -82.61004090856 -122.174085425563 9.29223985663795 66.1909191404479 0.711717475199662
-5.60588874854871 -78.9771553805877 -114.873758514825 7.91213994577168 65.6956095302694 0.552930905435729
-3.56267744785738 -73.43892728312 -103.866156734995 5.74514308175594 64.9400332666004 0.294841645234722
-1.58732395092761 -68.0469610905742 -93.3798039910439 2.83893602340266 64.1913498739609 -0.00552438862542181
-0.349909935262118 -64.6210155709258 -87.1322807943307 -0.626528076202508 63.6850543350207 -0.307781317539345
-0.226772704825643 -64.184775016786 -87.1763436618767 -4.38574583911759 63.5522528650487 -0.598456308059591
-1.23104360354462 -66.7741891992066 -93.5184784968201 -8.11807264861919 63.7985065460699 -0.878575443550968
-3.00983888348874 -71.4366509689615 -104.110240692484 -11.4687049894334 64.3082577078591 -1.14232194988144
-4.90829929479274 -76.4162072768979 -115.218128900428 -14.0975891210486 64.8705837944948 -1.36284991620911
-6.17375251729899 -79.7020357665283 -122.581696268918 -15.7763234430544 65.2457772344281 -1.49830247669446
-11.8714655788377 -96.6059406749732 -149.381290777209 10.8233888177185 68.0392344846097 1.24763191581103
-9.90913480622361 -91.4578741800296 -138.672967863334 9.43386258063425 67.3404101234999 1.02109773447042
-6.89771526248133 -83.514879763909 -122.29846149959 6.97833509447688 66.2579787815656 0.650442728666515
-3.98865455581069 -75.7998052164823 -106.699875445935 3.53537246613589 65.1884354945077 0.22414063371033
-2.185105987111 -70.9487537308148 -97.4430494310027 -0.639135516023981 64.4745040780666 -0.198648695010685
-2.03380449988608 -70.4003214560571 -97.5105312321691 -5.19663726986541 64.2999581644956 -0.603968372357273
-3.55375507826642 -74.2034662422635 -106.914912789977 -9.72881110200258 64.6706515971802 -1.00045524977634
-6.23166665631145 -81.017228125181 -122.683667259809 -13.7704119169775 65.4223677764605 -1.38300463594411
-9.08414850738703 -88.2935831877608 -139.224753052307 -16.8503358120717 66.2484636994006 -1.70844038276457
-10.959590380153 -93.0618110407953 -150.040383835479 -18.6431485180521 66.7949094477936 -1.90638917453937
-16.4081622569889 -108.829508874332 -174.527522291745 12.3725530284651 69.6714427493035 1.74583166330921
-13.8691875308391 -102.301498952283 -160.573911257406 10.9934833099056 68.7857035068581 1.45761084608361
-9.88558382699973 -92.0348579285534 -138.803381273047 8.26298103246665 67.385104968033 0.978228457495101
-6.03097492025136 -82.0541464555696 -118.019113506398 4.29911159818476 66.0007434258978 0.430209787948736
-3.6570396387626 -75.8196456953308 -105.717840497794 -0.557679129426336 65.0844374231935 -0.107632625424635
-3.48099323835911 -75.1690711717241 -105.809630041317 -5.87670313166535 64.8706224416539 -0.62230357223135
-5.52806521254467 -80.1644817839181 -118.3142593374 -11.1694624835565 65.3649581029529 -1.13205666567293
-9.12504055643576 -89.0929311187747 -139.338686798273 -15.8655222286306 66.3561104999181 -1.63318888680199
-12.9443917505704 -98.6072372776531 -161.348402908868 -19.3598614072616 67.4406696744162 -2.06396597723108
-15.4073021037781 -104.744906626796 -175.457086086966 -21.2265964401911 68.146417430364 -2.32137664974082
-19.2231003383545 -116.144369391068 -190.12450997291 13.3830982881537 70.6561040037943 2.05604121189869
-16.3372296810326 -108.852342585386 -174.216368504857 12.0190156728557 69.6651251050742 1.7325467387778
-11.7322332018067 -97.2042204165508 -148.999852183943 9.11075460171277 68.0724756403616 1.18645861389203
-7.26109075052206 -85.8450523569412 -124.839412052534 4.80413996525721 66.4937851100666 0.56219045992081
-4.51241472446897 -78.7602222583337 -110.541401749401 -0.499750731365206 65.4512245686862 -0.0486315031247797
-4.32040262403377 -78.0437120918748 -110.648906796934 -6.31149675646218 65.2120672931885 -0.633890135856475
-6.71507383978096 -83.7678232074747 -125.18705438346 -12.0868758015998 65.7820051374572 -1.2182562750692
-10.9141240388613 -93.9835620135217 -149.635080696212 -17.1858400299973 66.9195411710732 -1.79835023052718
-15.3556761028421 -104.834843331089 -175.140493800246 -20.918906315567 68.159317697994 -2.29866115246126
-18.1765185784444 -111.741397266471 -191.235859611513 -22.803681371771 68.9551660458778 -2.59317553395083
-10.8715253270638 -47.2394523098314 -100.756306582425 1.55630143514827 -199.194863560995 0.638860950131983
-10.5290966640362 -46.324917855582 -100.734384698319 -0.930779480249904 -199.08658920156 0.49937831750272
-10.063601683241 -45.1105487715161 -100.126229258919 -3.80805460244136 -199.072643734706 0.33845812774149
-9.52927462840523 -43.7252803893751 -99.3062382571959 -6.9987648224853 -199.063181472957 0.15887691636821
-8.98035797273799 -42.2997201752588 -98.6089449767176 -10.3905566497526 -198.981214191075 -0.0342228732544552
-8.4587095877764 -40.9368480123356 -98.2370239120203 -13.8470753928951 -198.786060121033 -0.23351490235054
-7.98448478160086 -39.6896209711526 -98.2046324518302 -17.2249743969152 -198.486291345464 -0.430133483416158
-7.5530266309426 -38.5529292260865 -98.3351253415455 -20.392524015815 -198.138646400171 -0.614707023266654
-7.1389833227563 -37.4724800640296 -98.3139378264101 -23.2453086327193 -197.833164744893 -0.778589444215004
-6.70606830919988 -36.3671019991663 -97.7787948121814 -25.7154351159219 -197.668499541459 -0.91502321490952
-7.75575754349834 -36.3150123148568 -96.7674336275656 5.39033541232716 -161.936045129316 0.352401643486284
-7.53694071030307 -35.6663112756546 -96.6111448778105 2.84473820844933 -161.963556861359 0.217859914116153
-7.24118588779482 -34.8338129407956 -95.8539530427607 -0.162979708051151 -162.33990368415 0.0616414436061408
-6.90804294607672 -33.9100787297367 -94.947387308016 -3.52893268813002 -162.765699770356 -0.11428039897548
-6.57635135326775 -32.9882754376065 -94.2937186841452 -7.10910836635132 -162.977073286117 -0.305280564916729
-6.2742763746298 -32.1387758647277 -94.1304300437849 -10.7387075312374 -162.823409156695 -0.504095993532247
-6.01144860064676 -31.390366468481 -94.4612945795203 -14.2550316889012 -162.311472418028 -0.701327411121629
-5.77611215555207 -30.7227305348889 -95.0544025974428 -17.5189647423548 -161.60436855299 -0.886452118242582
-5.53874457579868 -30.0738164245423 -95.5083590647685 -20.4304835626289 -160.975648036107 -1.04925941296067
-5.26132730851606 -29.3606263957172 -95.3680010308421 -22.9350542364523 -160.730590996496 -1.18145251296637
-5.73130916606723 -28.4320457778434 -100.325500927438 9.86442420547127 -125.99842549336 0.126774011555004
-5.58175484306525 -27.9082520306772 -99.6110543196434 7.16346085311516 -126.316741166156 -0.00948254233613916
-5.3775584875958 -27.2492353477269 -98.1034121891932 3.86258206746509 -127.253991899959 -0.172172262593028
-5.16645681617945 -26.5739763223951 -96.541369735471 0.10613108238201 -128.257975250114 -0.359601193529088
-4.99293498934582 -25.9959915921116 -95.5840066305688 -3.90862121232725 -128.8375536327 -0.566789418684318
-4.88461286477625 -25.5891520505373 -95.6135220371993 -7.96319146365514 -128.708996572697 -0.785388040095439
-4.84242269816113 -25.3633058240072 -96.6242189734172 -11.8505156724378 -127.878432973101 -1.00398029017455
-4.83764300229641 -25.2563213027133 -98.2205780592634 -15.4023568790886 -126.640822713239 -1.20901751251363
-4.81786553656354 -25.1475528164561 -99.7262580700866 -18.507459179059 -125.495722169487 -1.38661418419653
-4.72171427744977 -24.893188138071 -100.383523222695 -21.1175928097191 -124.99991457354 -1.52506103634425
-4.77271880386216 -23.8050586722401 -111.920051407461 14.9888498668239 -92.0188318815495 -0.0163915009604111
-4.62805700361083 -23.2260260867902 -110.03442326404 12.0357508434616 -92.8719864595564 -0.161459256373785
-4.42540135047324 -22.4795435686175 -106.907930349683 8.26394855691096 -94.6519565049498 -0.343315919052501
-4.24949371439877 -21.7975046261407 -103.875251626042 3.87744813137262 -96.4773538775264 -0.559559750468826
-4.17613124214701 -21.3909122842732 -102.126838778826 -0.844141702197591 -97.5593583262201 -0.803654666340395
-4.24729342188496 -21.3820866555164 -102.345135963543 -5.59730464760055 -97.441099537461 -1.06494114913007
-4.45571542086099 -21.7641646414215 -104.514546710091 -10.1015909288799 -96.1289707111471 -1.32851786195524
-4.74146627601378 -22.3918645946593 -107.919272821878 -14.1355424349913 -94.0917054542763 -1.57575386500239
-5.00354577693017 -23.0105468641047 -111.33188121521 -17.5602739730805 -92.1272870039746 -1.78644641129935
-5.12808460053578 -23.3295151772509 -113.382181964214 -20.3283898166289 -91.1221220352557 -1.94291756640072
-4.89110385874431 -22.7154816422374 -132.333048563463 20.7999307977147 -60.450494479107 -0.0550201944381992
-4.66250141666098 -21.8158795499801 -128.356951567714 17.5070003148763 -62.1406386464266 -0.216673898346482
-4.33833524313981 -20.6015580890091 -122.291221282821 13.0720538188319 -65.1348553517845 -0.432757412048263
-4.08320745216925 -19.5529765738567 -116.55297492817 7.78668129286826 -68.1097480379921 -0.698278533062378
-4.04100405764123 -19.0954368683164 -113.285172440971 2.05237353263714 -69.8784823896877 -1.00334046792752
-4.28798948201035 -19.4635257134242 -113.699381837784 -3.70346136420856 -69.7564427823081 -1.33369791338712
-4.80809100959846 -20.6333903027299 -117.76853368837 -9.09315200495117 -67.750897594837 -1.6696829138999
-5.48854404786686 -22.311209515338 -124.223999609714 -13.8137048611213 -64.5605208428722 -1.98535402151244
-6.14045355629526 -23.9880391089185 -130.861686716193 -17.6784423587384 -61.3842760617282 -2.25065808759317
-6.55240300422343 -25.0872107290552 -135.208903547977 -20.634755803479 -59.5533756128293 -2.43813205037531
-6.10581817903771 -25.4201082544712 -162.31179474605 27.3204893122011 -31.6195336061546 0.0302024042939877
-5.67105903841029 -23.8184055729596 -154.960527453094 23.6211535162517 -34.4599381120794 -0.156559495164336
-5.05332676877316 -21.5824107786432 -144.052177618869 18.3227599227353 -39.0874045657878 -0.424881675099736
-4.56196210524266 -19.652828906713 -133.832523834267 11.8453820903316 -43.5882344021025 -0.763700773464177
-4.46171232630056 -18.8423924625055 -128.010181692003 4.76481597323828 -46.2553183911254 -1.15697623201106
-4.88960072079792 -19.5857261274676 -128.636592099835 -2.3228021759009 -46.1158896277581 -1.58571343967629
-5.81938942337412 -21.8399245636787 -135.670953329157 -8.88652032519078 -43.1782816992011 -2.02483107709108
-7.05539495013951 -25.0690378139108 -146.975364431792 -14.5092669007328 -38.432642022224 -2.4389682670253
-8.2628385896662 -28.3277261319044 -158.748240228562 -18.9290397059124 -33.6039113902771 -2.78353595041069
-9.06324682854988 -30.5335009745108 -166.661577262371 -22.0773988689115 -30.6199480128374 -3.01551277792791
-8.3693790649788 -31.9013317144573 -201.642905527844 34.4474443333664 -5.92390421040899 0.246726484900028
-7.57997269503789 -29.1200916484708 -189.386163585176 30.3129473077955 -10.1606307825058 0.0263142702319349
-6.45175989449951 -25.1456201136636 -171.253963228083 23.9675466315816 -16.7935737051201 -0.314227959727061
-5.52803801631196 -21.6762333853494 -154.342597882453 16.015981223782 -23.1562082079742 -0.752014531425984
-5.26119506092085 -20.1366283107394 -144.697182219386 7.27088821134026 -26.9058822502154 -1.26087549555855
-5.87890204475031 -21.2631888001247 -145.555147498259 -1.46033611401536 -26.7368026152511 -1.81636831945983
-7.34335583005079 -24.9914179073012 -156.859969696143 -9.473922888474 -22.6579386316716 -2.3886685988481
-9.34165533349519 -30.4335635540485 -175.252120239439 -16.2062428760223 -15.9961856861249 -2.93170068807064
-11.3187780980783 -35.9696889503819 -194.551059431052 -21.2826731282355 -9.1210389593081 -3.38075359584557
-12.6326571202216 -39.7009882230061 -207.541389420385 -24.597977264573 -4.72468629898771 -3.66921399930677
-11.4087598572651 -41.328433706726 -247.212308242222 41.7275225049444 15.8172561178613 0.570513114077118
-10.1318848690589 -36.929938947979 -228.780434338666 37.1884556675027 10.135725647454 0.310386963911253
-8.28669525921863 -30.5189866602407 -201.269823874015 29.6966869536464 1.36570548533937 -0.119085863732308
-6.74491893564548 -24.8738363409449 -175.688228452407 20.1004077938076 -6.97049848816705 -0.675822277913891
-6.20848048669808 -22.2459463512062 -161.112929744038 9.50296450195629 -11.8519040958574 -1.31903106092882
-7.01795989866892 -23.7524910072228 -162.210915591235 -1.05480064056882 -11.6450180477492 -2.01898216435922
-9.12347860118155 -29.3061027080951 -178.90949337371 -10.687684745446 -6.35838120147989 -2.74340600814136
-12.0695806603038 -37.5821061348702 -206.380037168744 -18.6642456103065 2.35031406087407 -3.43595017810949
-15.0115918055285 -46.0574812881837 -235.356985248779 -24.4561732506639 11.4210748367465 -4.00700730833028
-16.9414420737794 -51.6809073300777 -254.665193879276 -27.8885940385991 17.288434010628 -4.35788750954117
-14.5169134097101 -51.3363813105413 -290.53763399639 48.0941827947956 32.0732180895549 0.919825082692943
-12.7239589904719 -45.2153128954917 -265.925922313023 43.2590467009544 25.2623259534766 0.621157122142935
-10.0996719982675 -36.1399128943143 -228.714161077713 34.7324883718067 14.7551503825464 0.101441445983762
-7.88195411380854 -28.1095869390329 -194.182564768197 23.6179304702522 4.82388442854327 -0.573403207989006
-7.03682927630846 -24.2649265921844 -174.552503710395 11.308298058444 -0.957121583966358 -1.3456733015233
-8.01589361012891 -26.1040689767536 -175.865637187806 -0.943138636793105 -0.7130450864949 -2.18126866171522
-10.7580051350405 -33.5176495190986 -198.034738641377 -12.092509913249 5.54907995142664 -3.04810656388352
-14.6679383643818 -44.744720253202 -234.818880108792 -21.2467358937858 15.9285400126142 -3.88203423895569
-18.5958661406708 -56.2954040567085 -273.754002683108 -27.7052829845929 26.7989335207005 -4.56864875107586
-21.1292209080001 -63.824996089722 -299.34176619044 -31.1975753912025 33.8243215146654 -4.97478202442682
-16.557715752431 -58.0202815529329 -318.050442681672 51.9558053825887 41.0016726778911 1.1550667591484
-14.4154122915413 -50.7110810518217 -289.491541295803 47.0032741358498 33.810044960092 0.830736396500218
-11.2494064977188 -39.7474091155677 -245.8650861896 37.8830562795152 22.6739931268379 0.249026024941475
-8.55801342220599 -30.0139267216631 -205.375811070841 25.8462853361619 12.1674916852822 -0.505994695790489
-7.49277113976149 -25.2907179362602 -182.379637414303 12.4649535293625 6.07189848721575 -1.36362846662345
-8.58044656171496 -27.3428638192423 -183.83056749723 -0.871069115960754 6.3398748228906 -2.28623753615347
-11.7502794390723 -36.0413955603146 -209.629689242869 -13.0089941646697 12.9658076799312 -3.24207739200879
-16.3096938091747 -49.3144809043805 -252.595810685438 -22.9391636820916 23.9705982284352 -4.16269430260899
-20.896274939778 -62.981651019673 -298.094314763648 -29.8337261853877 35.5119029840857 -4.91843656932156
-23.8163623908321 -71.7760685716026 -327.673243088036 -33.3486690354676 42.937178383968 -5.35459143917687
-15.9121473411884 -56.9316944861827 -316.466164361868 52.5337920269769 52.9183291618142 1.07584865251234
-13.3860404503388 -48.9871751234586 -286.933548408133 47.9633054729859 53.0530918331977 0.70783423564602
-9.63489785356454 -37.0639458968586 -241.802385551478 39.4544744109372 53.2825520329996 0.0618152025748762
-6.4081898519797 -26.4700633228346 -199.898013709933 28.0328837667376 53.5538137800307 -0.747643556519398
-5.05253363949122 -21.303692772496 -176.084504529888 15.0606396452985 53.8263944336044 -1.62903393392503
-6.18263451215626 -23.462029132837 -177.569539076693 1.79694188652297 54.0838832990134 -2.53814655032304
-9.71022410746805 -32.7722893698036 -204.240122308751 -10.6352590474602 54.3250075512901 -3.44878985031013
-14.8292173478243 -46.9665295697005 -248.6408223073 -21.1392209504597 54.546069291038 -4.30720547513363
-19.983244120347 -61.5489984225526 -295.629789623055 -28.6753054211753 54.7262675646278 -5.00422270121286
-23.2617580917471 -70.9152321457518 -326.162016737806 -32.6155377180714 54.8314481603926 -5.40473566017895
-13.3528238872201 -49.3611804967658 -287.628585974721 49.1038861487788 53.0656111724082 0.779457035214233
-11.1954516522387 -42.6401848266178 -262.054785535676 44.6446900221401 53.1964000220286 0.44220579089805
-8.01567210625801 -32.6566005966483 -223.364715930297 36.7112295944588 53.4146472369326 -0.134937945460341
-5.29166202091665 -23.8174310074649 -187.443392883869 26.1978785834997 53.6696579239225 -0.857412549257263
-4.17749390259033 -19.5712471229914 -167.013163903198 14.2983428650312 53.9214443438438 -1.64805040581942
-5.21007716946584 -21.5442367087637 -168.369434188737 2.13802447730449 54.1521309642219 -2.46683968922061
-8.30985748667217 -29.5809997353178 -191.410123533837 -9.27054120154798 54.3593086918899 -3.287454466007
-12.7695065021326 -41.7255500466286 -229.618953583178 -18.9520043400204 54.541681071472 -4.06004351191106
-17.2522389520502 -54.182745895892 -270.031779964629 -26.0047687925017 54.6868939008681 -4.6893500274862
-20.140247119945 -62.2879000764389 -296.573704733515 -29.8895664478249 54.7731238578772 -5.05985661665674
-9.27384374317199 -37.6816360333735 -241.773011268483 43.5147005630469 53.3307433953393 0.318135993180347
-7.70151868321373 -32.809004159859 -222.49952959366 39.3227263028441 53.4461947639369 0.032077827844435
-5.4000064664999 -25.6646191709072 -193.701412574997 32.3626678647986 53.634334217671 -0.438485375312204
-3.44435264521765 -19.3739058837973 -166.908319446067 23.3117868440313 53.8524321783352 -1.0277305392066
-2.69878441227249 -16.4553272368767 -151.64040895488 13.1041247869491 54.0650099219158 -1.67863105632576
-3.57912347659125 -18.1389222894372 -152.795679895203 2.66682445089095 54.2539281169206 -2.35665898167658
-6.01790865140015 -24.2934113725728 -170.2872045369 -7.14478113001617 54.415133357994 -3.03494480513136
-9.4590016801332 -33.417713001589 -199.034753418289 -15.5287740362997 54.5490526497027 -3.66975597608819
-12.896198562285 -42.7237318329973 -229.330514502204 -21.7862276059086 54.6519552855984 -4.18748513798808
-15.1497031771395 -48.8919202734522 -249.502971916472 -25.5176271836502 54.7154045893363 -4.50340063400172
-4.87769494854867 -25.8939599655179 -192.561757419311 37.2560688374811 53.6812657299961 -0.156818036219403
-3.88991801753018 -22.8197443144205 -179.6426379734 33.4397572129369 53.7752663226435 -0.385780398613983
-2.43910632696543 -18.3533670975689 -160.494249715561 27.5600030165603 53.9254471543004 -0.745941089567928
-1.22667364618348 -14.4648363129708 -142.627301404354 20.0930433417221 54.098581881444 -1.19638861625095
-0.833481747959918 -12.790976275764 -132.446738717483 11.7189788809399 54.2656074796363 -1.69861182338239
-1.54780890269631 -14.1586981202125 -133.383079506445 3.15174039846916 54.4098172977013 -2.22471838051372
-3.31606501278093 -18.464133525677 -145.366960040516 -4.931662380442 54.5263527130111 -2.74962070566675
-5.74188271455369 -24.6719965687324 -164.827171676023 -11.912879049283 54.6167731474717 -3.23754793060595
-8.1417042158874 -30.9500897063364 -185.223272565527 -17.2848328446838 54.6833439489909 -3.63610840306726
-9.74118798327752 -35.1924378516726 -198.946388976565 -20.7699026976892 54.7270085078424 -3.88881147358343
-0.919882910210838 -16.4289158855829 -148.525576940768 31.308402817797 54.0938644908867 -0.55383028320067
-0.392746207698697 -14.7389359223288 -140.701930478351 27.9173467771253 54.1654760672883 -0.729431872041307
0.406840008376332 -12.2743078074485 -129.058270788208 23.0432162972682 54.2785332603845 -0.993961917531179
1.05324626361512 -10.176545509181 -118.151927998599 17.013973475271 54.4083690510289 -1.3234658455138
1.18664806079202 -9.41550529446094 -111.96572849298 10.3069839912459 54.5325349812753 -1.69322697360554
0.625259794613203 -10.4916520408053 -112.700845474514 3.44551646706279 54.6370211310993 -2.08215620150139
-0.590757231008583 -13.3274222860977 -120.30508466146 -3.06300690670209 54.7172150099731 -2.4692188323716
-2.20048164974046 -17.2700697658837 -132.474047127712 -8.76323713381412 54.7752349555465 -2.82707641548295
-3.77244118368947 -21.213159708644 -145.130560095461 -13.2974173254872 54.8162056291857 -3.12018190810376
-4.8312050353745 -23.9216400455901 -153.650755298175 -16.4721921653657 54.8456507022736 -3.31253639365621
2.32371610601716 -10.1034491752046 -112.702028011322 26.0725807388098 54.5607099974221 -0.8436273032574
2.54020642665558 -9.32681514274032 -108.425180930557 23.1086285242218 54.6123843759633 -0.973268988634277
2.91058477360433 -8.14966141973891 -101.878958905265 19.0965997955534 54.6935383446242 -1.16144347502429
3.18878839214882 -7.1932283183446 -95.7036284253846 14.2634360841626 54.7864844666831 -1.39441474230461
3.16500684350786 -6.99098694032061 -92.2390273745699 8.93932280219857 54.8747354271067 -1.65668861921104
2.73314298401466 -7.81934671323041 -92.8044337451003 3.49600041624195 54.9474713956106 -1.93316901056571
1.92197669720843 -9.62290413702159 -97.3622975805423 -1.70024834176113 55.0009361829363 -2.20772191351927
0.893495603835379 -12.0178942714798 -104.520263817105 -6.32337515116725 55.0372842701827 -2.46060310738416
-0.0933135659001075 -14.376946686039 -111.873830929427 -10.1223148167753 55.0621563533353 -2.66833651409866
-0.758199904863063 -16.0141463681065 -116.737379930787 -12.9583596712451 55.0822024720604 -2.80832381583507
4.83755154530232 -6.85791037646804 -85.1188800177715 21.617305553877 55.0837321136687 -1.03098531006424
4.86988953884176 -6.61586833518546 -83.0748568179889 19.0503861074664 55.119533024208 -1.12230918396328
4.98888192643526 -6.17540904166488 -79.6896055232736 15.7466373562637 55.1752800222952 -1.25137173327099
5.05692386957967 -5.8587400684598 -76.4452621317489 11.8646173140729 55.2388897027681 -1.41027245650841
4.95699321284086 -5.94230975501287 -74.6612750622777 7.63197946631024 55.2989614929606 -1.58937769591874
4.63086866676376 -6.56724994333698 -75.0891105127294 3.30873933299825 55.3477944745105 -1.77832604617628
4.09849889705743 -7.69530301415293 -77.702608487694 -0.845897263926399 55.3826439889698 -1.96554792210693
3.45654238748241 -9.11170347204585 -81.6998528648636 -4.60124688602073 55.4052888783116 -2.13742901175442
2.85539986247494 -10.4762526062396 -85.7174780694488 -7.78003124794702 55.4204957013675 -2.27876871578336
2.45623087705237 -11.4219649339908 -88.2422374166675 -10.2798254346971 55.4340627498443 -2.37546294323206
6.69167571004201 -6.32051216964622 -64.7660624046341 17.8855953973268 55.6683434857347 -1.13249092388664
6.63039269114187 -6.35618118633522 -64.0106548588067 15.6668064128808 55.6925683211291 -1.19221120925534
6.62058505343649 -6.28795919140037 -62.445943078927 12.927925456795 55.7288563186581 -1.27586375446776
6.58652808987959 -6.2797777692875 -60.8878046710432 9.78041831805271 55.7698051613341 -1.37881337295678
6.46454835470249 -6.47078670748932 -60.0607947456339 6.38188934053594 55.8083711881388 -1.49506109466225
6.22393826899264 -6.92976381772243 -60.3786713147269 2.91405140476596 55.8396873363165 -1.61771290255559
5.87812805106203 -7.63112501404366 -61.8236538420439 -0.439961174181652 55.8619265024178 -1.73889119629539
5.48359434057689 -8.45701619081478 -63.9478701463899 -3.51619819093373 55.8761712798991 -1.84959331754941
5.1262719888856 -9.22592355556346 -65.9972970409307 -6.1874788957251 55.88554122581 -1.94021174370499
4.89788845672631 -9.74350149402508 -67.1348695418678 -8.37636747365807 55.8939266014308 -2.00206629549545
7.95808972877104 -8.07080505326027 -50.5364854458192 14.7973710926976 56.3201193897276 -1.16567274892734
7.86231600184834 -8.22602780546368 -50.4523362906499 12.8683681274725 56.3361574636513 -1.19958375979559
7.80198480422551 -8.30735813761652 -49.8517976304944 10.5658487460618 56.3571785583372 -1.24855205651184
7.73407770116054 -8.40584832270496 -49.1867417178972 7.9684379844101 56.3800912015864 -1.30971345062881
7.62293477759883 -8.59776760131763 -48.8557056803885 5.18679524155434 56.4018596142771 -1.37925373196471
7.45188012481309 -8.91990513589993 -49.0858669361134 2.35024031757399 56.4202485219402 -1.45266245229989
7.22962964479967 -9.35591983656906 -49.8654245810195 -0.408952858225589 56.4341816496533 -1.5247957939785
6.98952007537733 -9.83777814915216 -50.9446561588361 -2.97098340480103 56.443721389741 -1.58996226739742
6.78152031044145 -10.2623610207005 -51.9056899213418 -5.24149530408535 56.4497668901656 -1.64232403196803
6.65903725416813 -10.5191132933859 -52.2826379936741 -7.16018947872903 56.4535790806056 -1.67673590493666
8.68216267894479 -11.730806064926 -41.5456122731035 12.286439363346 57.0441544139745 -1.14482868144634
8.58941889805448 -11.9087984032512 -41.7469979744091 10.5858939561938 57.0533825374532 -1.15829227523438
8.5281998929053 -12.002667334202 -41.5790227292487 8.60542900169485 57.0604703417995 -1.1814969374202
8.46940535890381 -12.0838458264803 -41.3153359170756 6.40083701642531 57.066974818145 -1.21238876102353
8.3889267662555 -12.2125710338755 -41.1954155169684 4.05251469496378 57.0741287139891 -1.24833134188112
8.27522286494483 -12.4194926683107 -41.3555568691097 1.65712712675333 57.0824442644469 -1.2863193047061
8.13358484549152 -12.6951240741527 -41.7881621531661 -0.684018953815459 57.0914547713689 -1.3230944620504
7.9855932845173 -12.9908225446236 -42.3425143159033 -2.87748414726838 57.0997270465168 -1.35525298974938
7.86382376840684 -13.2311934836921 -42.7669564024231 -4.84839893722701 57.105168332374 -1.37947516043674
7.803425978782 -13.3339994283397 -42.7791142775629 -6.54720699333012 57.1055210215825 -1.39293415294535
8.87693191833921 -16.990873138113 -37.1925738821515 10.3081772683534 57.8462923426867 -1.07954014076848
8.81362311980201 -17.1202388300074 -37.4280211037286 8.77617708598477 57.8468765550336 -1.07813829274389
8.78741198670691 -17.1258960555404 -37.3422506968614 7.01579548618709 57.8371991003306 -1.08395864403315
8.76908619907595 -17.0984252820962 -37.1550874830402 5.0672993912813 57.8248132874514 -1.09496556761096
8.73373673827168 -17.1163524177789 -37.0587349283632 2.99334069037097 57.8164080163335 -1.10888134320393
8.66816344385693 -17.2234499147056 -37.1632209421994 0.873394576476699 57.8159100597644 -1.12348025129843
8.5750884349438 -17.4155841484898 -37.4638889449057 -1.20606068195883 57.823387978028 -1.13670003979028
8.47276980778454 -17.6413864800514 -37.8419716239985 -3.16323663088781 57.8350774442927 -1.14663924066156
8.39012834950724 -17.8165118354444 -38.0981215792892 -4.93151561475513 57.8445021764024 -1.15157648513077
8.3589709920294 -17.846853654936 -38.0076491536207 -6.46616440936808 57.8443376330796 -1.15010513596301
8.52382828635942 -23.621328232977 -37.1456821689277 8.83697848002659 58.7355951528578 -0.973924348396943
8.51551020727951 -23.6255328291653 -37.2109709934994 7.41807063014209 58.7211005042206 -0.964166655481658
8.56025249010764 -23.4378114867101 -36.9185770964688 5.78625622501535 58.6859135557144 -0.961690495802
8.6147210474131 -23.2058079815439 -36.5388809725379 3.97173295574786 58.6464771180757 -0.963568550581656
8.64073044353733 -23.0603418327841 -36.3105097365068 2.02938859989023 58.6175508129183 -0.967045689592603
8.61637262078528 -23.0778142136449 -36.3715312276036 0.0344538593058967 58.6079961161678 -0.970042746871693
8.54229754531506 -23.2586911560198 -36.7193782601309 -1.92735620684113 58.6184187875952 -0.971169468391749
8.44146145773591 -23.5279299479324 -37.2112268549023 -3.77263246013315 58.6412252706008 -0.969418723505534
8.35248495082001 -23.7569951029499 -37.6047296330161 -5.4324787258763 58.6630020277182 -0.963872387676276
8.31850499292322 -23.8011270054005 -37.6272153325727 -6.86095543223901 58.6685479993167 -0.953674003015623
7.57354607222009 -31.4855413051837 -41.3219082079582 7.86154556611446 59.7273817795475 -0.825988964931399
7.65529481209255 -31.2574472540538 -40.9821221925621 6.50698920161784 59.6851017351714 -0.816051606599252
7.82098349084717 -30.7315099701243 -40.1501882527376 4.92095693301219 59.6073274837862 -0.816343264282907
7.9943817944733 -30.1618073659106 -39.2670320427018 3.12773192373818 59.5247229444719 -0.821705255889074
8.10712254597927 -29.7762139615419 -38.7255360530061 1.18313926376145 59.4649470929297 -0.827856510287872
8.11886330282505 -29.709727711032 -38.7540920533564 -0.829918123410009 59.4445944699253 -0.832300486430945
8.02835427998519 -29.9673437105392 -39.3517365422513 -2.81299311747489 59.4648736209024 -0.83401185006067
7.87337222965921 -30.4242003885915 -40.2881965088859 -4.66775563268906 59.5117631547173 -0.832412780951002
7.71965154327599 -30.8625236157346 -41.1689135346924 -6.3119654203731 59.5604241571352 -0.826504800442195
7.64101779311643 -31.0370659508207 -41.5517871290223 -7.69179530094373 59.5828499926707 -0.814809427626261
5.94696710472426 -40.5508545184403 -49.8700232758463 7.38053193193567 60.8456588782987 -0.627216197519118
6.17413440496968 -39.9311073618072 -48.7873891433133 6.05023324707637 60.7546657434619 -0.627692750538244
6.54029007992428 -38.8489003160532 -46.9363377890887 4.43434692715891 60.6056455198053 -0.645116622218437
6.90697929745145 -37.7390778149996 -45.1013496241588 2.5546291458092 60.4526650965836 -0.669886781199626
7.14933131475474 -36.9936400874062 -43.983967639369 0.476420591037204 60.3444782434865 -0.694711014074161
7.19350497777056 -36.8446755347019 -43.9906471155247 -1.69756353685524 60.3100356436002 -0.716242198260336
7.03618219923488 -37.3023289422852 -45.1219574961728 -3.84201670211998 60.3512375953746 -0.733905827348009
6.7448484412749 -38.1545201850977 -46.9719061839324 -5.82907661720317 60.4433556410527 -0.747267367791166
6.43890300384798 -39.0277925266747 -48.8379073695973 -7.55025692064092 60.5426225284344 -0.754013653268945
6.25285755208678 -39.5019143740819 -49.9333520683218 -8.93574612165452 60.5999108027315 -0.750090368559466
3.54260296788711 -50.877869023415 -63.1214000243895 7.39740258058115 62.1223301421556 -0.363246653986055
4.00090760295596 -49.6384976593888 -60.7926770157059 6.06185037050501 61.9516449715486 -0.387773634092195
4.6930536271495 -47.6772332621792 -57.1959401192144 4.34632101005063 61.6874309775164 -0.441250440768098
5.37112410938029 -45.7250671429706 -53.7290074823842 2.27352161869452 61.4221980685623 -0.505889919961156
5.81237397737035 -44.4394370692501 -51.6367622664766 -0.0719518636806386 61.238768222927 -0.569198215749251
5.88652690270415 -44.2055516740015 -51.6322557196586 -2.55430965741287 61.1853902028657 -0.626877966355677
5.58762983905251 -45.0400498168226 -53.7180945679373 -5.00606571412899 61.2646820372119 -0.679662248556225
5.03499870535076 -46.5900472076314 -57.1842248005383 -7.25305218191365 61.4346713515111 -0.727307056349388
4.44308275532979 -48.2267021722673 -60.783623872925 -9.14435333432156 61.6208617043502 -0.764259528403355
4.0552840243786 -49.2394929956363 -63.1120613435266 -10.58340595596 61.7395762316605 -0.780425629375757
0.268389618794812 -62.5444142565429 -81.4073243172707 7.90913003734466 63.5873204432082 -0.0177993537539016
1.07869726537722 -60.3871304771446 -77.1348919622653 6.55126462439168 63.2957080772178 -0.0830611217906074
2.27996659761263 -57.102784483558 -70.7508486951983 4.671829691467 62.8549235660826 -0.19661594401679
3.44194800794423 -53.8906040041711 -64.677103827635 2.2996528985325 62.4189627816525 -0.326383141733442
4.18337369672574 -51.8163767328338 -61.0411751768618 -0.449060350266683 62.1234305772647 -0.451531562228942
4.28602481005851 -51.4919202138386 -61.0363152171264 -3.39101687062608 62.0450206691862 -0.567424283243666
3.74030096792683 -52.9423640342913 -64.6684842671535 -6.3009450966948 62.1868844667282 -0.678300408408742
2.74733584127389 -55.6042780745181 -70.7511511026609 -8.93981194939559 62.4809524730353 -0.784781928059542
1.67712624965994 -58.4532181330467 -77.1512398316702 -11.0935975324892 62.8050782069997 -0.87509576941422
0.956337315948237 -60.316613864123 -81.4307351559152 -12.6237052065185 63.0207450066975 -0.927185822665251
-3.86654250880605 -75.4240486217566 -104.544058232339 8.87736373598314 65.2384713666575 0.416048328730101
-2.5605887119817 -72.0189698301752 -97.5056726451658 7.49351837001374 64.7795907961039 0.292169565888657
-0.620856499080632 -66.8859357466884 -87.0410492736771 5.39433969233579 64.0887113121093 0.0914069032856512
1.24023068881666 -61.9203632130634 -77.1552261836839 2.62393147078139 63.4124240547232 -0.130988929488487
2.40656759783495 -58.768770088738 -71.2820173734327 -0.654082739865835 62.9620716358237 -0.341872420270219
2.53673889223547 -58.3471368093133 -71.2869778913261 -4.19515020218801 62.8523694850772 -0.538005247589515
1.61613208679956 -60.6913322225549 -77.181657476386 -7.70380208476986 63.0864445610706 -0.73109068471906
-0.0391493592337192 -64.954291484518 -87.1133355015532 -10.8588682545017 63.5604708771656 -0.924226907740382
-1.82750918636663 -69.5472413207471 -97.6362630063723 -13.3587702300274 64.0840850648182 -1.09529714166719
-3.03702098403979 -72.6082761693584 -104.711629243462 -15.0017627694629 64.4369600960157 -1.2012978232634
-8.55952375445251 -88.7362807563282 -130.761670430942 10.1684709249064 66.9792576727292 0.912624912232316
-6.64102587780456 -83.8440134447085 -120.290153815104 8.76640502800089 66.3183108193325 0.716817853377525
-3.75747416178741 -76.4302241560417 -104.592438765074 6.4114154633201 65.3155360157391 0.406717008040364
-1.00682198409143 -69.3106457215836 -89.8321862461373 3.17655763327098 64.3414090134116 0.0705206995494618
0.691323702888878 -64.8565014544397 -81.1276470997306 -0.710548233008836 63.7026592492485 -0.242639436047068
0.847475273027872 -64.3354740652737 -81.1498946357452 -4.93575968241797 63.557729211295 -0.533666809654044
-0.559262131056202 -67.7957532659418 -89.9186842862817 -9.13006364769571 63.9088204197891 -0.82666747169791
-3.07495560702087 -74.0626193742726 -104.784981132272 -12.8811545650653 64.6099994213286 -1.12954881876525
-5.79797804573534 -80.8425115121609 -120.609305428791 -15.7784555414621 65.3853840376132 -1.40551853393988
-7.62530838864039 -85.3607889859716 -131.16744221216 -17.5341188695901 65.9062683152847 -1.58016749513906
-12.9709898192761 -100.505756001008 -155.354379668173 11.4760823060253 68.542516086284 1.38442593771005
-10.4468425896635 -94.1999950802592 -141.484445828884 10.0678855310657 67.6870961017421 1.11859216885951
-6.59641901964486 -84.5350009383322 -120.424069035008 7.46638255987853 66.3732207955721 0.698994546633486
-2.93721981295628 -75.2954382166279 -100.680710231431 3.7841747402096 65.1033226144017 0.250620247391163
-0.70258529606942 -69.5749775742573 -89.1087615791739 -0.680612571970139 64.2801617388464 -0.16086007363659
-0.52438192458635 -68.9655444776737 -89.1499158003661 -5.54810160382738 64.1023103744013 -0.542596516325016
-2.43005987993654 -73.5273455409484 -100.833370223516 -10.3858245858044 64.5703658603803 -0.933698298801106
-5.8339907285587 -81.7852371332687 -120.750394992883 -14.6986324802068 65.4989860400071 -1.34832658414779
-9.52405571611756 -90.7434041602829 -142.015015402588 -17.9660336593836 66.5267093041696 -1.73322846625142
-11.9704856959959 -96.6650144021248 -156.027816322282 -19.8071170163417 67.2104112517002 -1.97731442933946
-15.7569948046885 -107.698804342315 -170.863666536069 12.3281351496979 69.506839955626 1.68485310223753
-12.8505844016107 -100.562072884796 -154.852882231515 10.9196276939908 68.5347220677337 1.3758161215487
-8.36655068916289 -89.5151637242571 -130.288511685261 8.15564703973266 67.0263828534703 0.88641068505677
-4.10749279026372 -78.9635022135436 -107.266047740414 4.17914484619862 65.5702652422452 0.366486273589927
-1.51862426694824 -72.4585184397343 -93.8070148050444 -0.661089900983735 64.6309396811183 -0.10751917434234
-1.32635855120814 -71.7925305310594 -93.860413775823 -5.93987406004016 64.4319624492997 -0.547628739883107
-3.56304016705971 -77.0347804600129 -107.462417306632 -11.1829798828723 64.9728222219977 -1.00353589998962
-7.55633194517568 -86.5270268901569 -130.705182171667 -15.8426028818279 66.043635689675 -1.49357328679393
-11.8841333898416 -96.8287909242516 -155.528177010858 -19.3290128955975 67.2282577022726 -1.95233596008975
-14.7252712389511 -103.584199002935 -171.720885247708 -21.2045581352112 68.0095156251808 -2.24214692266752
-6.93920996907923 -37.6377895816287 -72.5370206013242 1.86399746816062 -199.12310536444 0.687394695762393
-6.57754238851004 -36.6771887963272 -72.4067798967626 -0.624072577396095 -199.005298121505 0.557522988995364
-6.11024560078671 -35.4604237017898 -71.819187115016 -3.49529926223438 -198.97736466397 0.408385238294262
-5.58215097383436 -34.0924367468974 -71.0718037983601 -6.67424861969363 -198.957888165399 0.242519333427751
-5.03906099544384 -32.682286887614 -70.4314012652613 -10.0509297100707 -198.877182908795 0.0645648399721123
-4.51766556551918 -31.3197604409775 -70.0608163603109 -13.4919082312406 -198.698335739008 -0.118905866994932
-4.03773703911335 -30.05683263908 -69.9738729278845 -16.8568667882374 -198.428960458208 -0.299976165120419
-3.59915160388001 -28.8999425580115 -70.0332148110735 -20.0168018076959 -198.120234216232 -0.470317395151475
-3.18469874957301 -27.8155272360895 -69.9917894716537 -22.869319604377 -197.853447030819 -0.622281305156463
-2.76759024082927 -26.7465788148917 -69.5642444750466 -25.3475153267249 -197.717872364936 -0.749911302466008
-4.17940095957648 -26.9672076704295 -68.6939644645391 5.49650039347831 -162.330664520332 0.356596036156921
-3.94103077404677 -26.2742866659843 -68.4770914619152 2.95883104061742 -162.30175693428 0.234032855020197
-3.6392173019407 -25.4369276966775 -67.7966084566072 -0.0262891781010623 -162.597897072405 0.0931877877682584
-3.30609610196396 -24.5245913331201 -67.0106773076601 -3.36017011476732 -162.951241783423 -0.0644633935519317
-2.97379780620074 -23.6095251685836 -66.4386979936822 -6.90520173779339 -163.125960154106 -0.235140868053012
-2.66638146253864 -22.7493042257767 -66.2695563918288 -10.5025775329451 -162.987201391562 -0.412710141221684
-2.3933563952968 -21.9722046569022 -66.5070683566268 -13.9942206613304 -162.540798556423 -0.589095087772626
-2.14709012857587 -21.2703130629499 -66.9682415618203 -17.2438891916432 -161.932377613822 -0.755173273834605
-1.90539160152284 -20.6035870614108 -67.3354007588684 -20.1525858146731 -161.406138591901 -0.902049057395984
-1.63880411577382 -19.9145854539305 -67.2479968777288 -22.6650179101342 -161.235060149764 -1.02245468811302
-2.31458159644351 -18.8684146837099 -70.8875460516859 9.69377736855405 -127.054250258681 0.0832934584507839
-2.15256700762162 -18.3230945735226 -70.2427161027328 7.01823593858052 -127.241684022927 -0.0378273945964952
-1.94899027310264 -17.6869908893029 -68.9846039528155 3.77339831033524 -127.995145678472 -0.180034424472318
-1.74211309121414 -17.0461484039731 -67.7010196541518 0.0917321296112945 -128.830276916365 -0.342420436957891
-1.56769578372057 -16.4837302489645 -66.9155207335028 -3.84322224940068 -129.316276344896 -0.521310489885326
-1.44804148496375 -16.0550439377545 -66.9309604926775 -7.82485005048771 -129.203517764632 -0.710046591971964
-1.38414060045404 -15.7696209481627 -67.7420501946363 -11.6544682959099 -128.497028524064 -0.899175026219451
-1.35318045634415 -15.5843891205563 -69.033874559761 -15.1686661879334 -127.455645112978 -1.07726259976736
-1.31314710526825 -15.4121683947126 -70.2678249452022 -18.2577115113896 -126.517081686949 -1.23247604491968
-1.21463032835726 -15.1473741550991 -70.8399363416996 -20.8716637188142 -126.169488135882 -1.35474021190146
-1.33788771383869 -13.5942045149461 -79.5953413296749 14.4146077653478 -94.0646958037124 -0.113163995038334
-1.19621103169722 -13.0417707387079 -78.0249763091693 11.5171526478635 -94.661865647661 -0.239176363578217
-1.01302816470109 -12.3827249171748 -75.4861725091218 7.8617943925661 -96.0843116918209 -0.39362657130019
-0.856749006776304 -11.7925544185015 -73.0459104009247 3.62852119499537 -97.5799904963251 -0.575262271647795
-0.787914311413162 -11.4293525438849 -71.6517517454697 -0.930175965188176 -98.4744835599793 -0.779505786215657
-0.83927377522407 -11.3831361044233 -71.8442885724811 -5.53314662167219 -98.3750674238332 -0.998208027035666
-1.00382688394219 -11.6468541036093 -73.6088282881454 -9.91520468251043 -97.2866715336576 -1.21941031981954
-1.2322664061277 -12.1091603912123 -76.3740712649179 -13.8641917351566 -95.6111751450382 -1.42779496158886
-1.44216052810267 -12.5745341945337 -79.1598747498153 -17.2454516353044 -94.0301074425412 -1.60655910638263
-1.5405942887719 -12.8184160109522 -80.8690183381915 -20.0099933749375 -93.2994851342442 -1.74082584285019
-1.27381340167813 -11.4483209066605 -95.5559034592567 19.6256297181082 -63.9291206034469 -0.214085338464547
-1.07521248624261 -10.6589602476859 -92.3048469341937 16.4352507926052 -65.1629060250716 -0.352170671079652
-0.80644536503327 -9.64974966738732 -87.4110993733532 12.2181053867792 -67.517475058574 -0.531739773070924
-0.60195090070184 -8.80063438100558 -82.8151856887416 7.21989954921425 -69.901340052607 -0.749477578947523
-0.57714686839388 -8.44112334217191 -80.2235041482355 1.7910885997218 -71.3306748128896 -0.998439160419026
-0.791229949222442 -8.74759303791179 -80.5941051781696 -3.68105946324535 -71.2327774520643 -1.26806974816102
-1.22872829532671 -9.6962555499535 -83.9015940018047 -8.83546508269463 -69.6128877423415 -1.54305150987591
-1.79672507007618 -11.0551884931941 -89.1358231683826 -13.3868883121257 -67.0539339482063 -1.80262232129802
-2.34098600891396 -12.4228771695093 -94.537501062425 -17.1597941593136 -64.5488221517613 -2.02241848461445
-2.68846737782126 -13.3402925961347 -98.1200412146834 -20.1024259405575 -63.1952503641435 -2.17983698438276
-2.15394022334135 -12.7053983304474 -119.494848684762 25.27279470529 -37.0386259019665 -0.204040420911781
-1.79161706227217 -11.344099403598 -113.487172818299 21.7405678851333 -39.1287834851501 -0.362558740426887
-1.28965510188627 -9.50755817102723 -104.680671070182 16.8179360071939 -42.6903395109291 -0.582709765497395
-0.902766596102767 -7.95962301625184 -96.4942049681459 10.8412572113916 -46.2038042132084 -0.85599097461119
-0.843702769145006 -7.34201726182634 -91.872545411884 4.29432739965691 -48.3019064702054 -1.17092266824192
-1.21870386262093 -7.98645848481204 -92.4284022134644 -2.29513031180656 -48.194400141011 -1.51388046204809
-2.00269997015327 -9.85067243971916 -98.1238287102594 -8.43974332276488 -45.8868216953939 -1.86602672270204
-3.03600019844418 -12.5091530435024 -107.268473835658 -13.7547996216263 -42.1813303266481 -2.19992799733409
-4.0470731327125 -15.2087720579556 -116.839550783258 -18.0044158033374 -38.4583324575107 -2.4804065663051
-4.72624393702452 -17.07318322135 -123.352641112871 -21.1285233892282 -36.2488359681023 -2.67274849558124
-3.95141280887031 -17.391409189277 -151.346398196387 31.2068308656052 -13.7377726468324 -0.0780244730610251
-3.29338063475928 -15.0291779747282 -141.257979436604 27.3149181023466 -16.8426450001323 -0.266181853423918
-2.37224025011601 -11.7461411300456 -126.574409208168 21.5692002930745 -21.8295713017194 -0.544248393475693
-1.63712743668827 -8.94074067978996 -113.018605097396 14.4299633312857 -26.6619491332998 -0.893467048723318
-1.45012917311742 -7.7438630762481 -105.357255764226 6.55253413775239 -29.5295860286422 -1.29489214815163
-1.98643111237306 -8.71804847993865 -106.106461570274 -1.36534182917998 -29.4027644093541 -1.7317695932661
-3.21026017787349 -11.8004678272656 -115.214200660353 -8.68617532939154 -26.2867304531568 -2.18283659146738
-4.8703733051665 -16.2913674901058 -130.057098524405 -14.9017440004318 -21.2246520385724 -2.61370645544758
-6.5216854677248 -20.9017213532697 -145.759091735865 -19.6922422491205 -16.0462922560743 -2.97478890437461
-7.6397835413455 -24.0806918092241 -156.506196145064 -22.977694407094 -12.8095028516021 -3.21317273889728
-6.44271273659669 -24.8128280540911 -188.628306112427 37.0439857313155 5.4502737140644 0.143397597965229
-5.36589895470492 -21.0383495379929 -173.2833746574 32.8156533417236 1.3147591251123 -0.0822600532858861
-3.84764566768581 -15.7022910662247 -150.918998431748 26.1987604681888 -5.1368371254885 -0.433113493011506
-2.60914992927487 -11.106439946244 -130.414697952878 17.812136524559 -11.3077683745287 -0.873782785762483
-2.20689459916079 -9.02966723984018 -118.850166113601 8.5102262724123 -14.9431415904245 -1.37482188220889
-2.89894359474969 -10.3160643547404 -119.791288959855 -0.828581779382625 -14.7907570946482 -1.91715471407198
-4.63860607967561 -14.8815445701286 -133.171902825931 -9.41149149686889 -10.8544797811299 -2.47954527034142
-7.06782375722388 -21.6986087450927 -155.28761634384 -16.5944846760053 -4.40044753593476 -3.02191827198052
-9.51926597708577 -28.777202538717 -178.912721185569 -21.9508180403449 2.28837793923178 -3.47762887308381
-11.1716654478508 -33.6160539110213 -195.044186631026 -25.3606432802005 6.57919322013909 -3.76912960745833
-9.02746546899256 -32.93337565745 -224.379032585126 42.014150021829 19.6412882993557 0.394292392579756
-7.49594239813524 -27.6160669276753 -203.623052872974 37.5264017391601 14.7065161858476 0.129871988518397
-5.32380522942989 -20.0186718385096 -173.248586898061 30.1392382623156 7.10336751410129 -0.29594862762568
-3.5343897040168 -13.4611040858629 -145.582092572788 20.6361182805798 -0.101635102833381 -0.827220995401261
-2.8843281578989 -10.4008858417412 -130.03884485624 10.0600761821707 -4.31682464257193 -1.4227540486647
-3.70921021322805 -11.9506709996752 -131.146086650763 -0.553156642820115 -4.13923289735195 -2.06236103768291
-5.95255676723265 -18.0067900651471 -148.825399978968 -10.2776330364054 0.429579746568984 -2.72724029790698
-9.15687333074209 -27.2302447135784 -178.382977572951 -18.3443333167086 7.97360691302393 -3.3741490012778
-12.4277341188556 -36.9013698756112 -210.221778791655 -24.2128443856095 15.8643086149574 -3.92024754933357
-14.6167282597636 -43.454724456814 -231.857922670365 -27.7054727250634 20.9816967716998 -4.26141984651315
-10.7317533543943 -38.3726776809086 -247.343871017199 45.0374922943884 27.8322476810567 0.563860963442224
-8.88543549826229 -31.9670617907532 -223.002797455978 40.427435318819 22.6279964171073 0.272323138605262
-6.25574384360937 -22.7569719937385 -187.247266014791 32.595034206511 14.6355142931404 -0.205797447666765
-4.08122246613875 -14.8016169309514 -154.789002387409 22.4205249000783 7.09542875956371 -0.798691440248412
-3.25571277461489 -11.0358880270267 -136.598092082902 11.0596414655153 2.70297862383212 -1.45625837047197
-4.16476734273979 -12.7527697989216 -137.810424962575 -0.354985757722822 2.89652954939911 -2.15746670422292
-6.74419862316813 -19.8326104268099 -158.338426781212 -10.8100599976812 7.67647288379043 -2.88567604943085
-10.4705091484152 -30.7237581104837 -192.859871147503 -19.450312875205 15.592672684865 -3.59665091951635
-14.2947993179606 -42.1966499671079 -230.199901885789 -25.6529138915477 23.9071226876255 -4.19799460062415
-16.8396974728505 -49.9228721287431 -255.469378890033 -29.1928505327542 29.313013126725 -4.5684802017081
-9.43091080086072 -36.2008200604828 -244.382360851956 46.2479671916269 53.1206885140279 0.390149620508643
-7.33366282216774 -29.3959966004123 -219.425839494576 41.934278741787 53.2184114365418 0.0704268684190122
-4.32028661509257 -19.5771175633564 -182.729426187257 34.5599058398807 53.3789670431425 -0.450646715766485
-1.79785815901073 -11.0844756681762 -149.39119141511 24.847164790037 53.5663029780519 -1.07898309249799
-0.791019397961627 -7.06306998178987 -130.69755829689 13.8037059635364 53.7551641955701 -1.74923646420923
-1.74563656928264 -8.89427323725242 -131.946227371507 2.46705085638989 53.9378573601875 -2.43539500805711
-4.58465233523757 -16.4261489802518 -153.039353385337 -8.17152049310236 54.1178510036605 -3.12505529445057
-8.70548225809535 -27.9715607917279 -188.477919381757 -17.1937495429825 54.2955533488885 -3.785147504607
-12.92881735806 -40.0918165783232 -226.771046666646 -23.8280559494449 54.4533543786077 -4.33839706910884
-15.7327703929265 -48.2376777482523 -252.662403558828 -27.6504081883575 54.5554006766169 -4.67792331218954
-7.26396616780294 -29.97137454656 -220.301742871038 43.6072252815907 53.2471395275648 0.161337803939947
-5.49833304991398 -24.2875322972994 -198.94249951572 39.4162203811804 53.3410280070977 -0.126729993923354
-2.96414051447816 -16.1215679667741 -167.64430670501 32.4820882203786 53.4939051193305 -0.5900000371036
-0.847477623752203 -9.06647912701525 -139.112622416512 23.4402034885767 53.6708931316578 -1.15125124748239
-0.0327102381528667 -5.78573699334047 -123.0778887553 13.1907397924739 53.846170803454 -1.75473654946805
-0.914566665443377 -7.4783892484064 -124.230658962083 2.67491408079221 54.0100577624855 -2.37569913822355
-3.42282366736591 -14.0063124478015 -142.481521249071 -7.20481319891924 54.1643147975606 -2.99981428432434
-7.02087965786064 -23.894055355779 -172.957387631835 -15.6190332499034 54.3104063036662 -3.5949177717643
-10.6869668714505 -34.2169851549424 -205.746363756279 -21.8838033496165 54.4371856069259 -4.09259893276792
-13.1348163338375 -41.1990056652846 -228.005460006312 -25.6307809707446 54.520080008427 -4.40186286263816
-3.86637124763788 -20.4573691622972 -182.571354104589 39.2949830096714 53.4645052288092 -0.192727695948239
-2.6069096444968 -16.4127689870261 -166.703695825082 35.3501920019967 53.5464558546797 -0.431551892106532
-0.794874474837095 -10.6316504349623 -143.531758532125 29.1548640808418 53.6788795387161 -0.807109192506263
0.707670041651342 -5.65363785323287 -122.268670279229 21.203623675095 53.831658999869 -1.26584576358125
1.2312874061747 -3.4403795638355 -110.278938467267 12.2260127097213 53.9807718079901 -1.7657737879926
0.464835259487464 -4.91321746912857 -111.279652586631 3.01426946829524 54.115069948895 -2.28401809179022
-1.53150043368074 -9.95426463917963 -125.193823607262 -5.66183941936901 54.2339924556487 -2.80367966265087
-4.32706084552048 -17.4098759737411 -148.150196705552 -13.1054600569554 54.3395286182821 -3.29475622256567
-7.14174132025853 -25.1076776100728 -172.63838499858 -18.7646313888128 54.4275995915986 -3.70307137651367
-9.03643616722302 -30.3662757145287 -189.340184804988 -22.3559618474139 54.4866815008524 -3.96177723391959
-0.238351740810648 -11.0699753587264 -142.457876431357 34.3309836550496 53.7556084760475 -0.555551618285801
0.529853514984941 -8.57628959669877 -131.964874280749 30.7124033398704 53.8215938169191 -0.742234921931776
1.65020828104454 -5.02314291819128 -116.642569437026 25.3557379591187 53.927956755221 -1.02759204565516
2.56065397669246 -2.00072822361505 -102.486250917345 18.6245774767418 54.0504716324699 -1.37852875469445
2.80709705611869 -0.789147969925938 -94.5003345048873 11.0729880983421 54.1684630827816 -1.76621315805032
2.17079198446944 -2.01372368617394 -95.3298427489798 3.32568229567518 54.2706855132062 -2.17111113671379
0.700095319795122 -5.58014518741129 -104.912622508534 -4.00128609040243 54.3550254579878 -2.57593267989522
-1.29191375680846 -10.6801586510885 -120.481657920379 -10.3577898244965 54.4238344378907 -2.95483257724664
-3.26760739173056 -15.8742031312074 -136.922702968987 -15.3236516456619 54.4783838121455 -3.26823069034032
-4.60902955272406 -19.4682367965619 -148.164940377484 -18.6891202067413 54.5169159128877 -3.47131018878435
3.00295157262432 -3.85890482851116 -106.906368016011 29.4301912012047 54.1080424084567 -0.856279309167125
3.39363929328575 -2.52852711807613 -100.621801310709 26.1780564363542 54.1576474217259 -0.995990945157198
3.99024168845429 -0.622771231708086 -91.3582899209755 21.6315453747455 54.2380888989962 -1.20329078740991
4.4522698991313 0.948310262961827 -82.7457468517519 16.0548527372752 54.3306957715649 -1.45900870787424
4.49697983474794 1.429681413636 -77.9150521433708 9.85363177426568 54.4187628995801 -1.7444810774848
3.98549735971692 0.443825901166775 -78.5808272572029 3.49662933246317 54.4922446345704 -2.04441414988282
2.95450620350838 -1.93797084907327 -84.6957290744538 -2.54851832158121 54.5485598789453 -2.34354914244428
1.61354474005188 -5.20141553673223 -94.4535565090074 -7.86736374787505 54.5902373342929 -2.62140480718078
0.30612268986722 -8.47515231122431 -104.643760803067 -12.1492070243396 54.6214169368675 -2.85051028134522
-0.58711303847545 -10.7737103636827 -111.582747907325 -15.2365523901969 54.6456269439083 -3.00206169926906
5.64276065034393 0.514472556602549 -78.3111346802288 24.9367591092718 54.5179028056159 -1.07193790778191
5.78485867850187 1.09627315727545 -74.9033053289726 22.0595510725258 54.5530285869728 -1.17187978992592
6.04107007471242 1.95848418444874 -69.7263259977592 18.2377233570766 54.6108076667522 -1.31644936670701
6.21510360180348 2.61591087131795 -64.876089471797 13.664108561567 54.6773646725533 -1.4948462924426
6.14194562188145 2.65977879641207 -62.1957150478781 8.63020216135664 54.7399543395582 -1.69539610031312
5.74064160966295 1.88545708016772 -62.7176081255171 3.4764036558191 54.7904662025485 -1.90698198487037
5.03780089463452 0.344499302017689 -66.4073049729779 -1.45507454711033 54.8265755060921 -2.11760735890273
4.16529638830361 -1.66006124738904 -72.166279795368 -5.86123828811729 54.8506946052891 -2.31216376035687
3.33139605997006 -3.63645082982699 -78.0948335405565 -9.51503547841099 54.8677520591577 -2.47220108134842
2.76137677495402 -5.0445100371156 -82.0587004861183 -12.295392204942 54.8830964543189 -2.57945730940083
7.68207642379594 2.14462235056942 -56.5861699256911 20.9661201758356 54.9863250768646 -1.20630140453447
7.68103927354342 2.30021322213242 -54.964710108661 18.4470684742607 55.0100554248602 -1.27294267413199
7.74224351483795 2.57935798348398 -52.3038803424271 15.2454575975504 55.0495717966611 -1.36811084776252
7.7563338373828 2.73810899771074 -49.7752412052402 11.5023916786369 55.095096540056 -1.48576557465643
7.63152197252234 2.57081705052037 -48.4170829236053 7.42548930072886 55.1375412313178 -1.6187663561908
7.32378441121421 1.97713312345871 -48.8175993046407 3.25763569090664 55.1709480618856 -1.75951809089934
6.85176618834831 0.993067644580736 -50.9525427878669 -0.755633722273947 55.1935374663701 -1.8993945443225
6.29508552183696 -0.212381546311357 -54.1873647308209 -4.39599438280039 55.2072976577187 -2.02792196431303
5.77575132243485 -1.3755133968084 -57.4442643713597 -7.49787668804433 55.2165917704094 -2.13306288958489
5.42394244758627 -2.21263382040974 -59.5242852501828 -9.96701048916555 55.2264753054032 -2.20333634239745
9.18989173339964 1.39586942027467 -40.8059673348125 17.5331530354543 55.5156103972623 -1.27292417436026
9.11987970732613 1.33802004919341 -40.2040639118796 15.3366129158234 55.5312852152903 -1.31139245664087
9.08550807910735 1.33490394999476 -38.9809972403631 12.6473238043364 55.5567875798206 -1.36739108584895
9.02688678636219 1.26726919362833 -37.7787938677527 9.56822454245594 55.5859646566439 -1.43754466145303
8.89434987192076 1.03584897802332 -37.1660469102981 6.24694848823304 55.6130587711584 -1.51758692385062
8.6650529917462 0.594786830897135 -37.4658201637464 2.85625417242291 55.6342183189035 -1.6026314724524
8.35164549835542 -0.0316133116122207 -38.6615431192158 -0.428100751032402 55.6482306955095 -1.68695651511683
8.00110872761195 -0.751148129169006 -40.3985168311658 -3.44853031705266 55.6563876722338 -1.76376381883645
7.68367780123129 -1.42512436934925 -42.0811498997302 -6.08334671565206 55.661686566825 -1.82552451319275
7.47382152764179 -1.90642358794343 -43.0482336438558 -8.2586501514797 55.6677132934684 -1.86520658688458
10.232704962129 -1.32498853790995 -29.9887914687617 14.6209782754302 56.1071994579047 -1.28662116320756
10.1416158695412 -1.46871085109783 -29.9119380880261 12.6989832646689 56.1175318816843 -1.30100336657055
10.0746777448675 -1.57331781054769 -29.4422806794289 10.4167611416593 56.1321253229916 -1.32552483114628
9.99806166278027 -1.70360728355232 -28.9343061610252 7.84905276989336 56.1483071847092 -1.35828554310399
9.88413897209784 -1.91271375942313 -28.7000671186693 5.10178167959448 56.1635179393302 -1.39681818778073
9.72071113864523 -2.22417996837721 -28.9165320987662 2.2997471621566 56.1759549162401 -1.43821127257269
9.51599598534716 -2.62240896432479 -29.5727485724374 -0.42866010695898 56.1848907662695 -1.479036352458
9.29785355600752 -3.05413830165283 -30.4708739877061 -2.96688992954994 56.1906439950892 -1.51529349783133
9.10726342259755 -3.44091139922232 -31.281058062661 -5.22313815773102 56.194279616876 -1.54265256526808
8.987676308235 -3.69969929795037 -31.635978638826 -7.13855510031129 56.1971574354511 -1.55711137990947
10.8510182044023 -5.64702993521678 -23.3598459121251 12.2092791317348 56.7615134425042 -1.26000439657563
10.7689382602356 -5.80042965224737 -23.5016581130475 10.5075907519342 56.7676563441002 -1.25394101535505
10.7090276032363 -5.89736133707176 -23.3627517791138 8.53248061593216 56.7723258147988 -1.25316631376541
10.6485044758065 -5.99149178747657 -23.1583591740362 6.3382389446146 56.7766708422699 -1.25651707740006
10.5687179553701 -6.12754895803072 -23.0766141135111 4.00313565146015 56.7816079224362 -1.26260091365786
10.4611414540246 -6.32732986681996 -23.2241327763655 1.62151627188373 56.7875261042172 -1.2698956515814
10.3306908114427 -6.58182755719674 -23.5940476845878 -0.707517459342687 56.7940950031034 -1.27672054948715
10.1952091251442 -6.85218634109751 -24.0667165008243 -2.89241781709225 56.8002708276296 -1.28118578153575
10.0811834822666 -7.07935813419767 -24.4430219660612 -4.85970805758027 56.804519314341 -1.28126871306926
10.0169837033033 -7.19949782216797 -24.4998665366202 -6.56051331940048 56.8051820454332 -1.2750921803306
11.0553827327412 -11.2578014036714 -20.3977954156293 10.2827112052351 57.4792798635566 -1.20204784899481
11.0031890377489 -11.3650276277488 -20.5591069062931 8.74585414027318 57.4798076766431 -1.17939939857222
10.9786243400977 -11.3749037170203 -20.4729816750004 6.98458921536213 57.4722884825051 -1.15909574010207
10.9587806440199 -11.3610487987344 -20.3144906673757 5.03892359597856 57.4627872476397 -1.14011430532171
10.9241876711028 -11.3871670161418 -20.2367214736533 2.97056251499762 57.4566624852576 -1.1215726376828
10.8646465753118 -11.4885625847234 -20.3272139583685 0.857499670146437 57.4570408939546 -1.10288694617189
10.78251870991 -11.6614799337318 -20.5821101938989 -1.21554355394278 57.463937391815 -1.08371703974663
10.6923899859236 -11.8637056931299 -20.906632888273 -3.16849839211005 57.474278344637 -1.06378800988759
10.6172104166204 -12.0262214057567 -21.1417837543473 -4.93610352176761 57.4828077339881 -1.04274704457524
10.5821424277611 -12.0721553342498 -21.108467463223 -6.47433829016859 57.4835922049111 -1.02017152670731
10.8278164341935 -17.9148635178482 -20.8192186345065 8.83102888778819 58.2639437336033 -1.11717858984255
10.8254558958191 -17.9152037963894 -20.8377218609193 7.40622747493163 58.2537150671273 -1.08271145974272
10.8644134575047 -17.7550136511145 -20.5746230111939 5.77301471323167 58.2270617363913 -1.04932674108487
10.9104994473027 -17.5578579231537 -20.2480800083011 3.96200731880349 58.1972510631294 -1.0154432455173
10.9335089930408 -17.4333071167077 -20.0507976899842 2.02746242026385 58.1761455184939 -0.980122149470457
10.9159849719848 -17.445572940486 -20.0944826155711 0.0429992546041657 58.1708048030426 -0.943372068480443
10.8581538580619 -17.5954878658098 -20.377595776492 -1.90798452200871 58.1815849463935 -0.905955730038786
10.7777533494266 -17.8208061950101 -20.7855983713877 -3.74468380779825 58.2021952970485 -0.868883726509977
10.7048630597486 -18.0145448972778 -21.1236190864212 -5.40054317087891 58.2216406480775 -0.832931975609621
10.6731716999992 -18.0560177176949 -21.1722331374693 -6.83110560883706 58.2274957019571 -0.798454674975151
10.1231261957364 -25.4595846730107 -24.5599253378278 7.84642327553712 59.1246111020892 -1.00440956701628
10.1980125919707 -25.267446199489 -24.2476632615571 6.48664877670934 59.0934431462335 -0.964514318498842
10.339827076746 -24.8227423168055 -23.5414143357395 4.90359249048332 59.0341120658391 -0.926312142368788
10.4881005334178 -24.3376611634604 -22.7984769158187 3.1222842198894 58.9712766801521 -0.886588262437799
10.5884243533496 -24.0027543025119 -22.3372833070884 1.19748756305403 58.9270787540775 -0.843623769557356
10.6083328046749 -23.9315634305661 -22.3433963258863 -0.790578027867104 58.9146854666453 -0.797781511433656
10.5460314991505 -24.1294729270783 -22.8172675136612 -2.7474426872936 58.9348250848521 -0.750928887545016
10.4304559891979 -24.4936347547691 -23.574099477892 -4.57956845632265 58.9759399622825 -0.705189808665623
10.3127348391118 -24.843642370916 -24.2959110681381 -6.20943132533886 59.0177773841965 -0.661848965832567
10.2506521402776 -24.9757384820841 -24.6255978093735 -7.58653151107742 59.0375631049395 -0.621057962429634
8.86999225758449 -33.829401692802 -31.7609871826419 7.32016324441329 60.0784947305286 -0.856648323118615
9.06591904078443 -33.3178547238679 -30.8457829297535 5.9865993778266 60.009595303494 -0.82010893716637
9.37367600324471 -32.4171247212226 -29.3113329643271 4.38394048377797 59.8948842932401 -0.78839774420535
9.6830006245561 -31.4858582599768 -27.792990966223 2.53455173582548 59.7776183991913 -0.754821925198973
9.89432798755796 -30.8477025984611 -26.8579802871129 0.501227742821992 59.6965866481168 -0.715821311156888
9.94820102264283 -30.6955301073028 -26.8354207708536 -1.61831478310701 59.6746193953487 -0.672065719382725
9.84059328273839 -31.0398769002863 -27.7278471166284 -3.7058600659553 59.7128433523655 -0.626954777036443
9.62338951963462 -31.7082618002878 -29.2102844033765 -5.64245072119291 59.7910790338493 -0.583766974685267
9.38996086752714 -32.3950788406716 -30.7174277841205 -7.32898974799682 59.8739719129357 -0.543371801852506
9.24643123569773 -32.7551556907975 -31.6136643485133 -8.70271952807016 59.9219138907537 -0.503993249948908
6.97727222549895 -43.0517598291362 -42.7284760505338 7.23822851676455 61.1506512142636 -0.660946574891608
7.36326849408834 -42.0394972412354 -40.8005561703104 5.90232756403151 61.0190000450034 -0.639684842385448
7.93740579056194 -40.4301457125123 -37.85226355716 4.21873337930241 60.814060850186 -0.630061399529235
8.501670774629 -38.8181308963356 -35.0138619648092 2.2096226129019 60.6094959885945 -0.618695779355243
8.87864009171262 -37.7378548831496 -33.2868669718971 -0.0463433021555823 60.4707275791769 -0.598577602144771
8.96382915335326 -37.5044518461047 -33.2446881239301 -2.42255308137503 60.4354980902408 -0.57104401002394
8.75038989200429 -38.1348678691065 -34.8926137894775 -4.76370895912819 60.5052698584885 -0.54225205458139
8.33038353697725 -39.3461669890054 -37.6652793858024 -6.9115781994245 60.6461765969151 -0.517060197221493
7.87225181481013 -40.6308541305185 -40.5631219729387 -8.73321654949791 60.7986568353667 -0.494407456912999
7.56954292728278 -41.4124118954074 -42.4520156286404 -10.1461770918837 60.8958152419647 -0.467440812159201
4.36054374228994 -53.1840824203544 -57.7813591993637 7.57300450376308 62.3661839905232 -0.401542618398118
5.03633189723428 -51.4315676130798 -54.2621651136211 6.21787531872088 62.1378819214469 -0.41094210281495
6.02463206457793 -48.7666727183426 -49.0562542072388 4.40120713170429 61.7938249869487 -0.444010711876505
6.98111815055667 -46.1522881876845 -44.11865314687 2.14801427016012 61.45617881571 -0.475359303267936
7.60335110809322 -44.440783737828 -41.1486725893874 -0.438308944564176 61.2311523407999 -0.492208127301611
7.71769399944974 -44.1241062491893 -41.0962147946776 -3.19057948620821 61.1780869324212 -0.497699714725388
7.31347002594824 -45.2274507636813 -43.9707850888348 -5.90327536968221 61.2984925508399 -0.503301128268266
6.54561673460767 -47.3060035551747 -48.8359451246431 -8.36447906952347 61.5381174440564 -0.516564596067491
5.70490978439149 -49.5446906030308 -53.9924167647739 -10.393072371458 61.8003585873807 -0.532116529730904
5.13267915373874 -51.0021220548505 -57.4725459354828 -11.8772180475871 61.9752633552472 -0.532585232568259
1.0185084262607 -64.1360451022254 -76.8221058799104 8.26490979736919 63.7258865230333 -0.0692350318786278
2.10710973336185 -61.3701387190926 -71.0069663413566 6.88513908601479 63.3613833629771 -0.126912564166053
3.69642006213765 -57.2374250160054 -62.4882104479267 4.8948357235622 62.8190768204643 -0.226856984064845
5.21575781815181 -53.2442999215744 -54.4930357672253 2.32710418689592 62.2940566002324 -0.323884684574544
6.18023618425464 -50.6855726922764 -49.7366007018097 -0.679847105515166 61.9500972408587 -0.396580459295211
6.32158284246763 -50.2838254345483 -49.6829286100163 -3.90810369888286 61.8746290677455 -0.452163875188057
5.62396999478159 -52.074540801239 -54.3480546166778 -7.09193203582831 62.0685639320649 -0.511604977826478
4.3287968572176 -55.4007512578761 -62.2895052829352 -9.95354735389366 62.450324862959 -0.587237829111763
2.90676122343388 -59.0171743704813 -70.7877720189825 -12.2483650813655 62.8711662008338 -0.666158170265074
1.92959718967327 -61.4414592779941 -76.5866744674682 -13.8222549132001 63.1571608196654 -0.712236702115891
-2.80766588278977 -75.3094148120474 -98.4475220442612 9.18739396708596 65.1557599757432 0.318998509285618
-1.19828464656551 -71.3143535152624 -89.7225963711187 7.78619725772843 64.6225160160924 0.198153414598099
1.16204375672401 -65.3699513703924 -76.9371668968311 5.60019776990419 63.8310957646757 0.010351321611733
3.39377819272886 -59.6974334563024 -65.0485410375095 2.67896583500775 63.0740715134401 -0.170832484101365
4.78140842668544 -56.1293855245132 -58.0516193163034 -0.795179921928054 62.5860770273765 -0.312918476481633
4.94685765689102 -55.6449583208736 -58.0039400960445 -4.54882922162835 62.4855198927802 -0.430315353520124
3.86796265261366 -58.2912916575573 -64.9306187896569 -8.25402488464867 62.7717889606468 -0.558396866619888
1.886023227398 -63.1758208399175 -76.8069641312766 -11.5626167039705 63.3321202100055 -0.71702004069024
-0.299928198308093 -68.5291434764553 -89.6270457235461 -14.1551708028915 63.9538304263903 -0.882603322732627
-1.80236576924534 -72.1555455101215 -98.3796360204902 -15.821298333923 64.3784526532066 -0.990765863638045
-6.43314584555865 -85.1630003675573 -118.830427043496 10.1055975410971 66.4447960327279 0.694973877896241
-4.29397965028621 -79.9658169667608 -107.144199726893 8.68968459808317 65.7436345457726 0.509217001457336
-1.13792689228083 -72.2212100670972 -89.9550542965401 6.31966740135035 64.7009381525662 0.230546517058203
1.8191947701013 -64.9028339588541 -74.0977211286453 3.06889909896574 63.713395528587 -0.0355288320984801
3.62963999918692 -60.364104961874 -64.8505294574321 -0.834097221412804 63.0851207314434 -0.24544130157413
3.81448857643016 -59.8091937022636 -64.8118071019421 -5.06566420520483 62.9613675304061 -0.422810068912798
2.34509436168777 -63.2964111310257 -74.016756434113 -9.24510743618403 63.3393807421966 -0.619678859929976
-0.346494189992721 -69.728301200365 -89.9127227051278 -12.9629905865468 64.0783649160828 -0.864957608735835
-3.33088281011652 -76.8276048067218 -107.202988117732 -15.8280122013125 64.903226368998 -1.12339548287806
-5.37568261739889 -81.6464189821816 -118.969686897654 -17.5693078705475 65.4661110159437 -1.2976042281881
-8.75131727845509 -91.3005444286391 -131.841765568955 10.6896946508784 67.2551883492277 0.939994317936028
-6.26407854705427 -85.3617657914959 -118.217634917132 9.26502249368493 66.4480227493563 0.71190356689572
-2.57725708385499 -76.4876661293668 -98.10402863577 6.77427178126254 65.2442898806136 0.373490775246353
0.861809108512734 -68.1421849955117 -79.6223403347424 3.31026045283205 64.1099186389481 0.0524081258440782
2.95135784176667 -63.0018644182501 -68.8962833302501 -0.865946595733881 63.392989871506 -0.200760769075707
3.14833459935124 -62.4025749969205 -68.8634920887143 -5.397466950008 63.254483986404 -0.416665537279551
1.41939992353156 -66.4106707640913 -79.5665132471641 -9.87027478112184 63.6900814070431 -0.659233232539691
-1.74649240735774 -73.8111246566786 -98.1228639063998 -13.8376187826389 64.5422186667841 -0.963781196588908
-5.26694410163264 -82.0116971726179 -118.385272446164 -16.8643620906401 65.4965455547853 -1.28661299786702
-7.67109109902225 -87.5724208433142 -132.127637926029 -18.6420144967209 66.1462886225499 -1.50615116163503
-2.57808837551002 -26.9708568789079 -41.2059641495561 2.18201672607195 -199.047178560678 0.736628289758802
-2.20215093738361 -25.9775135613837 -41.0006751322652 -0.3024035361267 -198.922620532391 0.617964561185223
-1.74215824836732 -24.7822861935105 -40.4974922319474 -3.16315908610602 -198.884619562321 0.482575860914312
-1.22965765459824 -23.4560492120534 -39.8879103322876 -6.32584123523923 -198.859360105092 0.332726377419538
-0.698570942449374 -22.0773746816719 -39.3450301686222 -9.68256584323557 -198.783665561402 0.172489992138736
-0.178405325142204 -20.7176226417328 -38.9767154044224 -13.1026998219508 -198.623863734929 0.00758820422719149
0.311465094060484 -19.4277520257008 -38.7964335357221 -16.4490126372398 -198.386473893706 -0.155150212620355
0.764648158906464 -18.230911673444 -38.7212062986505 -19.5954444930544 -198.117367998867 -0.308620379498415
1.18680661948796 -17.1231290619137 -38.5973537989663 -22.4419437390318 -197.889619154326 -0.446378652153557
1.59138350709897 -16.0815563942931 -38.2456311641326 -24.9229398200902 -197.783724593098 -0.563467880354267
-0.195792104276939 -16.4965269550514 -37.2654488196569 5.59671627161526 -162.768426385834 0.353628811800847
0.0557539966599244 -15.7799390922448 -37.0435891430566 3.07130006383118 -162.688242606409 0.245338880576961
0.352670641164154 -14.9719515586492 -36.5346914292618 0.112644339589551 -162.911750756912 0.122833611047805
0.674796606057647 -14.1050406058635 -35.9634159902003 -3.18545997676383 -163.200423262536 -0.0130812843689425
1.00075677397522 -13.2181905671247 -35.5306481331066 -6.69151347412112 -163.344355154893 -0.159661489820673
1.31294911669383 -12.3489946400779 -35.3559347053875 -10.2525199884346 -163.223153940541 -0.312090487532801
1.60198431031796 -11.525207991647 -35.4431416096956 -13.7149859779774 -162.841596212639 -0.463809338298881
1.86902852901767 -10.7584574186977 -35.6789417803345 -16.9456251023575 -162.328877061175 -0.607308568253809
2.12492579282987 -10.0429499444086 -35.8650093602799 -19.8466211318442 -161.901692179528 -0.735238848080741
2.38605842491379 -9.36054208744727 -35.7755146231987 -22.3621101694674 -161.802694104877 -0.841582879809855
1.5571364853242 -7.93153984237626 -37.2971464210383 9.5112298351802 -128.170306247177 0.0232202663407336
1.71959118612251 -7.40542306344558 -36.8372223491444 6.86455988192893 -128.236556653321 -0.0793888846505312
1.90370920167027 -6.85506990703649 -36.0072567326206 3.6778869354396 -128.820816651464 -0.196630535767926
2.08810177476213 -6.30938789354465 -35.1742375361398 0.0723275556589583 -129.501817011152 -0.328755789770275
2.25228746411507 -5.79970843527901 -34.6643682626951 -3.78169721616575 -129.904517133878 -0.473751363864426
2.38305096072105 -5.35038237681576 -34.6654670362602 -7.68895514495396 -129.81061512986 -0.626944120406098
2.47932766220781 -4.97064069674214 -35.1726821187419 -11.4588523186587 -129.22391234319 -0.781096889558485
2.55423979743285 -4.64883986854846 -35.9874327955998 -14.9326667373889 -128.369621088445 -0.927160232752384
2.63288919280451 -4.35259684379858 -36.7706810946766 -18.0021564565806 -127.627842447323 -1.05566899846551
2.74538959086755 -4.03852792997886 -37.1420533040811 -20.6157296575901 -127.422476169267 -1.15851448134738
2.67425802584315 -1.53257387879104 -41.6679148927208 13.8338626604525 -96.1463869303309 -0.2390923514718
2.78916911501661 -1.08796782096347 -40.6469152248187 10.9942492850955 -96.5050904861189 -0.340953641570933
2.91753448395349 -0.636257754748339 -39.0401606969424 7.45430870002722 -97.5971487261972 -0.461163620988583
3.02060675764176 -0.251832366630455 -37.5179781463865 3.37098652969766 -98.7905767667692 -0.60034235683256
3.06477920602939 -0.000661681451798148 -36.6725387396986 -1.0289916552243 -99.516097314692 -0.756476511204826
3.03315795812387 0.0818459497673616 -36.8386981799582 -5.48562229256306 -99.4394907704186 -0.924326576221509
2.9324672783857 0.00291392532979128 -38.0026854477033 -9.74810231446058 -98.56410802483 -1.09515003613511
2.7947753863037 -0.182282731438468 -39.8016003009713 -13.6129861458527 -97.2303025441734 -1.2572505542729
2.67234510127831 -0.376282459740554 -41.6150803977518 -16.9495029544869 -96.011905281215 -1.39768371804509
2.62390368794634 -0.464987975323959 -42.7478362368233 -19.7070138305587 -95.5431940123925 -1.50495008467012
3.12982081333072 2.42779924197081 -50.9115132742074 18.4627843790424 -67.3734930638768 -0.41961097541509
3.25325790222195 2.95221990656773 -48.8363911933756 15.3764170127888 -68.1795416063781 -0.526288257696598
3.4014194016555 3.53375953940588 -45.757567732377 11.3715164943392 -69.9418143775038 -0.658890580684421
3.49419569420913 3.97489314235187 -42.9022519905601 6.64942149374977 -71.7837634830016 -0.81716183766596
3.46524048652849 4.1118625357092 -41.3405297565456 1.51239642344927 -72.9065188861207 -0.998093266360524
3.28383015277784 3.86528368794573 -41.666898757886 -3.68956419945163 -72.8381424933383 -1.195266251693
2.96488790299296 3.25896198972893 -43.8575526776648 -8.61972566633501 -71.581796311414 -1.39785626255297
2.57022797015641 2.42446479671586 -47.2706839122079 -13.0089962741674 -69.6155180401828 -1.59051838073311
2.19902331691301 1.58651207842914 -50.7914367105079 -16.692049864359 -67.7434476856591 -1.75522854503722
1.96188829748029 1.00512633710939 -53.1561547442146 -19.6179476822136 -66.8455901456032 -1.87530565266209
2.89531667126455 3.71851589721381 -65.5404737510605 23.2672640619528 -42.3122798654855 -0.508266690555712
3.10383949891882 4.559831963024 -61.7012957149896 19.9061155706772 -43.6921620874788 -0.626351036522334
3.37494007618743 5.60228486749179 -56.1433295631761 15.3488101271949 -46.2640503653095 -0.782423574587669
3.55116712741768 6.40451278006586 -51.036352856041 9.84962324246605 -48.873412006495 -0.97315070017464
3.5063112071875 6.61410420394789 -48.226110619979 3.8061634870593 -50.458538232418 -1.19313631493688
3.18323647861213 6.06499188961555 -48.7114396283142 -2.31573111726726 -50.3901719533281 -1.43441280613059
2.60611334097858 4.79925508584929 -52.4568318867529 -8.06690212624093 -48.6712108080682 -1.68402934625693
1.88090748130891 3.07033046795056 -58.3938404126641 -13.0910487536893 -45.9372668410079 -1.92233989885898
1.18187992155433 1.32216447635357 -64.6132189033168 -17.1762943606549 -43.2573722800705 -2.12441831272435
0.707279485468934 0.079936870242035 -68.8967386663454 -20.271529190708 -41.7928399648472 -2.2658482875923
1.9845137073933 2.3026767387711 -85.5252010093127 28.0492522149128 -21.268867744199 -0.503207696141356
2.37287069070241 3.76904482233356 -79.0328407842736 24.4155097107014 -23.285112334393 -0.640225823274373
2.89536834690338 5.70078312824844 -69.728298028011 19.2567968597108 -26.7378711001265 -0.8320346238824
3.26876008286535 7.24613333875531 -61.2429700936388 12.8890009902012 -30.1728973556708 -1.06876564597564
3.27478412912387 7.75291280468586 -56.5479978634966 5.82183084295529 -32.249546580444 -1.34087512650157
2.81722689219308 6.92375905061331 -57.1903234998017 -1.34240726017833 -32.1742320880484 -1.63896073583896
1.93062630362504 4.8211594899928 -63.1212306104391 -8.02059875312231 -29.9491028633358 -1.94877731475804
0.779739212181704 1.86858622862968 -72.6990494028634 -13.750894614962 -26.3740530686243 -2.24648147443673
-0.352550258901917 -1.15780439739105 -82.8680542909069 -18.2637684431134 -22.8005147127341 -2.49848018848421
-1.13164903345874 -3.30174940310462 -89.9351742706877 -21.5074699810344 -20.695838015758 -2.66921527824602
0.54694183729615 -1.3428444156641 -109.234443761349 32.4864081498112 -4.49866985046804 -0.420038625859557
1.20559907453513 1.05314986818428 -99.2707665342509 28.6128400968529 -7.11452705036751 -0.582892386529405
2.10223540602621 4.29475633385241 -85.0573079133006 22.8634508081204 -11.394770502818 -0.820971601719854
2.77830255273995 6.94518658156037 -72.2102681344959 15.6224936751572 -15.5965972821165 -1.11368774283684
2.89729857849897 7.95808986306093 -65.0987893976059 7.51783848910528 -18.1236579661909 -1.44569210860986
2.31697202156234 6.87811842847353 -65.8885366905043 -0.706469444116981 -18.0368389843842 -1.80687117523466
1.0826140909145 3.78912238323178 -74.5172374880773 -8.32656671494038 -15.3367573382343 -2.18338412684085
-0.574673248226431 -0.687409597576589 -88.698700382787 -14.7673074354645 -10.9679018631819 -2.54836217027602
-2.23672457101108 -5.34836176329727 -103.957050391754 -19.6942260652006 -6.54196788451787 -2.85861771351935
-3.38274980159894 -8.63232180617334 -114.599770879483 -23.0513207073207 -3.82450064833481 -3.06400568078431
-1.01393447759864 -5.81964500435764 -132.133279228487 36.0891109142049 7.71802459105611 -0.303194972184768
-0.0524147253543255 -2.3767954214847 -118.532884864501 32.0382698429422 4.67314012592957 -0.494058771002963
1.26113730952219 2.33060124442584 -99.186984685236 25.7992213925681 -0.195324775347751 -0.780481635434837
2.27500629035311 6.20985112006849 -81.8604282984169 17.819966658685 -4.93160709438266 -1.12867161601839
2.53355449658951 7.80904532002166 -72.2977335611572 8.83058353026335 -7.76642260360005 -1.51694300781221
1.85312435838992 6.52673801794173 -73.2095185374286 -0.303494677975963 -7.66759060105035 -1.93534832578763
0.288716744821685 2.46641357816468 -84.5215489865857 -8.73508615166978 -4.63363139451361 -2.37203638011719
-1.86910269933315 -3.56831184877128 -103.380084703023 -15.7870195666867 0.299745609246216 -2.79897556442097
-4.06810058043977 -9.9403411268666 -123.914215496914 -21.062497850161 5.34332557243288 -3.16449627155958
-5.58462226583983 -14.4155815038173 -138.268840465333 -24.4955073294592 8.50735518568496 -3.40307367636518
-2.04730278236855 -8.82981172067051 -146.944576897155 38.2717352209114 15.1768532820786 -0.224306072723281
-0.871719595448718 -4.63179152989484 -130.873277309789 34.1350215954951 12.0141633435945 -0.435401435348831
0.736297345978315 1.13263525019732 -108.042841377722 27.6204113598778 6.99819132367536 -0.755998429604722
1.98753328920998 5.89402117073057 -87.7095258328974 19.2088710999523 2.13901750745754 -1.14204347787015
2.34613800605415 7.91855081278112 -76.5159285240025 9.68717050361257 -0.760856795122409 -1.56703546885154
1.60287529275522 6.50884864244076 -77.5039662207365 -0.00593487543773815 -0.654580403950988 -2.02115851812264
-0.180152089725118 1.78312154707259 -90.5909714909583 -8.94344120326275 2.46102207223734 -2.49435758534078
-2.67424294468657 -5.33347505518092 -112.576669873959 -16.3798920126156 7.53730541778418 -2.9587663636647
-5.23797974868519 -12.9049707129515 -136.680170148939 -21.8751406225827 12.7488477283938 -3.35809556102195
-7.00575862832356 -18.2141083656074 -153.54754796402 -25.3526756759491 16.0433168481382 -3.61692384121895
-0.194852697614588 -5.77301661317827 -143.106531901087 40.0719736014445 53.2961279792338 -0.494802518380179
1.10630016010063 -1.39573257934495 -126.725696846666 36.1447807807835 53.3507980094372 -0.717266714723803
2.92167038875409 4.67421494516456 -103.403742520878 29.9461879409199 53.4407254614148 -1.05922820880019
4.36337576064121 9.70472507255832 -82.6023608666983 21.8607096992747 53.5440748765545 -1.46231765943216
4.81350583691911 11.8322683431049 -71.1441841521735 12.5775275881019 53.6453556776164 -1.88946002189205
4.02160166389293 10.3002066022631 -72.1706877540913 2.96799905100749 53.7404954653925 -2.32689290849503
2.05848296908798 5.24866978325656 -85.592305784718 -6.05584457214831 53.8346724389994 -2.76754266022108
-0.693532838063757 -2.30675485820922 -108.099397034638 -13.7024358697645 53.9330127194207 -3.19172796476856
-3.51147010254616 -10.3016483114383 -132.73143032786 -19.4331746589425 54.02797494385 -3.55355624383831
-5.44614453672314 -15.8940553563002 -149.940973729629 -23.049171293241 54.0956930737488 -3.78673885353836
1.24136975478419 -2.077273481506 -127.410671231442 38.2227610988834 53.4023883626157 -0.631399993639482
2.31646497078874 1.51867711424913 -113.508031792524 34.3903161414836 53.4548788806192 -0.829897075777199
3.82403503370194 6.50304155315324 -93.6777143495638 28.4756574841815 53.5413372328151 -1.13354158788559
5.01486380681604 10.6215356483189 -75.8898142092677 20.8338593814403 53.6400888519398 -1.49445272943814
5.35197837090171 12.2933868265323 -66.0701186193792 12.0989103413938 53.7347773099183 -1.88061983777944
4.61121240395889 10.8593600126947 -67.0296775415236 3.06844055369128 53.8197113434134 -2.27843734217922
2.85710443580172 6.44691577764555 -78.6866974789799 -5.42673863770733 53.8985778214858 -2.67929446530494
0.434301512788785 -0.0484216272267901 -98.0762483434843 -12.6649481773584 53.9766812517646 -3.06342760259052
-2.02403535503538 -6.86172109472845 -119.146468265087 -18.1525965435473 54.0503605701333 -3.38934343292537
-3.71273108900953 -11.6374888482033 -133.849658331541 -21.7032960909676 54.1036268529127 -3.60014250896935
3.46497580780627 3.52884612286581 -103.052175194158 35.1643880024892 53.5754675244243 -0.842955517024806
4.20419409809574 6.01206731366596 -92.8289155191586 31.513397347039 53.6210704222689 -1.00548710440778
5.25420327710325 9.45220870056632 -78.1876724388997 26.0852541773262 53.6969799500478 -1.25162371724015
6.06816314986026 12.2653799424464 -64.9327898811335 19.1821846982404 53.7835019027644 -1.54808973595466
6.23550637380449 13.2876937146335 -57.6014423349298 11.3448658275001 53.8646776456822 -1.87030913357188
5.57737872549468 12.0121697802254 -58.4528809273598 3.25406648752722 53.9334522558217 -2.20510999387328
4.14884405393572 8.54721098748826 -67.41707289628 -4.3831084988547 53.9914908784674 -2.5419435261566
2.23157374253556 3.60102621999683 -82.1031479464868 -10.952185343054 54.0437377055279 -2.86170006881017
0.317741271805549 -1.50588643608295 -97.8672337790268 -16.0313963865755 54.0908068352161 -3.13037980820449
-0.998948160224034 -5.10367211089436 -108.840852562248 -19.4563149465043 54.1260982333894 -3.30529155312424
5.83279450416651 8.77036775907238 -77.2661217393163 31.4610704206516 53.8115744800246 -1.05818390821921
6.25282759106027 10.2254464717225 -70.5803550778426 28.0588132473623 53.8478023837828 -1.18324439545686
6.86823529039469 12.2378378593904 -60.9373779887893 23.219904474394 53.909502089409 -1.36974507049785
7.32100069965262 13.8306704489264 -52.1301581284545 17.1921898537651 53.9798355790239 -1.59716698577793
7.33030279196602 14.2525498098391 -47.2748041812439 10.4112606372702 54.0443535670844 -1.84837744873259
6.76957570718271 13.1642082750542 -47.9990710962258 3.42392618634684 54.0955525278956 -2.11174048629582
5.68299029412058 10.6523167019311 -54.2465741894637 -3.20319831900132 54.1335595390198 -2.37621951795606
4.2796209275008 7.21730768637407 -64.2837091494327 -8.97668195388276 54.162876887469 -2.62484746433166
2.90566279244149 3.73641809638485 -74.9091646967257 -13.5541485059047 54.1873711249744 -2.83183347715979
1.95696916422175 1.25706521774226 -82.2790108401066 -16.7926210785673 54.207645211858 -2.96768675094458
7.94951194807365 12.2749561518431 -54.5372621711977 27.5751380284157 54.1076425287035 -1.23272407252547
8.12988776007184 12.9805735948459 -50.5823607029963 24.468279042501 54.1340502074541 -1.32402870140681
8.42041572427975 13.9556076105989 -44.7916929058101 20.2437718283177 54.1809214409812 -1.45790435908444
8.60373666232046 14.6582952298187 -39.4665996016594 15.1016599570051 54.2344998037715 -1.6226069488237
8.50431795396698 14.6585123351019 -36.5702264027671 9.37930432866211 54.2825563054146 -1.80700818971035
8.04209364895611 13.7600223582866 -37.1662812320743 3.49579262557907 54.3181062633137 -2.00185124052423
7.25069754021987 12.0286386340782 -41.2116980136185 -2.11590022201079 54.3405225983316 -2.19729003233126
6.27315839950804 9.78340448267236 -47.5618627694686 -7.07688353338401 54.3538376156159 -2.37958855950263
5.33528214788912 7.55152042466573 -54.1883223478993 -11.1187995669124 54.3635343993976 -2.53022079404533
4.68458374772651 5.93181597444433 -58.7497195127432 -14.1180414648547 54.3741260074631 -2.62956613103294
9.68067089632021 13.6062479658106 -36.4223514895715 23.7999732153395 54.4627997836203 -1.35152744493918
9.70837897835725 13.8484518379164 -34.311820552256 21.0123550982886 54.4804423199675 -1.41364127851207
9.79309728238327 14.188198219049 -31.1120140440146 17.3778814407763 54.5138670568611 -1.50383289407786
9.80956022538331 14.3527040211568 -28.1511417282744 13.0555794788247 54.5523368611805 -1.61566403441644
9.65547392523991 14.1228149343183 -26.5880974248225 8.29976266241452 54.5861476014736 -1.74227459389303
9.28495312663135 13.4017300943158 -27.0652743485125 3.42143822967936 54.6094689976577 -1.87696763681521
8.72257869269567 12.2374449457586 -29.5511204448283 -1.25914131113497 54.6215016136105 -2.01202489919663
8.06043560575106 10.8167762801234 -33.3438021092477 -5.45966998468065 54.6256897973995 -2.13721546391238
7.43827686682405 9.43139927696605 -37.235894320793 -8.9747293250601 54.6276650216816 -2.23976878208124
7.00503644412149 8.39938695859211 -39.8681354315113 -11.6993115569364 54.6331574034838 -2.30681935151519
11.032216169212 12.8529981774207 -22.8533364990134 20.2989773081487 54.8768566867835 -1.41688030721519
10.9773599083833 12.8473768418689 -21.8749649901573 17.8304173559546 54.8877504138359 -1.45342466093464
10.9504891346988 12.8550455119795 -20.2612213689066 14.7310479029342 54.9101592744231 -1.50746529575389
10.8820276627003 12.7515632320467 -18.7526199479487 11.1247976293986 54.9362098967681 -1.57559445918196
10.7154726067343 12.4382092470324 -18.0014749665609 7.19987433271045 54.9587501569643 -1.65380490350136
10.4267175509246 11.8760248269786 -18.3732028965971 3.1827616095414 54.9733764733116 -1.73768611828403
10.0331316010348 11.0988554635937 -19.8454529417644 -0.693860853392693 54.9794010791144 -1.82183843523635
9.59162193190242 10.209493668863 -22.0105410570512 -4.22302078052441 54.9795259331752 -1.89924102294991
9.18577128985743 9.35916392286481 -24.1811148441777 -7.24971227941453 54.9785371201722 -1.96147886887351
8.90320029969173 8.707073998096 -25.5931518295113 -9.68687553270831 54.9816782228782 -2.00027065537244
12.0530095475817 10.303224623687 -13.2011418062061 17.1577839400324 55.3485346670635 -1.4381986962108
11.9645166562798 10.1869297622432 -12.8600344843298 14.9865876814831 55.3550774702922 -1.45161272293698
11.8902976835007 10.0565760916785 -12.1429689588189 12.34903610845 55.3691435047192 -1.47490426892756
11.7924769050423 9.85943787355454 -11.4542620460072 9.33966276997801 55.3855809275191 -1.50639126142144
11.6408601624455 9.55551580063642 -11.1500811548672 6.09633957180518 55.3997045796295 -1.54395405363955
11.4236144626636 9.13308306672243 -11.4302097462667 2.7830973269266 55.4085902344823 -1.58505238891303
11.1525938481763 8.61516616305342 -12.2793302527029 -0.431409678014739 55.4117430567946 -1.62640386011176
10.8621081410036 8.0571231967315 -13.4685934844318 -3.39556923643196 55.4109794151173 -1.66370003427291
10.6011987857926 7.53546736632957 -14.6174074533502 -5.99268526969898 55.4096553104935 -1.69181407553484
10.4208574398799 7.12825532938505 -15.3043985596106 -8.15192273253286 55.4115748374416 -1.70569685365925
12.7876648880631 6.28807945732282 -6.79583113489037 14.4206890451413 55.8745644111689 -1.42658006765713
12.6969402010196 6.13940861943006 -6.77547968946381 12.5090905261588 55.8788575601945 -1.4184796803819
12.6158160409745 5.98395029095547 -6.51851522790189 10.2503436303433 55.8867267363523 -1.41467223762719
12.5230909462088 5.79484380808211 -6.24778343967776 7.71531298995835 55.8957194863135 -1.41449135665196
12.4022126337917 5.55247784967818 -6.15844316519862 5.00520965105886 55.9035867052251 -1.4171062043642
12.2472179101969 5.25259337337955 -6.35958222408144 2.24033643683917 55.9088873493356 -1.42147897469106
12.0657954293824 4.91001539378165 -6.84116548246559 -0.454748862319255 55.9113075182542 -1.42615322972764
11.8785107807317 4.5571487070035 -7.4750383912982 -2.96663278025762 55.9116273135325 -1.42907185080675
11.7142553117261 4.23736318691543 -8.04991109337579 -5.20588328299241 55.9113857667825 -1.42766203177386
11.6030394510002 3.99445242160869 -8.33139802645229 -7.11491007052053 55.9123732832617 -1.41929026045052
13.2609845260322 1.12593801126837 -3.10520840316362 12.1111655935411 56.4498865276579 -1.39232771245628
13.187499039834 0.989571690299895 -3.21058039806139 10.4116997369703 56.4529774656759 -1.3640316948219
13.1245400411705 0.874987291381776 -3.14469124429407 8.4453948388342 56.4554690166752 -1.33574026014082
13.0579448002726 0.753228694709846 -3.04387274920864 6.26499657687254 56.4578498669898 -1.30739262941249
12.9765485321689 0.601228467899888 -3.0267749826719 3.94660330894789 56.4605020124625 -1.27908673666803
12.8760044394839 0.409614511405515 -3.15978553562206 1.58219564690359 56.4635744887853 -1.25103824420029
12.7608106258059 0.186870734875458 -3.4368601310681 -0.731360388432554 56.4668984417359 -1.223396924315
12.6438246298359 -0.0415899612327539 -3.78016348865057 -2.90440782325756 56.469987536036 -1.19603648110567
12.5433399299878 -0.239291750639572 -4.06142896048534 -4.86482779922458 56.4721355560854 -1.16846903654437
12.4785823675919 -0.36778647202815 -4.13746288790321 -6.56437795765291 56.4725810605177 -1.1399693989951
13.4758925095172 -4.89673808553443 -1.76778168847595 10.2415203008206 57.0689125275327 -1.34366532636972
13.4327544698192 -4.98736497533901 -1.87223840893999 8.70291020225588 57.0700119462169 -1.29675023042173
13.4055065406799 -5.01282710928021 -1.82050155549041 6.94399540645318 57.0657583727175 -1.24634026967778
13.3798740602815 -5.02408479004265 -1.7259262717584 5.00447773845191 57.0602883643003 -1.19266243218492
13.343877447163 -5.0649900024517 -1.68748534343062 2.94506840025424 57.057237564271 -1.13650567640141
13.2914926225643 -5.15946785201516 -1.76152968386267 0.842233662396423 57.0586984583899 -1.07921631590226
13.224662825007 -5.30419982342382 -1.9451285289953 -1.22109976387915 57.0646199312622 -1.02246924283063
13.1530128593237 -5.46915809985846 -2.17645369651965 -3.16660614140769 57.0728275417309 -0.967914983223107
13.0913564785516 -5.60580000291687 -2.35210752477882 -4.93038952741548 57.0796513830732 -0.916863678982648
13.0557832079405 -5.66029124641423 -2.35577093734189 -6.46914551776383 57.080965069243 -0.870133483940581
13.4151998841012 -11.538556257339 -2.58327326014453 8.81599130216804 57.7276378455053 -1.28571875766865
13.4145043031347 -11.5441395298176 -2.58312471765147 7.38798794929791 57.723341134 -1.22257848523294
13.4401822525834 -11.4275934016583 -2.39871748361683 5.75606295950624 57.7078206321913 -1.15296963062916
13.470725889882 -11.2810587686895 -2.1739078700381 3.95123684942347 57.6903243912033 -1.07701026603544
13.4870391212809 -11.1863691965584 -2.0359103923154 2.02713309401469 57.6790606300436 -0.995963055331418
13.477905540895 -11.1918061917247 -2.05875410784561 0.0557638820886428 57.6788270638362 -0.912302375806495
13.443048233836 -11.2986507006067 -2.24210968727288 -1.8817795358512 57.6896802187264 -0.829324109095705
13.3930286561071 -11.4613697973016 -2.51141853026262 -3.70727812129902 57.7069884345615 -0.750466444587977
13.3460765783455 -11.6012143703391 -2.73925557724844 -5.35649880786087 57.7228210799028 -0.678638923655611
13.3227237566916 -11.6291033898186 -2.78189937786603 -6.78646426364316 57.7282685291231 -0.61581960936609
13.0433662492129 -18.6185580919106 -5.50061940955744 7.83025412276012 58.4261658166577 -1.21947334034832
13.101663733599 -18.4817697678545 -5.27514644672697 6.46743526570362 58.4096500879169 -1.1439046250891
13.2044566388738 -18.1485962949703 -4.78730495812739 4.88918351217132 58.3740100494551 -1.0594283649457
13.3134337545696 -17.7769063313261 -4.27318107051763 3.12132257482693 58.3362693045791 -0.965382520284448
13.3937949882437 -17.5090010601224 -3.94352132917404 1.21765091108782 58.311606050589 -0.863203947445675
13.4241778696065 -17.4307112918476 -3.92195842810034 -0.74417495733103 58.3088959992123 -0.756630067471674
13.4021343478167 -17.547925582475 -4.21060508570512 -2.67352895939343 58.328301456332 -0.650917656132745
13.3442869385793 -17.7863269415724 -4.68978944541139 -4.48152457864297 58.3614041405769 -0.551475654609336
13.2812099777152 -18.0141313066599 -5.15200259696742 -6.09523067405652 58.3937626423881 -0.462581962893903
13.2479383310339 -18.0818443881704 -5.36340589468931 -7.46741688524215 58.4092394295905 -0.386755228461871
12.3080756760027 -26.0296773047106 -10.6085684413563 7.26903810897812 59.1708259480375 -1.14082693518668
12.4522583181481 -25.6665362884155 -9.9825918208179 5.93379939565138 59.1309570166883 -1.05866837958766
12.671455336701 -25.006146353948 -8.94435343979771 4.34494510973488 59.0605131115999 -0.966032078352344
12.8955571257106 -24.3082048366553 -7.91116638175864 2.52559044562377 58.9888339930913 -0.860243350508663
13.0607296531447 -23.8083864503849 -7.2558664111844 0.536269334001384 58.9420641292594 -0.742408287428771
13.1277896036181 -23.6493125068036 -7.19621476503641 -1.52993982758801 58.9353718335492 -0.617872892449614
13.091867116649 -23.8420647519192 -7.73700442065879 -3.56151293485052 58.9690017961076 -0.494587839372188
12.9830142608455 -24.2651869657212 -8.66904347217192 -5.44798308326115 59.0285969102202 -0.380336828385694
12.8576536360622 -24.7011037384435 -9.62545449794667 -7.09929272011465 59.089515634695 -0.280334603130351
12.7809860858828 -24.9030867737602 -10.1918024894178 -8.45959051870534 59.12433337221 -0.196443980188781
11.1452735132978 -33.737929879587 -18.1075884404772 7.10233270582728 59.9743162144238 -1.04030240939354
11.4185845639087 -33.0316536278084 -16.8167038858577 5.76720134532092 59.894707970815 -0.960086464478934
11.8172923364819 -31.885141613585 -14.8535346807456 4.11439417761114 59.767215415995 -0.869403878953216
12.2153682894145 -30.7145417480561 -12.95464219679 2.16578222158661 59.6408540569215 -0.761341648705677
12.499339641153 -29.8967590970859 -11.7718598408999 -0.0052736418968737 59.558895894777 -0.635815521277753
12.6007701351033 -29.6581447738952 -11.6804665057063 -2.28047612768161 59.5460036885617 -0.500494596431699
12.5117842485344 -30.0161425324542 -12.6886790453989 -4.51573132981027 59.6023996690554 -0.367419354927466
12.2864985605606 -30.7770374089736 -14.4351792048384 -6.56772153783362 59.704597186341 -0.247493557658427
12.0279097680901 -31.5900920618777 -16.2759029746347 -8.32066910079124 59.8121136571443 -0.146016596562131
11.8565734418889 -32.055652025118 -17.4753316824723 -9.70604150556773 59.8797869439945 -0.0619043734652725
9.49760708067901 -41.7443202209367 -28.2061852268281 7.27960294836717 60.850708744803 -0.904762564658428
9.96376855480672 -40.5439013817151 -25.874482119703 5.92858314769055 60.7092665567193 -0.838098446628107
10.6351930178604 -38.6984345293607 -22.4488836382684 4.17147927886987 60.493871451971 -0.763606211636046
11.2930213792394 -36.8599404664297 -19.1929563745905 2.02961334334393 60.2843531755836 -0.666391369859772
11.7450179119859 -35.6104148955975 -17.1999557069687 -0.405154161284178 60.1496253764294 -0.543848541932662
11.8785742552223 -35.2929505408403 -17.0835712673761 -2.97980629068073 60.1277821642929 -0.407291311051394
11.6818817451186 -35.9330203553475 -18.8568182267791 -5.50629477851562 60.2187463482601 -0.275251251372743
11.2467731171114 -37.2342047995003 -21.9269365733978 -7.7974461798313 60.3857989305342 -0.163029905833163
10.7521497309961 -38.6493351887151 -25.2089399811491 -9.70331087092175 60.5648740723592 -0.0745321290550456
10.4125604536703 -39.5447272387734 -27.4344237120892 -11.1388216440213 60.6834920090354 -0.00170788468450313
7.36520925033255 -49.9713446513642 -40.8358395925176 7.72087951069888 61.7997116447043 -0.72365347956575
8.10467199979551 -48.1056503616897 -36.99855985644 6.34899081423095 61.5704229080124 -0.684494882634323
9.16658364518559 -45.3139309404675 -31.4416000399872 4.46267613332601 61.2301248715981 -0.643777199138506
10.189531516938 -42.5863657084598 -26.2328157012965 2.08342027102761 60.9042446872493 -0.573161169856983
10.8683381254916 -40.7803368996443 -23.0954481720099 -0.673496388896244 60.6970065139787 -0.46583304030231
11.0312498058934 -40.3860479588028 -22.961211993932 -3.6126298992932 60.6634775225695 -0.338839923759992
10.6613737951455 -41.438821944576 -25.8498845207045 -6.49305140470324 60.802759192878 -0.220707166093347
9.90168202742776 -43.5118972075462 -30.8600022823871 -9.07512730811032 61.0608664721175 -0.133065768260184
9.0415596446263 -45.7917516602045 -36.2753535938452 -11.1676214377084 61.3414259013081 -0.0763566344879784
8.44175574633481 -47.3060292722919 -40.0114761720038 -12.6650344633574 61.5321728424457 -0.029516520115153
4.90831035551083 -58.0390676219066 -55.0770407020485 8.30485014612168 62.7747075682184 -0.502490765471456
5.99440616348542 -55.3706444635098 -49.3156440587856 6.91504074198949 62.4353691985366 -0.503605713864984
7.55343990281028 -51.4322997334099 -41.0264687440459 4.89319744846325 61.9385170687469 -0.513032320868246
9.03142082273435 -47.6489411806304 -33.3581347966545 2.26271543023351 61.4696633765015 -0.483041455353696
9.98378064303765 -45.200801175363 -28.8075728143744 -0.834710222807991 61.1752753685104 -0.401215730440108
10.1720901066355 -44.7358071936796 -28.6623298331607 -4.15821308598516 61.1284401882147 -0.292787007247869
9.57341958143261 -46.3003255856467 -32.9509006937044 -7.41132108032276 61.3267652439663 -0.19996269507797
8.38816168690038 -49.3282977274119 -40.4277751276499 -10.2995792068321 61.6971395630494 -0.152879121677876
7.04321920201877 -52.6921207959724 -48.6001219241457 -12.5874503226731 62.1047129781824 -0.146504258402263
6.09831118832858 -54.9816100259837 -54.2844200236531 -14.1455893081865 62.3855276406126 -0.139934585739645
2.5722360386865 -65.0025777899874 -68.4610866960718 8.86135085550756 63.6443406183341 -0.280279349531768
4.01576899131701 -61.5435690757795 -60.7136493710846 7.45957044178547 63.1936354451671 -0.325438259500897
6.08674285980467 -56.4762675170416 -49.6079968157223 5.3191012255133 62.5387428217674 -0.389988749491738
8.02336302715945 -51.6759756062023 -39.4534945280082 2.46766115161436 61.9286942745748 -0.404404564651393
9.24444229301711 -48.6244124892602 -33.5011282951963 -0.927992449670788 61.550122149341 -0.350698308953459
9.45243471105789 -48.1019842804 -33.3501255635857 -4.5866021666704 61.4909510918637 -0.263467795793903
8.61840879498019 -50.1655305684609 -39.0381799265719 -8.16344363260655 61.7469084521922 -0.199835326248525
6.99279624745782 -54.1337174812499 -49.0205767969324 -11.3170870431814 62.228277573903 -0.199273643447927
5.13789695184659 -58.5847805867806 -60.0468275499705 -13.7730664070442 62.7637611050227 -0.250619843195095
3.82912159767681 -61.6532686488518 -67.7511998036758 -15.3786572336444 63.1353824994023 -0.289814318809292
1.06861526938136 -69.407988569596 -77.0694730836832 9.19198424805156 64.1990982213196 -0.130341947730958
2.75324824680565 -65.4488462154798 -67.9900017477594 7.78357833520862 63.6759353774322 -0.205430993828587
5.16933510967617 -59.6685772121963 -54.9968368550289 5.56861153842192 62.9184492577623 -0.307411898082346
7.41144535024311 -54.2360794338975 -43.1966067512748 2.5793041328874 62.2181658077661 -0.351444899386922
8.80947848863053 -50.8140837824159 -36.3261002977177 -1.00069786578892 61.7865137967263 -0.31613795416455
9.02955659976832 -50.2561082081156 -36.1718618743042 -4.86401406656433 61.7195331118186 -0.24301407032899
8.03852267785813 -52.6262886649173 -42.778139811954 -8.63550434734652 62.01157779166 -0.199717214977241
6.11682681001632 -57.1818873627488 -54.4218471080079 -11.9456181775791 62.5633985489179 -0.232256496849457
3.91512978723932 -62.3243626629098 -67.3640910931199 -14.4977336576844 63.1813087433193 -0.324999384701318
2.35868217760568 -65.8899286860162 -76.4259554032912 -16.1258258377833 63.6115702530467 -0.396811469722559
2.06583017811217 -15.5903568716024 -7.82605956686027 2.54473419089643 -198.886568220506 0.786529733212213
2.45239452217186 -14.5747371089644 -7.5686523579386 0.0640808594038877 -198.763340010677 0.680128521092198
2.89880864734407 -13.4185321507726 -7.19358092618395 -2.78955215336382 -198.726534767318 0.559693211987908
3.38957088414632 -12.1509996475803 -6.76618352053199 -5.9418567422364 -198.706310532973 0.427173573856099
3.9050008219975 -10.8137501315971 -6.3482380781565 -9.28577637537785 -198.642741955102 0.286043059735675
4.42405778845927 -9.45618540911993 -5.9824327558983 -12.6921250969592 -198.503494234249 0.141141518893329
4.92762016987273 -8.12863961020157 -5.68196803257768 -16.0255655714694 -198.293952369411 -0.00182797278661932
5.40125364791411 -6.87516302397658 -5.42858502665504 -19.1621136169299 -198.056493814436 -0.137041231695378
5.83659667996991 -5.72818828870528 -5.17966893296009 -22.0036175766085 -197.859109724015 -0.259339160426093
6.23101871578154 -4.70653181595722 -4.88210372452848 -24.4858566101967 -197.777004304391 -0.364857908060503
4.0717195428045 -5.21102289333652 -3.59265350162437 5.76306600896518 -162.966399698927 0.344095349407543
4.33037706589256 -4.49170069517123 -3.40523518920481 3.2470927029114 -162.860253766356 0.251815578423248
4.61272740943568 -3.74548437219932 -3.13481671714418 0.306297680282225 -163.046584932596 0.14979312213562
4.91424588037861 -2.95567878819794 -2.84455093488437 -2.96854671293924 -163.304107691912 0.0379518696368596
5.22746805660112 -2.11742115245872 -2.59212216004948 -6.44969607157753 -163.438016482557 -0.0821824992813198
5.54299707751967 -1.24240331261311 -2.41346465848637 -9.98771162478179 -163.336107713901 -0.207234205834946
5.85148329296543 -0.358102488203816 -2.31251865776316 -13.4318848607125 -163.002063323593 -0.332227789783971
6.14581499498494 0.49814705026069 -2.25986154841674 -16.6506935613952 -162.554812373525 -0.45130217891665
6.4224999892763 1.28762603496984 -2.20097893134648 -19.5469832783574 -162.194203849102 -0.558687131139854
6.68155807447978 1.97784932204653 -2.07238764678741 -22.0644876528948 -162.144418486322 -0.649661809606189
5.76169937046866 4.0621798102144 -0.896423312020422 9.45283627991781 -128.812402179167 -0.0516237162748985
5.91312215225078 4.52750166651035 -0.700723214514847 6.82605952168578 -128.810946535234 -0.132988024448687
6.0605049174054 4.93066156980825 -0.421886840007344 3.67722883016375 -129.300549636453 -0.221829912903813
6.20540259541885 5.32174307262801 -0.158450559401781 0.120065363077781 -129.897434524007 -0.320011869638609
6.34785032114492 5.74023370222763 0.00256795943053591 -3.68340604751726 -130.259477518511 -0.427551612227256
6.48663491462283 6.20338698054648 0.0124430810191901 -7.54509751872322 -130.186604882398 -0.541975710360586
6.62056888410625 6.7020673395966 -0.124373734396424 -11.2792819533825 -129.681366434428 -0.65833289316023
6.75024847378958 7.20585754100572 -0.349464339018302 -14.7297526527058 -128.948338943431 -0.769938755850268
6.879109262847 7.67436566290302 -0.564619257702552 -17.7886358554015 -128.332613986919 -0.869659405427652
7.01270927226002 8.0687812958556 -0.659873478250264 -20.4027584477906 -128.21908362124 -0.951351569449045
7.12234054905811 12.0035919154706 0.0709189332700967 13.4884892168624 -97.3921403087822 -0.390207825245444
7.18909370982827 12.2614350800149 0.386972043843629 10.6870506381891 -97.6136136976438 -0.463614129206603
7.23143543199344 12.392408120573 0.833319265944364 7.22058202670218 -98.5161690769931 -0.544221381252958
7.25092458341869 12.4626704242876 1.22076043830239 3.23102702215757 -99.5391130801583 -0.635372571631921
7.24997068962185 12.5322266821572 1.38538770029151 -1.07133182979149 -100.175163388038 -0.738253951606474
7.23254686516307 12.6390591186812 1.23938612578181 -5.43971309518259 -100.124243635949 -0.850837812551673
7.20508900229357 12.7903628528242 0.795746798731125 -9.63187891482109 -99.3881383542416 -0.967607448555956
7.17770678688454 12.9667098968576 0.168239804068624 -13.4489425059621 -98.2699511740441 -1.08032911156458
7.16441341939266 13.1357278009885 -0.454231568127536 -16.761363365344 -97.2786122338483 -1.17973833120768
7.18062271662066 13.2650461638005 -0.861233732612572 -19.5163152381 -96.9748329534931 -1.25764351331738
8.13628284309833 18.414834664319 -0.92669801097231 17.7241233113211 -69.4486882679067 -0.663847938425538
8.14632516279155 18.5317780030973 -0.318022884362624 14.7055860556606 -70.0051663593445 -0.732310048883213
8.11933370815263 18.4851965795432 0.53754727589279 10.8343544369887 -71.4244858089467 -0.809704982128805
8.04793380987583 18.3291754573085 1.27294746735034 6.28310752624141 -72.9572088253731 -0.90035334611523
7.93009787605082 18.1233233696592 1.57600797092042 1.32370583055351 -73.9127936099489 -1.00618491905067
7.77179972698051 17.9164473156785 1.28278030926713 -3.7168821855693 -73.8777825398763 -1.12525469954006
7.58748247994483 17.7322082732182 0.415829389994319 -8.51621691211515 -72.8533676762025 -1.25103627759847
7.40034083869002 17.5716248984213 -0.817129677430771 -12.8136198668738 -71.2549941776386 -1.37311943630333
7.24119342392091 17.4290012195631 -2.064908638428 -16.4479471197318 -69.7741722221792 -1.47934139042414
7.14255137325814 17.3022820916887 -2.93075619584958 -19.366743686413 -69.1600375050617 -1.55875883742589
8.78718761115039 23.1460232234373 -4.10209045311743 21.9810245062444 -45.484376051813 -0.868108557293727
8.77665354100662 23.2223529955855 -2.94910037500546 18.7321069838109 -46.4459547581375 -0.935030797245651
8.72606851809343 23.1344475697238 -1.33284836486581 14.4038515015269 -48.4427658045615 -1.01465252321098
8.60573602467632 22.8791939463364 0.0692039787786881 9.19790664691247 -50.5347162775167 -1.11139348103966
8.39984465494659 22.4846591876219 0.696875045772652 3.45832116827201 -51.8370292549709 -1.22737132687034
8.11270101333729 21.9977283258893 0.263021092930067 -2.38661671388179 -51.8127733871166 -1.36048014674235
7.7678077613815 21.4602592385019 -1.19857696942236 -7.90969965931322 -50.4625226378759 -1.50297776832019
7.40656964807649 20.9086185959159 -3.33671434035772 -12.7692969351921 -48.3242934153477 -1.64186124484808
7.08582354159375 20.3938743833405 -5.5376532210605 -16.7646352275348 -46.2837471612723 -1.76136672744071
6.8667019675851 19.9848924297409 -7.0874459714348 -19.8468839573753 -45.281349050449 -1.84699316701669
9.07486237890748 26.1478542804901 -9.46280284413829 26.0319130573228 -25.7813567322898 -1.00343977530278
9.08761413477585 26.3191521822227 -7.44487678910667 22.5709702538591 -27.1508656357402 -1.07272489657497
9.06928261429825 26.3703584044868 -4.62327335088531 17.7799060236816 -29.7117015605546 -1.16038901721664
8.94982199840529 26.1775840207099 -2.16306755968373 11.882659434055 -32.3487128271573 -1.26956760539733
8.6884197285351 25.6975676374132 -0.988135397673528 5.30016176511275 -33.9886408390173 -1.40186071306312
8.28407346624947 24.9612986391817 -1.55459970018523 -1.42175399333236 -33.9708471884689 -1.55493869866277
7.77058112276986 24.0311591115605 -3.81579050458677 -7.73015533708675 -32.2950732161265 -1.72000024779371
7.21283595065616 22.9957496168984 -7.2288669296776 -13.1866530277188 -29.6219898449134 -1.88142671816391
6.70461596084486 22.0015429317513 -10.8017513312677 -17.5463025411161 -27.0262268325893 -2.01937733167198
6.35154775925833 21.2468394577087 -13.3281395335128 -20.7698071302506 -25.6252609542127 -2.11490664658195
9.04819779787449 27.5830785221296 -16.4464276230078 29.5937133812496 -10.4353786628798 -1.07808587873749
9.12758329430633 27.9930775298275 -13.25979581351 25.9654324710018 -12.1398400237221 -1.15359468511357
9.19690688106535 28.3720482442568 -8.82015959164675 20.7598918384093 -15.1592183287362 -1.25449546760885
9.12729469245317 28.4070936602813 -4.95664919430128 14.2129501563597 -18.2424193820189 -1.3809362223703
8.84345568015858 27.9470412911488 -3.04441839038821 6.81744694071207 -20.1602302512437 -1.53327745163581
8.33692059587382 26.9968653956743 -3.72952089187846 -0.759538997160804 -20.1456356948838 -1.70910426509583
7.65241791944704 25.6407932360387 -6.95164042159446 -7.83053951734152 -18.1972338044487 -1.89909251894681
6.88097391697955 24.0307295936422 -11.9547099035394 -13.8541527001592 -15.0806775773745 -2.08553105964682
6.16164360426149 22.4424968284895 -17.2818488033896 -18.5419725504849 -12.0274871730929 -2.24454657219514
5.66071400739599 21.2667155478791 -21.0602397137455 -21.8702030301243 -10.2943895880409 -2.3520419481003
8.847439155802 27.9691634172176 -23.4822498091961 32.3472555126285 0.624869104731399 -1.11143613843776
9.0162271987774 28.6993408560323 -19.0445679202736 28.6107740547865 -1.27525870040955 -1.1953761550489
9.20193186494229 29.5100772965236 -12.8898209959363 23.093455555141 -4.55788021919921 -1.31168932228288
9.20944961637616 29.8665171265511 -7.56536562450344 16.03195768155 -7.90012592638364 -1.45635472514367
8.92749570887625 29.4976567695958 -4.8873715507133 7.97389430703727 -9.98134776937871 -1.62804944012665
8.34070926939884 28.3809320708822 -5.66687650638592 -0.309517740654918 -9.96804761383464 -1.82443567613544
7.50386750725155 26.6208271314618 -9.83116383226651 -8.01013278801971 -7.8575173526788 -2.03629000755025
6.53147092483064 24.4301209845554 -16.4386580379186 -14.4941655305001 -4.48026531804505 -2.24477836098603
5.60687964477327 22.2207850549455 -23.5809031873884 -19.4367308780045 -1.16030513095535 -2.42288712239553
4.96232064091361 20.6039137938306 -28.6665702117179 -22.8312035197724 0.769854555730781 -2.54158342354143
8.70313938995832 28.1676968598089 -28.0581141835865 34.0019380739038 7.65167204697695 -1.13270602924462
8.93951128422339 29.1508405937315 -22.7522384170366 30.2184244918541 5.73619230932388 -1.22351851963211
9.21330447181539 30.3030341526734 -15.4156508833624 24.5364254797308 2.44699561609615 -1.35164251323515
9.28105543144107 30.9202187766641 -9.0977006303247 17.1844706844814 -0.903677333586818 -1.50946593018905
9.00631690218986 30.6405175297685 -5.90251500557273 8.73687300984258 -2.99335754289441 -1.69405874743795
8.36942435871182 29.4192916342053 -6.74050844402481 0.027919889742689 -2.98100536495591 -1.90298375589527
7.43225298767346 27.3755750753631 -11.530416443368 -8.05592188160407 -0.862888175090983 -2.12730979501135
6.32484538338373 24.7671542590922 -19.217671981752 -14.8197759461789 2.5242583384126 -2.34806101293917
5.26023704080123 22.1056574821422 -27.6000656995229 -19.9149674005007 5.85387556589789 -2.53687213507774
4.51711036621793 20.1665233352529 -33.5858305149894 -23.3460928800801 7.80102198406713 -2.66185074274665
10.7922280081991 31.5678219486411 -24.2217012445528 36.1326886606607 53.3866858811901 -1.4677198577666
11.079916716603 32.6006853438543 -18.7786004537683 32.5054907049177 53.4039737401762 -1.55910969257988
11.4610996548845 33.8872564677495 -11.1944840121484 27.0572346738479 53.4364520010941 -1.69539287051706
11.6316280618725 34.6246855269709 -4.63026067972714 19.9546093958417 53.4687567668324 -1.85923029920114
11.3986464543075 34.3634781399255 -1.29894519651585 11.7015036613041 53.4879895692655 -2.03958973407196
10.7113025180425 33.015003988113 -2.17648641167698 3.07959756602389 53.4892787916848 -2.23053468191657
9.63782558659825 30.7143217167023 -7.17663713262802 -5.03560344734325 53.4777529198386 -2.42539503408013
8.34813225249352 27.7851147626841 -15.17248404814 -11.9115995256516 53.4644963424734 -2.61178422021077
7.11084906789235 24.8245661042241 -23.8535691803167 -17.1278799047636 53.4581412193952 -2.76914454736249
6.25513253667061 22.6811490882549 -30.0245681762019 -20.6095805480241 53.4591141228834 -2.87166796908614
11.2876415341644 31.9602975440725 -18.9914085523985 34.7787616545649 53.4773020955328 -1.50463217121443
11.4988891298858 32.71817057639 -14.4216789453733 31.2131054253474 53.4943693965639 -1.58592625416081
11.7830183526121 33.6405408755731 -8.02349523254958 25.9456586762823 53.5268747563031 -1.70699873669263
11.8831799924156 34.0916251434614 -2.45806187467364 19.1513501452061 53.5592271403572 -1.85390189910088
11.6316351041601 33.7127318927129 0.348626227790353 11.3072368567079 53.5780331316769 -2.01726301612476
10.9825686587672 32.4389451702998 -0.479719835205114 3.13125870914531 53.5776470457833 -2.19149411403158
9.99788678238262 30.3927247575242 -4.86479016119256 -4.58073340819751 53.5623472492538 -2.36990275730734
8.83238874557172 27.8540241405676 -11.7920334197508 -11.1586548840233 53.5429386753688 -2.54039881689185
7.72525888864493 25.3209112488468 -19.2436597835666 -16.2059741831964 53.5293146143648 -2.68378905267878
6.95941660223889 23.4775307052106 -24.5231577142995 -19.6352671961701 53.5250018371841 -2.77703009611929
12.0414513987774 32.5053750559827 -10.9241684753801 32.4982407064293 53.619038432508 -1.5628852615265
12.1410466397116 32.8946439670606 -7.62943162965229 29.0558158477416 53.6335583888225 -1.62935451790229
12.2828886299132 33.3303324362257 -2.9758954499656 24.1131553150707 53.6628351357896 -1.72789160193775
12.279205552951 33.4029271276379 1.09826580624191 17.848220347728 53.6920372416546 -1.84916226461052
12.0021651581212 32.879774365473 3.11465915403536 10.6877127276096 53.7081805252758 -1.98612285999568
11.4159247042298 31.7286216683256 2.36701933822365 3.24818780662018 53.7052163709187 -2.13365492290591
10.5728286795513 30.0528962459089 -1.07835785285039 -3.79601688421868 53.6862299669689 -2.28513037867227
9.60197966953035 28.0687102701347 -6.39678954483404 -9.87142724969672 53.6609993860346 -2.42932813805614
8.69484454051758 26.1330366125279 -12.0282527758037 -14.6232716304622 53.6401796533784 -2.54972411546705
8.06554471369408 24.7052112508155 -15.9995622324453 -17.9507716333814 53.6305383223068 -2.62776751978646
12.8453314302139 32.3854715233162 -2.48676584802711 29.5814386843432 53.8156980625825 -1.61749150138855
12.8428076870649 32.4599149411402 -0.401518772599294 26.3268301534868 53.8261244675522 -1.66788692704567
12.8549028200726 32.4801421445904 2.58216727814458 21.8149315703638 53.8499542419874 -1.74210516188698
12.7587474110597 32.2354235054414 5.20084076184393 16.2182685298126 53.8738700180726 -1.83479331056657
12.4678988919971 31.6120874030535 6.43972768899382 9.89917642870116 53.8860962228383 -1.94125197315105
11.9587148619932 30.611515238922 5.79096032133644 3.35801720469606 53.8807293647636 -2.05720284123712
11.2728919114992 29.3159963272692 3.30741561357372 -2.86588887192593 53.8597816090715 -2.17663011303153
10.5093678330813 27.8724802690255 -0.407356710330707 -8.30833342154283 53.8316585155613 -2.28988183977437
9.8083459634642 26.4998472747772 -4.26974847451791 -12.6671388711179 53.80695159197 -2.38368272834793
9.31814101109014 25.457679148144 -6.98302857176758 -15.8341123012842 53.7944242074807 -2.44397234015036
13.5760804112908 31.120973527829 4.78782337189662 26.335269744096 54.0693848510491 -1.65258572874802
13.5027431659217 30.9968959264001 5.9545326129629 23.3249732308386 54.0751684312705 -1.68716980154547
13.4260851032687 30.7583262692847 7.66419181046479 19.3037124554862 54.0926163682123 -1.73818020333126
13.2718921650803 30.3290571135242 9.15568492068537 14.429470609737 54.1104036543815 -1.80294606935865
12.9873965429725 29.6808661108961 9.79366836556608 8.99651048352504 54.1185027125261 -1.87868280830498
12.559882552148 28.8401213855782 9.24954423815902 3.39351835936013 54.1116474647538 -1.96221924089536
12.0210303825526 27.869283604751 7.56352709217831 -1.96638345420897 54.0910898662184 -2.04868264269646
11.4415415004448 26.8561580543384 5.13793585339584 -6.72310065446729 54.0637559549935 -2.13043643358297
10.9175199267135 25.9139130291771 2.66349960489065 -10.6300423265746 54.0393205843335 -2.19740813221852
10.5464025954655 25.1637953332693 0.93138061130946 -13.5805436262739 54.0269331259947 -2.23926356616829
14.1977341832897 28.5828213352758 10.3699717839954 23.0189499169606 54.3804843113497 -1.66287369874707
14.0869630053804 28.3691801540155 10.9307807920133 20.2900752075388 54.3820925641344 -1.68186101011132
13.9646079553854 28.0205622211565 11.7996670884429 16.7740388508575 54.3934261270095 -1.71120825499489
13.7884062422032 27.534334115612 12.5430375019488 12.6075306281283 54.4053821567888 -1.74981625285731
13.528848759591 26.9296527379754 12.7907862804005 8.02102132267212 54.4099340260957 -1.79628669861968
13.1809093885292 26.2448806074311 12.3484698128793 3.30718691139525 54.4027558099701 -1.84860037862115
12.7677818690171 25.5257155746741 11.2455477237991 -1.22659461814087 54.3846235664287 -1.90328191474879
12.3374751648663 24.8184054983166 9.73111905424494 -5.30912511488793 54.3609887439798 -1.95480356836385
11.952992632349 24.1695354956384 8.21802938736126 -8.7459500783579 54.3399891513734 -1.99594067485258
11.6765297391526 23.6206361616452 7.16548713104085 -11.4396384632315 54.3298999334372 -2.01929969939496
14.7187755811274 24.8491819959013 14.2951637696701 19.8232824021067 54.7471226170056 -1.65011089137436
14.5973918449709 24.6198314066089 14.4978083306398 17.3877922248961 54.7458686230602 -1.65309034378308
14.4628461852601 24.2641060992806 14.869521576066 14.3534016962019 54.7522665209883 -1.66157898995469
14.2921708641332 23.8096532891896 15.1730881412198 10.8325834887978 54.7594760208482 -1.67536240928844
14.0701269948014 23.2931319710597 15.2044447063544 7.0009350595029 54.7615037879364 -1.69401981431925
13.7960547175982 22.753381375879 14.8564974266527 3.07457760086451 54.7550781569613 -1.71660153587029
13.4863943919411 22.2227780316915 14.1501336000323 -0.721456773170248 54.7406836858266 -1.74105307964393
13.1725926305599 21.7230758835796 13.2315915360766 -4.18634303558983 54.7223608930422 -1.76383300699916
12.894730090399 21.2664207137473 12.3365939592206 -7.1703150385351 54.7063914532175 -1.78016090237082
12.6918220160867 20.8565922676914 11.7228941420705 -9.58944865477649 54.6994362270026 -1.78501599254876
15.1578152917459 20.0916864101758 16.7983581838994 16.8766762365121 55.1645846149798 -1.61980479711025
15.0445434304623 19.8853238176173 16.8126029697405 14.7223330141715 55.1622572302301 -1.60575218455639
14.9201865935278 19.5794386461871 16.921042658405 12.1180715982972 55.1653653485444 -1.59319313260131
14.7726947175631 19.2055575199407 16.9969480550619 9.15275050658789 55.1692644062166 -1.58246269744192
14.5947387847525 18.7986796480929 16.9316582616314 5.95782477993088 55.1699092540157 -1.57389107887858
14.3875225546431 18.3904117389698 16.668998818898 2.69175801300427 55.1650787918442 -1.56751715634459
14.1622775340552 18.0028601814135 16.2232406717284 -0.481062865378062 55.1550644432125 -1.56265385391266
13.9389939582042 17.6461174474284 15.6775025070424 -3.41227926175081 55.142582875217 -1.55758161407889
13.7425467113418 17.319667575522 15.162787480649 -5.98761149876914 55.1319614710909 -1.54964581033871
13.597003662387 17.0155598269522 14.8211692866598 -8.13741322501036 55.1279044581973 -1.53584262089583
15.5274008074547 14.521233776072 18.132385364498 14.2610403891922 55.6250704768727 -1.57924540871944
15.4341189322082 14.3528168133482 18.0650603556021 12.3567241519266 55.6234159184988 -1.54677307120115
15.333512066202 14.1223961666384 18.0565921387031 10.1134907790071 55.6248068028667 -1.51215600233334
15.2192104533174 13.8505111550952 18.0379051830275 7.59954785413774 55.6267176189317 -1.47616323792297
15.0877030869528 13.5595049995007 17.950305312144 4.91297680161127 55.6269565173054 -1.43981352770145
14.9404325198136 13.2693623732493 17.7639874778342 2.1711941032819 55.6243149955217 -1.40413545671267
14.7846317225398 12.9943009250559 17.4881452509994 -0.503563549235037 55.618935940357 -1.36980486923636
14.6325586536889 12.7412594104622 17.1700058742218 -2.9996118204867 55.6122807981901 -1.33683694285051
14.4992211130171 12.5104698226113 16.8829027190263 -5.22865873769845 55.6067125772931 -1.30452020395763
14.3991298275207 12.2973587441347 16.7062995748873 -7.13354225996535 55.6048372241042 -1.27166988745825
15.829407635771 8.36658777188071 18.5045829769612 12.0270322783897 56.1180565320817 -1.53634903107143
15.7630699905235 8.24099032576132 18.4204838573067 10.3295883840994 56.1182113812555 -1.48403294755573
15.6939778169473 8.09712208001968 18.3841515956864 8.36946811308589 56.1188204087939 -1.42585776237701
15.6181205324017 7.93592282169094 18.3517870240556 6.19834479400512 56.1194941800908 -1.36302111781236
15.5331762407794 7.76058550712683 18.2862460456747 3.89087736259665 56.1198911609451 -1.29729132929895
15.4397738413162 7.57686258091213 18.1683620574793 1.53753669634006 56.1198175594926 -1.23080435976736
15.3420086483993 7.39276893047653 18.0033509599055 -0.766173640708151 56.119282617528 -1.1657156696899
15.24698685618 7.21768420491012 17.8202379571815 -2.93167814165445 56.1184941368293 -1.10382757560409
15.1634792473803 7.06101652879797 17.6644032513579 -4.88756291975038 56.1177974103662 -1.04633712314927
15.1000508519905 6.93070905887034 17.5854813262397 -6.58583264797261 56.1175769457725 -0.993793852014968
16.0555189491701 1.86135046890021 18.0641109703785 10.2043323230662 56.6313712989193 -1.49873982384994
16.0200864297695 1.78483223096849 18.0051521579918 8.66509618885268 56.633360018725 -1.42546648313368
15.9872538328897 1.73778690070386 17.9993592645283 6.9080823222146 56.6329736393797 -1.34212808333397
15.9529595721625 1.69521413480155 18.0065071212354 4.97279893746376 56.6321751696715 -1.25037273998205
15.9141067450266 1.63601555377468 17.9917796394866 2.91934613190627 56.6326597967042 -1.15286330260454
15.8696476467033 1.54933022346109 17.935825936255 0.823256880848625 56.6353550551553 -1.0530899679379
15.8210809687488 1.43802066901592 17.8405812440231 -1.23363463360162 56.6401341998694 -0.954965322763242
15.7722078263694 1.31819106249442 17.7289656903594 -3.17406008818584 56.645833109547 -0.86230019740443
15.7282356919715 1.21492011089634 17.6385651057589 -4.93494839065504 56.6505657509134 -0.778306425513047
15.6945146180002 1.15559258827339 17.6113350564329 -6.47342397509066 56.6522402927117 -0.705254963603813
16.1892431397298 -4.77128894505953 16.9037534850153 8.80658481790207 57.1528774592588 -1.47277293189417
16.1875840156754 -4.78368529477046 16.9049636484603 7.37681299464065 57.1552574183173 -1.37809084499555
16.1952844533979 -4.71532304784773 16.9791003008477 5.74572476286304 57.1521005090505 -1.26829228044311
16.2058805003796 -4.62395088845344 17.0711186306188 3.94470300852343 57.1482509985584 -1.14545089354223
16.2134683444742 -4.56107778415293 17.1320826676476 2.02709429774514 57.1479185832324 -1.01331830040496
16.214262364814 -4.5575721875845 17.1330136235252 0.0640023039824844 57.1534240008251 -0.87712731391822
16.2074158921494 -4.6152490591867 17.072897604075 -1.86487263628469 57.1644884233445 -0.743020093139204
16.1949694369218 -4.70698144486883 16.9786411597244 -3.68292982553811 57.1782794196886 -0.617223738617436
16.1810203674682 -4.78513340558623 16.8970727733007 -5.32743619484838 57.1901961278488 -0.505187322596114
16.1703652375201 -4.79552673053233 16.8813216249436 -6.75641742402651 57.1951553372695 -0.410901373845312
16.2079652192186 -11.3363796413429 15.0624631312851 7.83230216447986 57.672418625014 -1.46242957358257
16.2438633601212 -11.257783172363 15.165544151122 6.46743678202293 57.6720899527702 -1.34691448236647
16.2985085017568 -11.0423428659642 15.3783316461506 4.89156220185888 57.6625017909117 -1.21013049529062
16.3598817563444 -10.789733354892 15.6096406630885 3.13126524825961 57.6523597467149 -1.05441480502037
16.4164236966362 -10.5906691961043 15.7772177313328 1.24002148642814 57.649277119653 -0.884814020842901
16.4599407283778 -10.5013765343992 15.8312939658005 -0.705898574208617 57.6574680838981 -0.708858524588259
16.4872167647306 -10.5284169289112 15.7678869758334 -2.61816556616764 57.6764680503633 -0.535637379879233
16.5002156626703 -10.6283235292951 15.6291127829623 -4.41081291721908 57.7012344657203 -0.374406151211913
16.5049401368972 -10.7218755525439 15.490540257306 -6.01389282528646 57.7235820980986 -0.233139096949919
16.509111030495 -10.7183963808946 15.438322325531 -7.38239549280306 57.7345327844589 -0.117448111737156
16.0848198235592 -17.6826765496476 12.5274702877996 7.26314153431196 58.183495769284 -1.46816280275211
16.1651848610131 -17.4747866898839 12.7930391296235 5.92612458018291 58.1756246663626 -1.3338124434702
16.2782206695477 -17.0659563038723 13.229719216902 4.34419257908264 58.1537617417972 -1.17084931434702
16.4013752361675 -16.6108566212952 13.6795870440675 2.54144428291087 58.1320980755859 -0.981439381206751
16.512933137175 -16.2521633248083 13.9998536297097 0.577548011093761 58.1230966873998 -0.772087557613519
16.5975804669685 -16.0794354434973 14.1043059014695 -1.4568944858658 58.1336546799103 -0.553385140828033
16.6494320736974 -16.1045850407107 13.9856112651338 -3.45432334239537 58.1630587637472 -0.338408440621191
16.6726527360125 -16.2607521909579 13.7162403239588 -5.30956947071806 58.2031964142111 -0.140281256473587
16.6796290350963 -16.4245680162939 13.4278369472147 -6.93839664758401 58.2409123202668 0.0302346082014802
16.6864170779713 -16.4551354956531 13.2709402362666 -8.28957879132468 58.2618863893406 0.166282406150859
15.7915605058474 -23.7087557216916 9.24401539952842 7.06048706250811 58.683930064355 -1.48594098566166
15.9287172259633 -23.3242227078356 9.76277234070179 5.72426667513247 58.6619240429398 -1.33657584217894
16.1196720798053 -22.6615351776951 10.551527561812 4.08727284825975 58.619463392391 -1.15024150447243
16.3232860871094 -21.9487684356064 11.338647629185 2.17210086003879 58.5787530460361 -0.928023584399248
16.500708295593 -21.398029758718 11.880808746417 0.0498044431836638 58.5592474329563 -0.677918431544547
16.6254217197583 -21.1429569093757 12.0332954516739 -2.16572843466845 58.5716252186795 -0.414599236577688
16.6882980305421 -21.2019269463255 11.7846585234621 -4.33696451312347 58.6148114922078 -0.156591037253074
16.6989392780125 -21.4756539634734 11.2587227507987 -6.32979762539632 58.6764041296589 0.0780268817769072
16.682997011907 -21.7795694591261 10.6833073023877 -8.03937616431813 58.7362636355934 0.275612209104801
16.6736123183859 -21.9031330511435 10.3215781304598 -9.40637144583346 58.7725459464268 0.428990334721065
15.3058272310557 -29.3513736223566 5.15265213520007 7.1611262400801 59.1743677137223 -1.50708255077599
15.5191898685334 -28.737395619905 6.05254313858617 5.81010905907559 59.1299842174735 -1.34859814178412
15.8177768899526 -27.7491948911699 7.37511064248134 4.0842049773147 59.0560583772473 -1.14433619337717
16.1295433064166 -26.7129893138771 8.66523392782226 2.00397001417827 58.9864870608781 -0.892686471367639
16.388726560009 -25.931749174285 9.52460347472557 -0.344148079795946 58.9505384272398 -0.602930683830031
16.5523228618249 -25.5955066904882 9.72244989812238 -2.81455733135207 58.963954290977 -0.295120251244148
16.6071546352131 -25.7306093677409 9.24207292253144 -5.22925281600885 59.0251098944324 0.0048351800887769
16.5723978228362 -26.1952633078267 8.28468326290064 -7.41610766709066 59.1158292333763 0.272586068082624
16.4967346071996 -26.722600356727 7.22903464139407 -9.24472256477282 59.2063864149478 0.491865344455778
16.4438474214086 -27.0060506678899 6.52279031494851 -10.6475659821129 59.2643374779117 0.656973089071139
14.6291768670758 -34.545427957376 0.289556445285134 7.47369945319452 59.6528390071542 -1.52007000954654
14.9442642870281 -33.6506244858447 1.72823716538053 6.10340781644288 59.5769351203151 -1.36012462343391
15.3883305998074 -32.2641682932178 3.80765565903171 4.27246086548946 59.4591710152371 -1.14609233545944
15.8419519572329 -30.8398405797171 5.79764726401378 1.99754760554646 59.3498301508465 -0.871281152101849
16.2012379391051 -29.7923638690623 7.08372280676947 -0.617246356268347 59.2909986252593 -0.545760635486891
16.4015190437078 -29.3782132115016 7.32301275679275 -3.38801075177717 59.3045217180055 -0.19641376091102
16.4246901799596 -29.6332564493978 6.49223641051184 -6.08766143869147 59.3879559695866 0.141235401451474
16.3035113127786 -30.3652815257746 4.89434603941897 -8.49924302873089 59.5160081655346 0.435183009557602
16.1211706269567 -31.2040755665696 3.12092953965638 -10.4643574568412 59.6466621018537 0.667258944670527
15.9900090148799 -31.7152452483752 1.89874274363684 -11.9090890273259 59.733071382182 0.836025505322759
13.82190848946 -39.1482129500718 -5.01699538437312 7.87955655851644 60.1038134210511 -1.51580301931481
14.2624543288696 -37.9398568553141 -2.89759630329634 6.49371665505161 59.9889526092838 -1.36220724330907
14.8857052700105 -36.1090332818985 0.134580535209451 4.56049555301642 59.8173690173209 -1.1477808296379
15.5085372484795 -34.2615781163004 2.98544986042388 2.09064293608305 59.6600785360273 -0.858166827379879
15.9806924798235 -32.933714587969 4.78100252280977 -0.79429314050301 59.5738129670976 -0.503582561977781
16.2134287595395 -32.4494634142467 5.05574614110481 -3.86964832582984 59.5866020595039 -0.118897069672271
16.1831338604336 -32.855106036876 3.77880645928428 -6.85579079527439 59.6949066708666 0.248974427931837
15.9379190588425 -33.9078566071594 1.36424037003691 -9.4892389488364 59.86589599082 0.559407013381288
15.6043467011639 -35.1234218458075 -1.33911288519761 -11.5849369647597 60.0437107810394 0.793387815195933
15.3615742217648 -35.9124189836622 -3.23315773546273 -13.0657490652272 60.1637391783486 0.956935218226078
13.0436119364215 -42.8552636083514 -9.9154016079333 8.24333145965017 60.4853203833006 -1.49555854457679
13.6125766520686 -41.3548488420995 -7.09531246261526 6.84881307510458 60.3314714723972 -1.35281886783831
14.4174738169247 -39.1131966964347 -3.09151533077049 4.83370049801112 60.1065579267941 -1.14469536236275
15.2067805082624 -36.8848912065421 0.615894660831573 2.20225221121112 59.9028653561608 -0.84807003104621
15.78545765345 -35.3118502085951 2.90565471072883 -0.909458767437866 59.7904449763396 -0.472900803000223
16.0436055021131 -34.7719760210697 3.20739139269192 -4.24056213547735 59.8021145011266 -0.061942505337997
15.9524001886913 -35.32122214995 1.4828525586453 -7.46457152440945 59.9331559278094 0.326662291146663
15.5730799779571 -36.6782417804239 -1.75995236199057 -10.278013700452 60.1444641458698 0.644083717870807
15.0749246061381 -38.2585549664676 -5.42608278808625 -12.4751867605043 60.3677203165462 0.871429426734913
14.7097206983558 -39.3192758977612 -8.0221798538099 -13.9790648722053 60.5204460136052 1.0239201798775
12.5436989371457 -45.2215271676371 -13.0736033232409 8.43697401794197 60.7310187324182 -1.47423887657489
13.2005051479787 -43.5446657624774 -9.7804752558221 7.03920654365642 60.5521161192777 -1.33967709271256
14.1285618506475 -41.0583261430181 -5.12654536551223 4.97626593912247 60.2933647678869 -1.13722847778376
15.0288705226957 -38.6084920185342 -0.85577536922468 2.24826351664337 60.0609398983073 -0.837513940644478
15.6773548844798 -36.8943183865305 1.75446524615872 -0.999582715060844 59.9326308094928 -0.45033960143879
15.9510364500097 -36.3203492109469 2.07259917176912 -4.48308419289837 59.9435283556864 -0.0239463257068528
15.8175222534388 -36.9491246260401 0.0552843073368111 -7.84591150895599 60.0880835372397 0.375864814298801
15.3457601824272 -38.4827951140297 -3.73568014021748 -10.7605266817786 60.3238495612852 0.694877029969543
14.7330572487537 -40.2825368069739 -8.04960228985173 -13.0108073653906 60.575345535102 0.914773094853823
14.2821775624116 -41.5096864344637 -11.1220655605408 -14.5222672891469 60.7486616164457 1.05788214085774
6.81020083628812 -3.94180761582928 26.2781954456284 2.96388504038426 -198.600431966001 0.836490915469476
7.20559054424874 -2.91007722002142 26.5785890103686 0.484574700711643 -198.489327335264 0.742800698378559
7.63592014198051 -1.80139842841896 26.8089261731466 -2.36963752931795 -198.468739929878 0.637731467604198
8.10283946578246 -0.599812934987097 27.0375472992154 -5.52333362964375 -198.467621372048 0.522874228053484
8.60176723102637 0.692911516296763 27.3205281271569 -8.86848039062351 -198.424677586042 0.401086393347916
9.12048514830519 2.05063081701363 27.6840458648702 -12.2753101256255 -198.306255912578 0.276343856756842
9.63988537711645 3.42299867083943 28.1150115656094 -15.6084598249424 -198.116644057999 0.153266568442404
10.1367338424152 4.74268010503558 28.5630240881678 -18.7444775671889 -197.89743596444 0.0364491962096852
10.5875808680899 5.9373678316029 28.9530035802667 -21.5861448010316 -197.716170222643 -0.0701917586043794
10.9726443428531 6.9429974992144 29.2044882355059 -24.0703173270629 -197.647894586876 -0.163866968321877
8.45509220505833 6.44938472314344 30.9047672472841 6.0323574917802 -162.76388991595 0.32922885457033
8.71651873437423 7.15439589169719 31.0399509144508 3.51894951569966 -162.668446246284 0.253954688743295
8.97813005989122 7.81482875710386 31.0429577473061 0.58031340309206 -162.86870094384 0.17356957687278
9.25295555954762 8.50450837439143 31.023550520989 -2.69306563550521 -163.142923069907 0.0868944485495161
9.54901102392973 9.27887284480313 31.077227132779 -6.17370962710076 -163.295626032065 -0.00592896041135578
9.8658910725961 10.1556872657961 31.2573759382578 -9.71232229842177 -163.213708919657 -0.103031949581767
10.1941631219325 11.107367868299 31.5599533639164 -13.158162374483 -162.899785875654 -0.200987098662002
10.5175517709746 12.0669059446323 31.924832915451 -16.3795010243512 -162.471626481718 -0.295472036930978
10.8169046261104 12.9447876158842 32.2530847604855 -19.2788587032707 -162.127952977727 -0.382156385051013
11.0745234104282 13.651204508885 32.4350170880282 -21.7996352528857 -162.09202246036 -0.457496915660089
10.117062479062 16.605734757229 36.5673020547096 9.59481795878804 -128.672199020185 -0.137768703932834
10.2490848321793 16.9758590983623 36.4632737482888 6.97181940616837 -128.681383999709 -0.196146819835075
10.3478541076003 17.1836092110369 36.1370789571197 3.8276801787316 -129.184731570958 -0.254504069684918
10.4413175514783 17.373449111013 35.778365920195 0.274573087436058 -129.798543006543 -0.316784644680076
10.5528898456805 17.6687937621555 35.5565237091923 -3.52687053562724 -130.180460305693 -0.385394886527059
10.694858196788 18.1355957181441 35.5717620337394 -7.38935953018543 -130.129726392175 -0.4602141250244
10.8658503235737 18.7645093143371 35.8282157657693 -11.127122257607 -129.647677723311 -0.538514523951876
11.0525771855585 19.4759838892549 36.2346981129356 -14.5830658752719 -128.937184501125 -0.61574563545151
11.2346903126056 20.1452504569676 36.6322863404526 -17.6478363243959 -128.341355045075 -0.686790999770416
11.390986405399 20.6387137342758 36.8420808497406 -20.266638964163 -128.243225996554 -0.747186596838607
11.7819974875984 26.3626647590974 43.2780208675327 13.5175283230942 -97.2970832995908 -0.560149140143924
11.785650233279 26.3704363619032 42.821639593718 10.7219266013812 -97.5300476897597 -0.602202919933455
11.7207571722258 26.0924423788616 42.0094440001145 7.26363856928344 -98.4477177828712 -0.639761475056434
11.6353140319763 25.7635078519583 41.16792348187 3.28153500390215 -99.4899264260194 -0.679759817089736
11.5728120836 25.5933402112116 40.591070425694 -1.0168576863206 -100.149533690485 -0.727225046958441
11.5607509462442 25.7060845137192 40.4548418356435 -5.38633854155924 -100.125919051642 -0.783597835110066
11.6052709626037 26.1086103112946 40.7716893983896 -9.58460936110736 -99.4193728174872 -0.846448222764507
11.6923211222339 26.6946315217747 41.3904432664217 -13.4110768890823 -98.3304791128039 -0.910547656643293
11.7941269093993 27.2813060019493 42.0407841673063 -16.7333115174543 -97.3649139914359 -0.96968298605819
11.8789919578344 27.6668719175081 42.4161769229414 -19.4952932588151 -97.0801385480331 -1.01838781641689
13.4479294449261 35.6263649678078 51.1337709737874 17.6472966740888 -69.3846576551991 -0.936581233995239
13.3192066775987 35.2258863703883 50.1542762776204 14.6382626764717 -69.9540883035587 -0.962118890323206
13.0810179084092 34.3987736813941 48.616291932516 10.7807452478602 -71.3910767709613 -0.978837264796149
12.8092595724128 33.4997184116675 47.0713207875066 6.24214893992355 -72.9471872435411 -0.99713916650392
12.5747359018551 32.8520236271574 46.0132335145587 1.2896455678601 -73.9324641752956 -1.02494300559084
12.4245057587542 32.6539147504989 45.7351105357818 -3.75246436197663 -73.9331096691212 -1.06514711705508
12.3726073978682 32.9286118310404 46.2587618863289 -8.56166384618496 -72.9484846348248 -1.1152266825786
12.4002299312896 33.5267162993576 47.3331455381818 -12.8744343823257 -71.3903711230542 -1.16885829477837
12.4642251382923 34.1776138272654 48.5012548488626 -16.5247389901725 -69.9450761127544 -1.21856564905292
12.512666107413 34.5773900285243 49.2390402633921 -19.4546439580493 -69.3562281339084 -1.25804457492993
15.1162644863787 44.3498356071424 60.2467474928039 21.7992807389155 -45.439605597878 -1.26825781732574
14.8455905822247 43.4802661880298 58.5044213339464 18.5658795981124 -46.4159857607549 -1.2765779941697
14.4151653710047 42.0133932227506 55.9004485322336 14.2600054404651 -48.43391354386 -1.27142460086478
13.9402687680158 40.4651811802163 53.3423433713037 9.07468580637576 -50.5548520902349 -1.26742568091318
13.5287878589085 39.3077734076952 51.6262427236935 3.34646887672795 -51.8952351780711 -1.27578373997014
13.2530536997567 38.8331663177433 51.2139845573271 -2.50054366100199 -51.9182255104016 -1.30070513950344
13.1360893088529 39.0826977682524 52.1384480494161 -8.03905522823249 -50.6223280418741 -1.33908288651741
13.1500648125903 39.8463155425058 53.9995668243119 -12.9230281313133 -48.5404384959896 -1.38309304095839
13.2263758275175 40.7291366387638 56.0514371396894 -16.9438796289322 -46.550120138659 -1.42406600578491
13.2791954475971 41.2788217297833 57.4192324195438 -20.043812328071 -45.5826774116221 -1.4554576314973
16.7716005398028 52.4626314601038 70.5539589710206 25.7427417086383 -25.7462228242085 -1.55697449347842
16.3456128339366 51.0582915709107 67.755782700475 22.3062175498653 -27.1325821828049 -1.54726175746992
15.6983696324828 48.8499683209837 63.6704622772729 17.550129574688 -29.7185605074059 -1.51880869223821
14.9992609585119 46.5657685362182 59.7330095465114 11.6848864358956 -32.391176099527 -1.49145864108722
14.4037385467462 44.8624385550051 57.1562196394992 5.12008251033199 -34.0792473468413 -1.48004546863374
14.0147237066164 44.1426853410541 56.6189142516936 -1.60457498899057 -34.1230534613304 -1.48973140055915
13.8655497327291 44.4683879210357 58.166887748488 -7.93606781238589 -32.5203601513335 -1.51617506037626
13.9157623534337 45.5548937227139 61.2053337232567 -13.4296245562464 -29.925127889501 -1.54965876899183
14.0603241550627 46.8459258914467 64.5847867599481 -17.8285141439886 -27.39992859475 -1.58068507823036
14.1621529392395 47.6842763750059 66.9051978981997 -21.0793377546985 -26.047477838164 -1.6036241940714
18.3455084118799 59.7402721832877 81.4441423388058 29.1970954569199 -10.4027599682729 -1.8014457567958
17.7548088351029 57.7599244481529 77.3301003333475 25.6047431554124 -12.1261331943904 -1.7736171454352
16.8736944932564 54.7452913070268 71.4035570106945 20.4502647799365 -15.1748258505492 -1.72139855840836
15.9392839125314 51.6806207917109 65.7925694012282 13.949548772165 -18.300492303888 -1.67070740518509
15.1609489301139 49.4255839710129 62.206144116235 6.5795406491876 -20.2770503553043 -1.63999030341219
14.6738997557016 48.496373423146 61.5581836993252 -1.00090303563162 -20.3396439066971 -1.63472956174424
14.5225504388206 48.9768753274739 63.9084138771414 -8.10425545058156 -18.4855068625428 -1.64864788104401
14.6527823673682 50.5061970535056 68.4501598573807 -14.1806298674359 -15.4722252375389 -1.66986371094853
14.9154938332773 52.3455634004577 73.5494660813069 -18.9251116271301 -12.5145661541496 -1.68865797784586
15.1058996567208 53.5829962415482 77.1122427860812 -22.2930453436784 -10.8468891718526 -1.70184284739571
19.6767922094298 65.6594621265442 91.3199567371549 31.8555685209202 0.658727870971872 -1.9930950084205
18.933654503568 63.1486986334479 85.8633259414522 28.1669669311931 -1.26213077017494 -1.94945428432082
17.8357667440591 59.3928701059825 78.074745311216 22.7172003406743 -4.57775290186081 -1.87642099724303
16.689395822441 55.6298512548833 70.8137966384671 15.7161635015842 -7.96843532924726 -1.80576480605622
15.7531080190174 52.8982987972657 66.2591112354617 7.6912757534818 -10.1176776686668 -1.75877033960288
15.1894887389681 51.8064855698869 65.5238113920299 -0.596232040762507 -10.1955238764573 -1.74051434369682
15.0532504808681 52.4588234349634 68.680498686437 -8.33819999997108 -8.19889788958729 -1.74249213206301
15.2796241001789 54.4358288469633 74.7440716256477 -14.8906202078274 -4.94944935349893 -1.75083176163539
15.6777468689792 56.8351160025245 81.6198304136563 -19.907644368369 -1.75001735221179 -1.75623466935176
15.9713893410027 58.4874397412556 86.4786126962361 -23.3546421681496 0.0974977621858237 -1.75906981821765
20.5239686335139 69.4364788415072 97.6808988297688 33.4490253430921 7.68645226011823 -2.11654635096356
19.6831409020847 66.5987569842426 91.3245533133706 29.7213931597712 5.74903331740078 -2.06359326733562
18.4474430968305 62.3912357957322 82.2996145726023 24.1178660547278 2.42443956118777 -1.97850550645276
17.1682735011211 58.2103281403976 73.9625575747717 16.8356174643244 -0.978445046108921 -1.89645921767624
16.1336799904695 55.1946950068861 68.7855252170522 8.42611010724955 -3.14192808279789 -1.8399266653995
15.5222556572719 54.0008470729649 67.9961522001358 -0.287337424304201 -3.2294418092807 -1.8132409784072
15.3960046901826 54.7479547389413 71.6759564425596 -8.41827874600351 -1.23766296002681 -1.80637902513607
15.6855458478901 56.9913989993273 78.7392366784231 -15.2606604696151 2.00581532923198 -1.80448619326321
16.174502593002 59.7369878219958 86.8025352814738 -20.442093137318 5.19835504925455 -1.79913884931989
16.5382043033809 61.6505686380641 92.5355584622519 -23.9343274775524 7.05130825845928 -1.79383268674007
22.4763919440761 72.5632294106237 100.739401102505 35.5493738354015 53.3833027716882 -2.46169108652725
21.6797375422329 69.7607724292549 94.4791110292075 31.976429454265 53.3770061736598 -2.4094201430058
20.5403697289069 65.6653036242403 85.6381274935835 26.6041377483712 53.3714257817495 -2.33279278018825
19.3530344718771 61.5825126894537 77.4843237087601 19.5687286540648 53.3489656248817 -2.25696102114792
18.3535152323704 58.5717547485893 72.4046115893547 11.352167887072 53.2930600078349 -2.19604581075499
17.6918542399192 57.2508601170883 71.5762130450999 2.72576183405517 53.1950247234166 -2.15077913025442
17.4363805943795 57.7549964131239 75.0855575813244 -5.43500371709257 53.0595051877469 -2.11348071610101
17.5549095963677 59.7000924403253 81.9040700251254 -12.3870459687754 52.9059668380716 -2.07610052527033
17.8825132751462 62.1692005039537 89.7328881629835 -17.6870667469147 52.7658564083521 -2.03826791690187
18.1410033946153 63.8931736126363 95.3224177513402 -21.2282544907946 52.6748732975904 -2.00974473636991
21.9437952412825 69.304229218741 94.8252005051691 34.2485657477392 53.4626111773078 -2.3993542117975
21.2350725296915 66.8048485472832 89.4541482858584 30.7289481218918 53.4571680751389 -2.35309660053235
20.223329800473 63.1358247099642 81.8382910152133 25.5262593735363 53.453805896132 -2.28504987752799
19.1575383083785 59.4430055464247 74.7486904916981 18.7896551041852 53.4350113794766 -2.21672526076617
18.2443418561023 56.686450513777 70.2800268935284 10.9770119381001 53.3844545331875 -2.16108771677705
17.6187332366729 55.4378480955405 69.4965928673646 2.79693053645374 53.293654927859 -2.11986315097729
17.3425174245661 55.8195516290598 72.4764946073696 -4.95472306257763 53.1671670092021 -2.08717984734744
17.3883113001015 57.4734365186354 78.2910604042729 -11.5982870412112 53.0238179647117 -2.05615374676954
17.6165442038199 59.574122414963 84.9290492959531 -16.7172807805771 52.8934634538786 -2.02557771252383
17.797277316051 61.0165587993426 89.641270854482 -20.1972661938618 52.8091160823084 -2.00200682955967
21.1076054053787 64.2004288488313 85.6513985347623 32.0502583836989 53.5865845439405 -2.30401600853359
20.5285549568184 62.1819145427083 81.5957742588318 28.6417846886722 53.5804620199973 -2.26698055217488
19.7071517283974 59.1980117144629 75.8090984156028 23.7472511115367 53.5776267304094 -2.21240141632811
18.8262255325099 56.1455705037006 70.3366155319431 17.5256736608315 53.5617889957782 -2.15636819518224
18.0472292468408 53.8120554753133 66.8104913777923 10.3888950831545 53.5180640092544 -2.10965439890573
17.4808841368414 52.6822524391824 66.100989423307 2.9459018400803 53.4389440339303 -2.07495310348198
17.1791763614197 52.8592063165625 68.2737081402577 -4.12890871172156 53.3287677646234 -2.04880593060999
17.1231159236502 54.0403526149338 72.5738624655694 -10.2542294049405 53.2045210033627 -2.02608379308721
17.2113856943598 55.5587872396391 77.444228663042 -15.0598147498739 53.0923690260454 -2.00469987908181
17.2824771341099 56.5620773193981 80.8649785677114 -18.4250533357568 53.0202863073152 -1.98721416840426
20.2243039702691 58.0651588786286 75.7229156540555 29.2217053922763 53.7609492562666 -2.1959766536265
19.7743303711289 56.5460822624272 72.9410717316873 25.9894705596273 53.7530614311217 -2.16684295544211
19.1448834901575 54.2809834058813 68.9443078270281 21.5096141484023 53.7493449989244 -2.12451546076393
18.4570150079307 51.9200996658757 65.0947875233669 15.9421289449988 53.735566627052 -2.08001480890567
17.8249557768089 50.0586193369459 62.5396049087909 9.63900188571121 53.6990363331278 -2.0416319979736
17.3316982749896 49.0751215507038 61.9214438019723 3.0950855500282 53.6335701229279 -2.0125254051084
17.0184222285462 49.0513435203687 63.292178489577 -3.15021269679036 53.543024064117 -1.9912853820646
16.8759288172605 49.7554284808372 66.1019150262002 -8.62691671761686 53.4416807517291 -1.97443400917489
16.8411824310417 50.6946413162907 69.2674865532824 -13.0220504578527 53.3509906638415 -1.95932302265611
16.815352402302 51.2641298417358 71.4538611970761 -16.2143177877461 53.2933471042375 -1.94540572720452
19.4632844074102 51.4419727019106 66.6247823380461 26.0554797402563 53.9884947123014 -2.08824801730113
19.1211985719304 50.3540901558578 64.8450687269499 23.0586242279024 53.9785204313405 -2.06310918316783
18.6528547564881 48.7120708731213 62.2646600968824 19.056925569024 53.9732060752478 -2.02820265196003
18.1330905593423 46.9669398187012 59.7306225832396 14.2006532128771 53.9608018496648 -1.9907719319407
17.6367583416739 45.5424344903475 57.9863732040367 8.77745089270557 53.931082350174 -1.95692650664895
17.2215380584318 44.7148435107641 57.4659953703315 3.17236127460078 53.8792102575428 -1.92980101034862
16.9185670532596 44.5460482023893 58.2086481877504 -2.20140246209136 53.8083471852854 -1.9093347720383
16.7268423660244 44.8725332805269 59.851439957257 -6.97987942334102 53.7297684094801 -1.8933526566773
16.6130734956103 45.3536028382127 61.7029392724297 -10.9095499617238 53.6601544340286 -1.8791556205752
16.5236997615018 45.581178351652 62.9424179704745 -13.8756906803141 53.6167774825932 -1.86455665736351
18.8949065645077 44.5672003213818 58.938925178971 22.8058959006256 54.2687131212369 -1.98627572637856
18.6369506764836 43.8182673163993 57.8604827422882 20.08441105392 54.2571884232116 -1.9603249273528
18.2928338209696 42.6668064645664 56.2720594276808 16.5794629591339 54.2503932239581 -1.92675259674252
17.9069289165525 41.4175334357117 54.67781946658 12.4232182454449 54.2391361725625 -1.89032403625188
17.5257353058868 40.3597046246088 53.5319353872875 7.84217756682734 54.2155839798818 -1.85552468485623
17.1871954932337 39.6849495271208 53.1079620461809 3.12678684960079 54.1761063805563 -1.82524633949436
16.9140183808774 39.4384499970829 53.4344096890661 -1.41549645963013 54.1231089461402 -1.80023902470906
16.7101922561059 39.5120646794247 54.2903308249893 -5.51106870059748 54.0650192947984 -1.77936214986719
16.5615151676304 39.6809971263261 55.2619878473876 -8.96129928800926 54.0142429256326 -1.76035548230948
16.4423922889683 39.6781876496682 55.8686288218455 -11.6640301356274 53.9836798422749 -1.7406477479721
18.5291558549313 37.5129651803176 52.6789692712522 19.664221394309 54.5975537488212 -1.89208356839484
18.3364321091326 37.0155287428459 52.0575733925986 17.2323767408247 54.5857440451902 -1.86038885741253
18.0858948107539 36.2315494728354 51.1154627741012 14.2038047393938 54.5783206023939 -1.82193486831172
17.803295331344 35.3619354232874 50.1441943347459 10.6884199057742 54.568490979458 -1.78000687573571
17.5166041779613 34.5973770689717 49.409939180184 6.85955388488608 54.5505599361068 -1.73805393320796
17.2499125612055 34.0654325014177 49.0766727597984 2.93204471482164 54.5219170134111 -1.69877727319969
17.0192574145816 33.7980514238596 49.1644806101719 -0.869012362656917 54.4842690080297 -1.66351104108115
16.8305134380624 33.7273984601006 49.5469097946418 -4.34137834613984 54.4435883045913 -1.63205881352789
16.6797320323445 33.7107140539101 49.9878493030698 -7.33288536663905 54.40868302759 -1.60298123000643
16.5565039708604 33.5777612623156 50.2149229974571 -9.75692944251319 54.388809523244 -1.57416470256385
18.3498357914271 30.3142282851124 47.658802124267 16.7612786168182 54.967160855641 -1.80770196229662
18.2092811123361 29.9946413264519 47.3215130761138 14.6084316910604 54.9567633286504 -1.7654492463692
18.0303128141521 29.478702550798 46.7826559375626 12.0069086663968 54.9500396671647 -1.7160604010763
17.8279070345029 28.8936476368896 46.2074803861839 9.04417490197775 54.9423160729302 -1.66206075168694
17.6187200232466 28.3597260036868 45.74752133786 5.8504526759971 54.9297161681655 -1.60640941072371
17.4177486923622 27.9579800990839 45.4976700427425 2.58350932048557 54.9104648960969 -1.55186400808142
17.2358845891085 27.7101605655679 45.4715034711692 -0.592219686431334 54.8856758186272 -1.5003951467586
17.0786598790064 27.5762269055045 45.5997239764068 -3.52758283491231 54.8593034659037 -1.45283487079133
16.9463578112973 27.4697738404891 45.7519224777731 -6.10697567348379 54.8372150762971 -1.40887061868304
16.8355441470136 27.2866368223138 45.7772537987236 -8.25928275063597 54.8256517650967 -1.3673684244294
18.3328010564363 23.0352145285254 43.6786342991066 14.1816459926209 55.3657666378516 -1.73681090448464
18.2357516808564 22.836124412103 43.5117751201346 12.277672290723 55.3585259044833 -1.67938267942465
18.1133377625412 22.5138621390415 43.2177736879217 10.0354430880078 55.3539768302949 -1.61314378200744
17.9747385241802 22.1421973256519 42.8893984136327 7.52245879384171 55.3492445795972 -1.54040021263433
17.8301489267532 21.7906750904031 42.6115775268505 4.83618078505087 55.3419519562758 -1.46413691897385
17.6888588987559 21.5066745154377 42.438010343679 2.0936813944576 55.3309909481387 -1.38755441919498
17.5577843905923 21.3040869754243 42.3772177710163 -0.582763877025284 55.3169820445977 -1.31353169060364
17.4407281280217 21.1618304096535 42.3916366829019 -3.08105117742134 55.3022446328814 -1.24417690985873
17.3384640918671 21.0323890913271 42.4098699929885 -5.31220083750443 55.2902577891215 -1.18060971344223
17.2495604783215 20.8575505317572 42.3487199246518 -7.21829104891996 55.2847671095057 -1.12303133032711
18.4536933158431 15.7904758391009 40.590845171886 11.9783424992848 55.7779771424134 -1.68509325193979
18.3939189119473 15.6717501558269 40.5223816122702 10.2806359727335 55.7753313542835 -1.60813748492921
18.317410213751 15.4919407450321 40.3729863883134 8.32051914804179 55.7742936866881 -1.51918881830116
18.2308392445185 15.2844555865304 40.1963073223854 6.14938114765359 55.7734690077797 -1.4207761783337
18.1412088315238 15.0810598912019 40.041045760779 3.8416385422163 55.7716804637742 -1.31643080760395
18.0544276947249 14.9040248087734 39.937802231021 1.48763708690351 55.7683295226659 -1.21030636537844
17.9742432004089 14.7610135323655 39.8910244301854 -0.817084637250943 55.7636107280687 -1.10665371664588
17.9018162233978 14.6442141148284 39.8785021982893 -2.98375875748304 55.758503056367 -1.00927667452196
17.8360179563682 14.5338806506737 39.8585044557592 -4.94067031757976 55.754531308148 -0.921107522746438
17.7743025041699 14.4050541326088 39.782277904053 -6.63949544882455 55.7533687986932 -0.843996302267178
18.691219647572 8.74002299331166 38.3116691317835 10.183049363433 56.1855610448782 -1.65985719462653
18.6630362712414 8.67833457079079 38.2945997987684 8.64316801740875 56.1884540752151 -1.55937585054711
18.6235886805241 8.60976541268817 38.2236095019322 6.88545545941828 56.192014670523 -1.44184644190174
18.5796134150521 8.53572734146144 38.1355042286002 4.94943989027869 56.1959971431799 -1.3104173777726
18.537418415236 8.45827237008158 38.0630513365133 2.89525090384774 56.2001252453129 -1.16973101492653
18.5012405846897 8.37984906466838 38.0258869927911 0.798456395340845 56.2041411959499 -1.02554285248234
18.4721344183082 8.30287698365779 38.0249376696093 -1.25907185784045 56.2078369538119 -0.884137877000268
18.4477585499407 8.22929547932328 38.0421874037094 -3.20002805543723 56.211067291872 -0.751634446555652
18.4231555007983 8.16027542628452 38.0459097607869 -4.96130693510923 56.2137487010933 -0.633296162425515
18.3922924774832 8.09620714705389 37.9996974622653 -6.50000439228588 56.21584794453 -0.532975580626351
19.0292660574573 2.07181253678508 36.8153172001395 8.81117457770676 56.5686356016649 -1.66926584930817
19.0258250152358 2.05768682585025 36.8128286582452 7.38034340797032 56.5776136164723 -1.54171258619346
19.0140592492922 2.08415611067433 36.7675604109782 5.74781787248065 56.5867902867347 -1.38967348247444
19.0034486618461 2.12640535368312 36.7178830535757 3.94529333643167 56.5966482845003 -1.21730398847637
19.0020786900731 2.16192997875615 36.6971800613319 2.02640906757265 56.6074352414083 -1.03100856990837
19.0140471683633 2.17650301439041 36.7238429869877 0.0624612462980768 56.6190077572927 -0.838965493185507
19.0378898549952 2.16769821272965 36.7954340930545 -1.86680293038954 56.6307321101132 -0.65038501444489
19.0665502499343 2.14480025624667 36.8886897447013 -3.68488367891243 56.6415207202931 -0.47455686141501
19.0890147836719 2.12533173511688 36.9655267322422 -5.32925707520924 56.650020647965 -0.319783578189211
19.0932333955596 2.12964555831743 36.983568526758 -6.75819504451007 56.6548901534726 -0.192362313962902
19.4590017179982 -4.01919539087322 36.126018948494 7.86291354758452 56.906977531471 -1.72133784957247
19.4706627959308 -3.98771881650807 36.0974641502307 6.49631222784585 56.9226303436293 -1.56371564637357
19.4743519788891 -3.87528604492755 36.0199206584364 4.91791579288877 56.9389212415911 -1.37115716728729
19.4859078041867 -3.72738400696307 35.9541804262091 3.15500431805531 56.9563779754197 -1.14923886151909
19.5183837547639 -3.58672887596875 35.9526607700591 1.26169005749812 56.9751724107926 -0.90690817250109
19.5775217652177 -3.48202288336113 36.0429790716756 -0.685357759135469 56.9949132755339 -0.655797628039454
19.6592297995085 -3.42069161304538 36.2191193507259 -2.59774685690352 57.0144734865156 -0.409196503781198
19.7497706117933 -3.38853310973123 36.441709833034 -4.38978324555944 57.0320511449471 -0.180696167662352
19.8288046416132 -3.35602901866539 36.6476254370649 -5.9920337175612 57.0455004992334 0.0174270856373004
19.8747231397147 -3.28813993144341 36.7676122011402 -7.36007909694528 57.0527693651413 0.1758733396243
19.9807463794522 -9.3491216513084 36.3113660525418 7.3216471280234 57.1812194337938 -1.82273036825656
19.9934038293318 -9.2759764086578 36.198177639935 5.98170444933921 57.2049401838189 -1.63268711764147
19.9949334743687 -9.090520048222 36.0059660306096 4.39547176132832 57.2312375146954 -1.39355492413272
20.013070732893 -8.85057345160989 35.8479121414967 2.58833000662935 57.2594526826106 -1.1128216312393
20.0705559948596 -8.61307435361552 35.8212715818554 0.62111090715243 57.288637892547 -0.802925576269814
20.1772319494306 -8.41864979540684 35.9770148139759 -1.41487569245553 57.3175518457274 -0.480209168691448
20.3260039552423 -8.2804030544124 36.3049928631321 -3.41198520588971 57.3444707838938 -0.163457141183537
20.4933460554347 -8.18290137274396 36.7345887476441 -5.26557992355894 57.3672680082806 0.12803117374679
20.6444961977117 -8.09116380227644 37.1511212976981 -6.89240094248477 57.383835680494 0.376826286483054
20.7427592960114 -7.96356700961668 37.4282732429422 -8.24233557013666 57.3924762915082 0.569925919739615
20.6040584712058 -13.7585613592095 37.4706164560534 7.15053317369264 57.37406184946 -1.97712083245956
20.5974463056453 -13.6607441521576 37.1825223724233 5.80938375696212 57.4089857158991 -1.75303306661541
20.5710588365125 -13.4320532815766 36.7495591058556 4.16518567695748 57.450712380226 -1.46140162988596
20.5731937472936 -13.1278078603839 36.3839564394337 2.242776409428 57.4952143042668 -1.11227862670017
20.6433262512004 -12.8087995287201 36.2661939522291 0.115207103440717 57.5386750105965 -0.722713804579041
20.7988547862077 -12.5234013003223 36.4905483229318 -2.10245576245143 57.5780721412638 -0.315170425707295
21.0290867264048 -12.2915298807648 37.0419230265252 -4.27257055214552 57.6109703155692 0.084494476919528
21.2962206083424 -12.1025964407191 37.7970141861757 -6.26196889432692 57.6355927079782 0.449682822549923
21.5434179746411 -11.92744377326 38.5501172154368 -7.96751116286811 57.6513135412158 0.756418794315725
21.7102059286426 -11.7323953359263 39.0707770981056 -9.33182600909454 57.6586849314596 0.987108355892847
21.3424562743794 -17.1268604147052 39.6985012904051 7.28791796926646 57.472429521723 -2.18275112568486
21.2890576816489 -17.0439351921486 39.1038287282493 5.92881445905529 57.5242228244768 -1.92378046552715
21.1988617054137 -16.8302222877115 38.246450221742 4.19118497522027 57.5902568045206 -1.57431603067677
21.1536388033707 -16.5134556573851 37.5080052439049 2.09936997088331 57.6595789853196 -1.14792447021561
21.2192822002517 -16.1413898026635 37.2054955436592 -0.256913667692073 57.7228942499082 -0.66748052022095
21.4250928826882 -15.7636198301491 37.5018699053996 -2.73022193135144 57.7741702468782 -0.162898978506965
21.7560830947648 -15.4082744003627 38.3762051218877 -5.14242507536651 57.8101815038198 0.331451177528595
22.1546398555715 -15.0784079905631 39.625528154876 -7.32294023214618 57.8305087769221 0.780178101522871
22.5314826824423 -14.7685707808671 40.8985532745372 -9.14420612380067 57.8382426621288 1.15129600036251
22.789401897488 -14.4776352097091 41.7896519677197 -10.5419934049979 57.8392751147047 1.42145455697066
22.1963148128636 -19.4021712473174 42.9880305036766 7.64294595927795 57.4725759790138 -2.42850674012125
22.0629445613507 -19.3982889456951 41.9197012622596 6.25999042377303 57.5493534574358 -2.13471020734886
21.8648813338385 -19.2885872606003 40.4059468422144 4.41080722007853 57.6516836813721 -1.72374725108833
21.7342683569033 -19.0368128146391 39.0913545407068 2.11819606437622 57.7566965179229 -1.21405382290294
21.7743891224152 -18.6549566639787 38.4908424754969 -0.508715607694473 57.8464289049812 -0.635381830295349
22.0305860889832 -18.1858097850827 38.8606852398475 -3.28330835339663 57.9106187080965 -0.0258915558365725
22.4830129468685 -17.666953175201 40.1735393964061 -5.9783781373263 57.9452750433309 0.570763188121677
23.0491937930035 -17.1249972207418 42.1210180382929 -8.3793206364435 57.9524986296541 1.10953304859035
23.5959540719649 -16.6014967965259 44.143840994851 -10.3321521675182 57.94192116591 1.54925151960406
23.9723704913055 -16.1635949387559 45.5666878760645 -11.7682703727357 57.9290950010827 1.85933746671495
23.1176616349907 -20.6644250500804 47.0366374249068 8.09471400128815 57.3901875655963 -2.6883914966602
22.874039127706 -20.813176974926 45.3377215470241 6.69034738141269 57.5002112026494 -2.36130389311141
22.5279887144511 -20.9070265053251 42.9539061984944 4.73062371840468 57.6504235892085 -1.88913654612753
22.2783515667127 -20.8057497783478 40.8851885994005 2.2355052149466 57.8007941656856 -1.29670066201065
22.2736724425898 -20.463602297533 39.8902485009119 -0.666287176687106 57.9220580424018 -0.621010703954941
22.5770030720139 -19.9099236485456 40.3298435418152 -3.74646881444467 57.9991219916176 0.0918156208942896
23.1635411979423 -19.1921662622858 42.1703234552989 -6.72532576837448 58.0273966583953 0.789299830533716
23.9242510052047 -18.3674906413742 44.9869970098867 -9.34263009455482 58.0123291470543 1.41715531179334
24.6743280108532 -17.5459266858884 47.9666691250521 -11.4196412277823 57.9725563187838 1.92482238585058
25.1927770018244 -16.9020354912132 50.0708693002808 -12.8871956155674 57.9378122289335 2.27308225599974
23.9673913600112 -21.2059789411316 51.0138011780521 8.50082360628969 57.2724520675255 -2.91721558603166
23.6058148093707 -21.5497598485609 48.6455278005314 7.08170171527277 57.4183322406938 -2.56160252146814
23.1025743955511 -21.9035731565586 45.346196717363 5.03162052704116 57.6194701974424 -2.03637771457294
22.7271848293194 -22.0025078452143 42.4982312150825 2.36736119948275 57.816557176267 -1.37324910817082
22.6714234410382 -21.734150341332 41.0971528819826 -0.765798862934368 57.9688162221925 -0.615594412173647
23.0132345476963 -21.1119991013334 41.5942748611184 -4.10261827455747 58.0568346618347 0.184085718422543
23.723511965984 -20.1922858747637 43.9506885022392 -7.3165906649006 58.0756687614731 0.966306612592197
24.6708236108089 -19.0628146113231 47.6414482082123 -10.1082834491843 58.0340704373782 1.66953053694688
25.6219191803804 -17.908889130355 51.6080085972985 -12.2801266133388 57.9601604304166 2.2353215824673
26.2821453114748 -17.0320978201225 54.421875190738 -13.7658842060068 57.8997503432356 2.61581725942184
24.5200683371165 -21.5248883793471 53.5964664475001 8.72179863488897 57.1955448908768 -3.05677099886026
24.0784638029935 -22.0244436848263 50.7665905613011 7.29531828433652 57.3671580398501 -2.68302474667598
23.469397094363 -22.5873910538173 46.8403705019086 5.19174015918547 57.6045459311748 -2.12435154362306
23.0105865571574 -22.8518016664141 43.4660290149324 2.42596810004754 57.8343758066568 -1.4171983698803
22.9208893422386 -22.6523526243896 41.7924713452539 -0.846295325672171 58.0078473516718 -0.608897599924754
23.2864008786323 -21.9880767718491 42.3250712105565 -4.33606871482385 58.1026403909471 0.244072884068343
24.0751519519807 -20.9210980352624 45.0214785692262 -7.68705099320562 58.1136202584965 1.07785456675617
25.1427696399096 -19.563254984134 49.2966255454007 -10.5762063443215 58.0518987762645 1.82671338762368
26.2259571983998 -18.1575781270093 53.9336574262667 -12.7966909701068 57.952402764187 2.42781104438475
26.980299279765 -17.1032720787081 57.2336530031914 -14.2867328209277 57.8727986869073 2.82789138432732
11.459573223365 7.48957687671427 59.6839430927282 3.42289719466025 -198.201083924247 0.885576884319601
11.8639875469146 8.53635940549757 60.0333184800799 0.942666401058911 -198.112150137938 0.804438247277011
12.2797083951549 9.59906606913347 60.1319773239004 -1.91949999368728 -198.121791324994 0.714402391654783
12.7247596672971 10.7377358384438 60.1755520142385 -5.08601554406046 -198.15269890741 0.616662183452708
13.2088649607974 11.9891700965441 60.3322946710601 -8.44619937916235 -198.137710006531 0.513458051039673
13.7280272037121 13.349373704931 60.6938582136996 -11.8677507239432 -198.03928902957 0.407950150159767
14.2629134425156 14.7673522605681 61.2471055890653 -15.2133632542972 -197.860714422157 0.303770689697875
14.7816887445731 16.1525130254726 61.8761055827949 -18.3584989777458 -197.645522657125 0.204413485255972
15.2464025324595 17.3933611538167 62.3936521446301 -21.2057748597294 -197.465418909984 0.112690300598053
15.6209251675292 18.3817362794274 62.5921547624221 -23.6927007122502 -197.400408626069 0.0304324317223308
12.7645330558557 17.9640750081121 64.680633310295 6.39498756708968 -162.169372109745 0.311498727960338
13.0272037199364 18.6458910248063 64.7702777882896 3.87737939274218 -162.120581248718 0.253331390216193
13.2669363204229 19.2108363538544 64.5197310155872 0.925422844210578 -162.38491830459 0.194607274523206
13.5139976669124 19.7915874145389 64.204516117863 -2.36805149812084 -162.722620459888 0.132868300281687
13.7914897358192 20.4954005262655 64.0669665686133 -5.87243050778316 -162.92183245296 0.0667571462983451
14.1076522283359 21.3698796472257 64.2460505621386 -9.4351956133011 -162.859538412673 -0.00337373920446971
14.4528521786908 22.3869560424186 64.7376003143181 -12.9027564515439 -162.537354621952 -0.0755377929704484
14.8019076096991 23.449165518818 65.3957639461449 -16.1411598521263 -162.081022699674 -0.146748052122943
15.1206551707396 24.4154145661654 65.9748757290851 -19.0515307450198 -161.703874054348 -0.213860967999869
15.3745653808762 25.138124848242 66.1998135670485 -21.5769083563979 -161.645803710329 -0.274274536855457
14.4078292365895 29.0586916181586 73.1743265905137 9.9327835579876 -127.755872495951 -0.22900857177356
14.5173909821572 29.315211757257 72.7831955247288 7.29757529214691 -127.853209354923 -0.263993104470082
14.5641392510439 29.3046197143477 71.8740246709314 4.12519561368785 -128.477629188819 -0.291471310065551
14.6024101136075 29.270994927419 70.9139774065801 0.532031104643459 -129.208208099263 -0.317842165668254
14.6788354748635 29.4258988274253 70.3194592220588 -3.31575372099252 -129.66929431111 -0.348173417434207
14.8189654548775 29.8859608222442 70.3341334690626 -7.22535967836347 -129.64059511344 -0.384775029726059
15.0211902725713 30.6413295035848 70.961919723259 -11.0060608333696 -129.122307007867 -0.426995954634017
15.2587312437249 31.561385914303 71.9679441894302 -14.4964375666311 -128.334551205571 -0.472072978590137
15.4883841326709 32.4342948139998 72.9464956927639 -17.5837358150415 -127.651515135201 -0.516436981869033
15.663451727248 33.0292639796287 73.4417907023981 -20.2114198276087 -127.491581438354 -0.55683915910349
16.3796128727248 40.6889391203966 85.3745298978729 13.9209447510094 -95.8660962163345 -0.738275290688776
16.3153160845801 40.414235979543 84.1713048567354 11.0990043026349 -96.2581650886034 -0.748105985739339
16.1369736497038 39.6846481631532 82.1396289279334 7.58386809718231 -97.3941867055487 -0.741669793387027
15.9393895049543 38.9144772818093 80.1043072214867 3.52316950798462 -98.6439048946907 -0.730182949074845
15.807245076146 38.4720247550151 78.8023684605593 -0.864721618355881 -99.4385740098424 -0.723040689424183
15.791416339993 38.571942417034 78.6649885763905 -5.32459068372549 -99.4423885829536 -0.725344283191603
15.8977502967202 39.2204865363572 79.7043399442809 -9.60545471363871 -98.6542315899011 -0.737547819681233
16.0886652182631 40.2207098082852 81.5138317086441 -13.4987045985736 -97.4069173903512 -0.756850228010417
16.2960495692981 41.2335363513094 83.3807174720267 -16.8648212826382 -96.2645676045576 -0.779246901812548
16.4431001943533 41.8822418421972 84.5013885463137 -19.6435003920234 -95.8518087318084 -0.801121723713752
18.6971297342787 52.8802646026134 101.69718803033 18.2365389728877 -67.1854914008064 -1.22185439261631
18.4225960193927 51.9093336303357 99.179399970629 15.178849046776 -68.0288444340689 -1.20289699077126
17.9628557655669 50.2282719794308 95.315414988454 11.2154003329252 -69.8422749528742 -1.15710665309273
17.4781717653515 48.5127312604708 91.547683619178 6.5315899484526 -71.7524623533587 -1.10216125127891
17.1129118995798 47.36664299694 89.154048935387 1.41549622726002 -72.9624124264053 -1.0529091924094
16.9553007212155 47.1459247526397 88.8722391102248 -3.79095274339283 -72.9991745740772 -1.0174867623333
17.0190469423237 47.8730582261232 90.7237991837441 -8.75078904549941 -71.8603748915064 -0.99711838818461
17.2442646503012 49.241321902481 94.0131486700387 -13.1863387367445 -70.0130368409922 -0.988662480974736
17.5160443584045 50.7041141173965 97.5008192336742 -16.9174836272933 -68.2457438511038 -0.987895708439049
17.7012000408595 51.6446033612438 99.7742392901878 -19.8767464060768 -67.4221568463951 -0.99157392144964
21.3831098500406 65.6994450557183 122.570823256774 22.7310790444549 -42.1812344248182 -1.68675373010424
20.8429442155838 63.8031980988363 118.026397532045 19.4165380033628 -43.6033077990302 -1.63396296008475
20.0160500422049 60.837604913362 111.311987184425 14.9266883686484 -46.2360895636335 -1.54086308725027
19.1653830031937 57.8743455064239 104.879950002551 9.48977755730361 -48.9300437159007 -1.43424859136312
18.5248400507852 55.8604485291027 100.855206030196 3.4807172643298 -50.6272027747827 -1.33599064310278
18.2355141263417 55.3477875106409 100.433762648174 -2.64731206837932 -50.6985060869728 -1.25734005262019
18.3201092441776 56.3768506461454 103.648374918729 -8.44487789299221 -49.1404733790589 -1.19957200405677
18.6826936062103 58.4791682321496 109.365710746889 -13.5423517138477 -46.5732043208833 -1.15873993958314
19.1322126496594 60.7936434888153 115.51441703471 -17.7042373355721 -44.0414239729826 -1.13098830269458
19.4406772334131 62.3261615020715 119.679406607436 -20.8523839707743 -42.6792422453284 -1.11502421094135
24.4104339733641 79.0584219307817 147.894909839923 27.1965114386456 -21.1652921452146 -2.13590111885845
23.5349646997854 75.9660773142275 140.447652580328 23.6357193516124 -23.228965946505 -2.04366185748393
22.2331164121471 71.3144133917306 129.620026786576 18.5821572440434 -26.7540079412006 -1.89412453333837
20.9198131747423 66.7466764797272 119.397739183523 12.3108537175117 -30.2931459909854 -1.72687929268228
19.9526151890887 63.6731685971654 113.107542541726 5.29713835898721 -32.5120172276051 -1.57249815304197
19.5405876020105 62.8930591370597 112.551818052301 -1.8752392212862 -32.6195263980468 -1.44486753927203
19.7167938518462 64.4672377409895 117.776507381912 -8.62289100473665 -30.6114980665698 -1.3439536401701
20.3362959055136 67.7178799370993 127.06558132866 -14.4646137843145 -27.2672748173636 -1.26426062109828
21.0984466929169 71.3503721178301 137.162148024038 -19.0951436594943 -23.9018641895062 -1.20330795975886
21.6300125305314 73.8156137413345 144.123673038118 -22.4201897935424 -21.9386866569546 -1.16445407224356
27.5944742642793 92.3284423686494 175.94880298171 31.3179378520918 -4.40015439899531 -2.55737234527057
26.3242766625712 87.8192219499882 164.815705468622 27.5510643474288 -7.06851081968504 -2.42195312912188
24.4555589105707 81.1510999792655 148.748708593923 21.9548477189016 -11.4329093323188 -2.20967240958662
22.6036254708335 74.7068392749341 133.78766348232 14.8531582668263 -15.759383927901 -1.97659998013949
21.2747298104161 70.443295599276 124.729465670138 6.82547869894045 -18.4608871239525 -1.76292874889724
20.7525465527748 69.4258791246943 124.050554080446 -1.40914378332718 -18.6042682783708 -1.58389199480446
21.0812675633053 71.7372467719377 131.811138567726 -9.12663988268348 -16.1853467847644 -1.43633103104283
22.0613545470385 76.4730471046949 145.646352852421 -15.7260185614682 -12.1235436195244 -1.31229349171853
23.2575076831054 81.8216822839324 160.845569933927 -20.8225433084206 -7.97950638301442 -1.21186625196654
24.1015965816467 85.5088417993694 171.416407722319 -24.2971971919292 -5.45196915945009 -1.1464735913903
30.4656301969174 103.886350031797 202.067674956896 34.6424864753837 7.82362093979591 -2.91199306957798
28.8068785094726 97.9894423997197 187.147223935704 30.7329394406041 4.72187367862461 -2.7365939021126
26.3777547587807 89.3414699864237 165.703262493635 24.6960489492857 -0.241374857780339 -2.46586445228716
24.0058640857606 81.095961413408 145.976632529371 16.8987988874952 -5.12050421894378 -2.17300841914831
22.3401389713027 75.7239403684034 134.192151343629 8.00952539154044 -8.15836208087572 -1.90670648781884
21.7291456006547 74.5162952414928 133.412866623091 -1.13682584868444 -8.33260121237089 -1.68190384939447
22.2274546099168 77.5760376657717 143.712223617577 -9.69298642818943 -5.63961793138879 -1.4911889177139
23.5889113880947 83.8096037098155 162.161751206611 -16.950491190561 -1.08713610700525 -1.32378246849345
25.2475780954784 90.916545538254 182.637032279526 -22.4484099908132 3.6007301478658 -1.183091708651
26.4266561343287 95.8620452778549 196.947039954179 -26.0360131251397 6.52598616478942 -1.09078486712547
32.2939011814496 111.209394625925 218.839359275532 36.6481424200213 15.2883472884879 -3.13622593340552
30.3816355348924 104.427695560075 201.390647109714 32.675323119611 12.065828118501 -2.93645629953194
27.5863520737998 94.5175767927322 176.360471893337 26.3947573670689 6.94798123264452 -2.63002762901911
24.8786635490276 85.1392821948808 153.49571717415 18.1926010172845 1.93422019823625 -2.30099668107463
22.9976511960394 79.0770545733199 139.93610735214 8.78563045815805 -1.18675281724891 -2.00261049456495
22.3309221155695 77.7496227028243 139.094184336237 -0.920978565134705 -1.38048349849122 -1.74880948647358
22.9406640070715 81.2752760554274 151.052805278138 -10.0002281186086 1.35624282308802 -1.52914433393919
24.554538512123 88.4585451269817 172.54980572001 -17.6723312964519 6.00404634899538 -1.33124818511673
26.5235861033658 96.7007483055704 196.554236596152 -23.4244327782394 10.8114449177133 -1.1615268611332
27.9282114754954 102.462207011438 213.368351461763 -27.0807642213244 13.834985589804 -1.04982584694287
33.80647710202 113.586325804612 220.742791649325 38.3727720625267 53.3127268260034 -3.43190056172608
31.9875630082856 106.919016425328 203.418913749788 34.6022064428218 53.2994737515476 -3.2447908767866
29.350853457418 97.2162741011901 178.600850649118 28.6266735212611 53.275108306142 -2.9618803228135
26.7867785216155 88.0126692326836 155.93528135764 20.7399902862386 53.2122807591657 -2.65155101683869
24.9692583945824 81.9966278038929 142.478374330223 11.5651261557141 53.0862230793279 -2.35546314673301
24.2545028193329 80.54741359699 141.599481053771 1.94207809064719 52.8829062769629 -2.08325099341011
24.7133001574419 83.8051299612251 153.388074273734 -7.21712546506285 52.6072545955666 -1.82777209390994
26.1169373066687 90.6447861957657 174.634585430044 -15.0888017108244 52.2908018693711 -1.58566755636855
27.8811169230599 98.5622550530478 198.391234771011 -21.0654230931138 51.9954329101973 -1.37474382003528
29.1515260740527 104.105751440998 215.049006964043 -24.8529609056646 51.8014793064232 -1.23481530638553
32.2744773235699 106.735879237081 204.249671939552 36.676869702541 53.3828583768776 -3.27384619039767
30.694361402612 100.921602813011 189.430807775688 32.977810767359 53.3699524096842 -3.10718410848164
28.4067506638418 92.44482470653 168.170108113805 27.253455390491 53.3485418501832 -2.85565269669888
26.1614457331332 84.3368785417563 148.615271102201 19.7822413471735 53.2923172466601 -2.57689754073394
24.5442126868023 78.9763702912542 136.913577872029 11.1404811422964 53.177647285317 -2.30819067589429
23.8737190460801 77.617789945989 136.088551352075 2.09771674123466 52.991616839641 -2.06046190866888
24.2139321496286 80.3879930357903 146.220853226496 -6.5151502806618 52.7396813772545 -1.82993453759557
25.3619672348496 86.2637437761902 164.431805138402 -13.9475412326445 52.4520133915556 -1.61501844005451
26.8146448582168 93.0359819304115 184.674207399822 -19.645797259291 52.1851944510913 -1.43038199359305
27.857205148716 97.7520967345129 198.838051030544 -23.3432009563794 52.0100275640936 -1.30718760404196
29.8879081884614 95.9513855437885 178.577800750881 33.8571241277073 53.4981857425594 -3.02826707338905
28.6631712513551 91.4583344336997 167.501894910714 30.3048219682017 53.4832733459379 -2.89295789048221
26.8957311015074 84.8834990831574 151.562955139351 25.0180190621346 53.4626788948968 -2.68992484321032
25.1318449105243 78.5010259273438 136.722200607312 18.2428373070466 53.4132661160894 -2.46109870439356
23.8216754865666 74.1862969693841 127.711138606453 10.4755902890856 53.3145667069254 -2.23638857998123
23.2228755405662 72.974439729567 126.973416281429 2.37444580850634 53.1561273605958 -2.02765906164863
23.3892472944954 74.9725115448459 134.576609037255 -5.35328123257732 52.94400167268 -1.83549763879709
24.1610065073528 79.3413112259914 148.199164761639 -12.0696628209232 52.7050458776282 -1.66067766348838
25.1588748227735 84.3505493352061 163.195780920458 -17.3066837731921 52.4860996659548 -1.51356341027509
25.8686139398117 87.7960803623087 173.641063811396 -20.841186878984 52.3425380058271 -1.41386484746703
27.3660535993183 83.742004852554 151.077494124145 30.4101023393289 53.6627076955674 -2.7609014685296
26.4887875369947 80.5701318771853 143.629174804824 27.0730494028274 53.6448674258549 -2.65589498370508
25.2312950843196 75.9004761344322 132.858938551597 22.3281344938399 53.6239370571794 -2.50074606159634
23.9513027486931 71.2863120075865 122.690916916893 16.3862514900018 53.5810321213709 -2.32306622009678
22.9603312122471 68.0718877180907 116.401274233166 9.65231388672603 53.4997957082279 -2.14490443564138
22.4468668476399 67.034217215971 115.767823432665 2.65679519575199 53.3725405151052 -1.97770124389857
22.4534230341908 68.2582018368405 120.843729460709 -4.03341122438696 53.2052567106345 -1.82514347245677
22.8693348418228 71.1229735426261 129.947994181554 -9.90773412679627 53.0200074192785 -1.68958204212645
23.4407087330655 74.4018058012905 139.874840144611 -14.5917602224751 52.8526143535621 -1.57737847929528
23.8382025201558 76.6018026793694 146.733093040613 -17.9038841573555 52.7431965823516 -1.4987156734329
25.1638268353108 71.71157411825 126.334666271815 26.7563737396165 53.876623104269 -2.51345138338097
24.5644501470824 69.6155265293771 121.723114248312 23.6887525113739 53.8563125061204 -2.43114393345226
23.7138225024511 66.4938996830632 114.988731704074 19.5215666746877 53.8350508370472 -2.31319801491573
22.8300996524661 63.3481941663767 108.538311864769 14.4321927875781 53.7983019245304 -2.17687999124458
22.1120272929388 61.0762010651656 104.460430907492 8.73847713308905 53.7337854525696 -2.03760333411294
21.6861412643729 60.2165929808116 103.934559511203 2.84876381898356 53.6361945342523 -1.9052726516866
21.5843992627158 60.8333953491056 107.00050078319 -2.80369270436273 53.5107512656385 -1.78485476681437
21.7392362774662 62.5064732710295 112.551968921585 -7.82857970206114 53.374311011913 -1.67927483969013
21.9968829269463 64.4294265788023 118.555547422458 -11.9370998668312 53.2527526876175 -1.59204866119237
22.1636659682777 65.6517164569291 122.633662592962 -14.9819704650376 53.1739730401428 -1.5273552318345
23.4507116210767 60.4693653307668 105.973849439107 23.1752621000395 54.1367444621835 -2.30179675484604
23.0517189518555 59.1557581636122 103.318754895401 20.4092309465015 54.1153745226564 -2.23273225670848
22.4917410770411 57.1558566359194 99.3557347102409 16.8072180558081 54.094643827392 -2.13841606464325
21.8978894441793 55.0940958755666 95.4946576280262 12.514986284943 54.0638799970791 -2.02952716392777
21.3897576589383 53.54151891607 92.9886415388917 7.7751853976247 54.0142907413335 -1.91663831418546
21.0469506978406 52.8499691783766 92.5655446158374 2.89227150608363 53.9423435014554 -1.80778068367335
20.8925815468916 53.0658805817655 94.2540413978406 -1.81326312759762 53.8521359199551 -1.70799404953586
20.8900814128347 53.9240520324605 97.3795509241748 -6.05203496225022 53.7558036758269 -1.62022942103213
20.9537704536197 54.9221632204872 100.730660607517 -9.60635131925155 53.6713006867458 -1.5464368418576
20.9768508983491 55.477460315616 102.922163487752 -12.3573449330398 53.6175937094681 -1.48779947679773
22.2343595828874 50.0776008763895 89.972292661906 19.8316162786195 54.436347628691 -2.12809848736388
21.9734130433174 49.2944013746052 88.5596184559247 17.3736977550855 54.4158627066021 -2.06306900322362
21.6102949983557 48.0564817147962 86.3508169904277 14.2913448797111 54.3970448283778 -1.97930424903697
21.2170647354478 46.7443437752084 84.1467722560353 10.7009915436178 54.3723770281641 -1.88360280728364
20.8629721723606 45.7086886280003 82.6675308313753 6.78420152306254 54.335798191973 -1.78337383709561
20.5959556719805 45.1694954660168 82.3390437179526 2.76369679343047 54.2849948719136 -1.68506854686823
20.4321765970878 45.1593324487582 83.1812593167772 -1.12765451610671 54.2229139957309 -1.59340871983246
20.3540505333703 45.5194600823537 84.8056564502713 -4.67872930091685 54.1578635428034 -1.51133379054348
20.3169902022576 45.9491043088235 86.5225127751895 -7.72747659800593 54.1018816816387 -1.44028708885162
20.2649340181173 46.1003352763719 87.5505217399345 -10.1789868411675 54.0676076443829 -1.38044971678779
21.4628864310404 40.4284373963908 77.7393184204473 16.8180492557495 54.7647151841623 -1.99096030714875
21.2965360422022 39.9859532977779 77.0668337844315 14.6512046938586 54.7472550877734 -1.92152159942633
21.0648277135485 39.246612606157 75.9063012987997 12.021647431663 54.7320065458539 -1.83653540730997
20.8083486273809 38.4363269898958 74.7036733491594 9.0198306980846 54.7138707801412 -1.74070955179554
20.5665701058946 37.7634247515807 73.8609308041789 5.78001470967309 54.6887902816605 -1.63966221668657
20.3677191442262 37.3602022848722 73.6185326810982 2.46419124835137 54.6552356452143 -1.53890379056097
20.2226389241794 37.2486285410119 73.9897318086705 -0.758841349236267 54.6151427758915 -1.44304120159993
20.1236078174653 37.3379715089188 74.7591286978416 -3.73514568395838 54.5739074329895 -1.3553241876685
20.0482182298633 37.4545367401665 75.545589928753 -6.34414313603411 54.5392931338329 -1.2775186186585
19.9676167297098 37.3962766372774 75.9174939680534 -8.51069673890517 54.5194762536721 -1.21002175733689
21.0759658505429 31.4325732777392 68.6470907671729 14.1865230601465 55.1067990830497 -1.89059338741641
20.9758397372163 31.19837555273 68.3886171324482 12.2758988015565 55.0944441338868 -1.80900978896523
20.8326798568998 30.7786038863988 67.8230054545753 10.0200668984468 55.0845546992453 -1.71210065532755
20.6703827843632 30.30121224697 67.1982485411184 7.4878216395404 55.0737416795074 -1.60368906814052
20.5121523365231 29.8839048773283 66.7371258887136 4.7785588077675 55.0592931706185 -1.48872610717964
20.374782210118 29.6021202808413 66.5735661192425 2.01157432605359 55.0401129583043 -1.37258872416241
20.2650223806707 29.4697175110738 66.7156120998098 -0.688459241942148 55.0172950893392 -1.26033792051308
20.1788850903619 29.4375526925141 67.0446005652181 -3.20689897247621 54.9940991798719 -1.15609856988345
20.10395404306 29.4100756929893 67.350626426894 -5.4522986348104 54.9752667665644 -1.06268139157763
20.0239951026849 29.2750742280776 67.394856486673 -7.36484393437346 54.9658466785543 -0.981497224884566
21.0237481418678 23.0821427775298 62.2135495537203 11.9672816278359 55.4432536461022 -1.83063577213036
20.9709444039948 22.9697167140027 62.165192732477 10.2670190393617 55.4379101096041 -1.72970774732308
20.8878139424421 22.7538531058071 61.911639998608 8.30069665232571 55.4353197249176 -1.61073774120058
20.7911596022967 22.4998545450301 61.5995093452551 6.12023052368591 55.4330805160472 -1.47755927364033
20.6968434534339 22.2676100056014 61.359443817913 3.80101186004185 55.4291771365225 -1.33545360382331
20.6158152006417 22.0957078861565 61.269586436913 1.43465684780629 55.422602895697 -1.19058809779021
20.551545187263 21.9915932992045 61.333712246409 -0.881865093703242 55.4137347691592 -1.04930044273032
20.4996311413919 21.9307335673332 61.4807942577899 -3.05833423231483 55.4043211913082 -0.917367895470166
20.449649755479 21.8649378536187 61.58608490128 -5.02175196695986 55.3970659304982 -0.799403577049736
20.3886092420261 21.7371269544154 61.5070782920113 -6.72291662626851 55.3949298748081 -0.698485066406512
21.2723085264783 15.453332811341 58.1343767351033 10.1783737671406 55.7508743267409 -1.81835236260721
21.2518731138367 15.4099506498535 58.1638091177971 8.6378468367594 55.7544200155106 -1.69124977739237
21.2068145046773 15.3255304248654 58.036604751986 6.87685363704306 55.7615244874849 -1.54010707671594
21.1541631650944 15.2255652286081 57.8623337870462 4.93516072706301 55.7698964796734 -1.36954269710573
21.1092017612366 15.1332158624925 57.737615156486 2.87357159428065 55.7774328846594 -1.18616638463358
21.0812165433077 15.063081120911 57.7189301342753 0.768658679369064 55.7827745592125 -0.998004940580908
21.0708397339789 15.0171721110385 57.8062323023201 -1.29654032005842 55.7856316308321 -0.813736357780574
21.0698563404788 14.9844707809839 57.9427709765708 -3.24359233767607 55.7867921291297 -0.641815292465945
21.0635828084969 14.9442798211207 58.0312685407114 -5.00850652174739 55.7878275933359 -0.489584257464155
21.035091478546 14.8722752494223 57.9612193360498 -6.54790118765295 55.7905969673975 -0.362490877094222
21.8055030736494 8.68621178495806 56.2688783230993 8.82910892461143 56.0032779836343 -1.86418314911481
21.801252641861 8.67989776849365 56.2709491617547 7.39797336536629 56.0181037818509 -1.70428789752025
21.7717878736279 8.67874479941801 56.1204014430926 5.76179736214418 56.0385185223665 -1.51034689269618
21.7418594525638 8.68577258182823 55.9430986145763 3.95252795731586 56.0610408812996 -1.28856924670905
21.7329590131005 8.70296248622113 55.8495347654963 2.02465681805834 56.0823096440086 -1.04802170580908
21.7567312340938 8.73011652083464 55.9024631159887 0.0507669841191993 56.0999224786281 -0.799872852655701
21.811074883093 8.76414792756044 56.0980072239498 -1.88791179612548 56.1128907353564 -0.556484803126609
21.8801094487138 8.79896282266999 56.3656821701937 -3.71346097640767 56.1216644818785 -0.33033371844174
21.9381771836368 8.82623307959821 56.5875783566426 -5.36226991671587 56.127779776818 -0.13272180089259
21.9569079932667 8.83726847745136 56.631576222408 -6.79209406353013 56.1332321857026 0.0276224565581779
22.6268704890072 2.96045168454793 56.6219584899042 7.92001023334258 56.1715808595371 -1.98103269094262
22.6162656486156 2.96478487233424 56.4782805523251 6.55207087244701 56.2016242404893 -1.78177266651493
22.5723285496906 3.0031598129534 56.1362256960943 4.96637481878478 56.2415601986229 -1.53333001608671
22.5376535456817 3.07436176057646 55.7986718172766 3.19079503603395 56.2845276109312 -1.24451255211576
22.5489466993107 3.17491035597327 55.6440258301428 1.2810137092187 56.3239500265707 -0.928246173926646
22.6253165676093 3.29857609218496 55.7722813429884 -0.684132519731738 56.3552271826415 -0.600407361355891
22.7617200471532 3.43691058570897 56.1753014798264 -2.61383109227905 56.3765640878113 -0.278701396538386
22.9290865173382 3.57948002010347 56.7370011540539 -4.42000237203574 56.3889887126652 0.0186379338206885
23.0813909259323 3.71422903566303 57.2638867158648 -6.03123943370267 56.3956820268136 0.274666271054583
23.1684547825342 3.82975680879288 57.5407947916585 -7.40206119520443 56.4007129518753 0.476078874108499
23.7613558654957 -1.52518877190866 59.3297020741448 7.44077920686182 56.2250776553805 -2.18323349805988
23.7100953283752 -1.54888136998333 58.8694937395636 6.09692552029405 56.2773463593857 -1.93790028803541
23.6062380434332 -1.53276824497648 58.0954064358128 4.49538904667781 56.3476602066752 -1.62160123376425
23.5259200520998 -1.45605604085433 57.3746361550314 2.66307109590807 56.4219625436657 -1.24721130828255
23.5347132029722 -1.30584598551702 57.029738171667 0.66394649182199 56.4871396128087 -0.833357179410876
23.666649538265 -1.08287322532274 57.240446318384 -1.40681025698022 56.5345047302203 -0.402488234961517
23.9132551092698 -0.801769290178189 57.9935759642866 -3.43742241019829 56.561299667358 0.0204269196978163
24.223835760693 -0.490379413346791 59.0832794614157 -5.31899377435559 56.5706361927252 0.409254498786529
24.5174582735988 -0.187525051320056 60.1625011824218 -6.96435842945047 56.5701490669821 0.739102892636801
24.7058723027103 0.0659445221013517 60.8443427833136 -8.32095801002711 56.5692728416364 0.990143580174643
25.2528719803406 -4.57177365576694 64.6293407755499 7.36653518370472 56.1328088537647 -2.48449683160716
25.1094198263277 -4.69340948100551 63.5921417611268 6.01691635238921 56.2191867684816 -2.18606715686772
24.8764139384001 -4.80389705700351 62.0192203695984 4.34287743824726 56.3378860985996 -1.78646010291549
24.6884447087773 -4.81775646030567 60.5780185687186 2.37290973535826 56.4611696992667 -1.30497076783376
24.6607216427323 -4.67159003281429 59.8490814686021 0.186288023986142 56.5640221079129 -0.768375067521541
24.8530331723611 -4.34353921928526 60.1524304966101 -2.09519605020986 56.6308274668283 -0.207713586201967
25.252792844124 -3.85568468343156 61.4688658207063 -4.32712195216974 56.6577221829313 0.342881918543598
25.7754397865473 -3.27280708799023 63.4400240348323 -6.3689446276783 56.6522969415849 0.846991383192762
26.282940591017 -2.69661732829023 65.4487644694966 -8.10995399739731 56.6312090525077 1.26868937706817
26.6230112046051 -2.24110501031353 66.7980533416229 -9.48740520936713 56.6147926290612 1.57858664256411
27.1476966515787 -6.01435925254217 72.7580765320961 7.6512815914495 55.8688078047457 -2.89311872840558
26.8397153728039 -6.35021502525019 70.7687781554274 6.2765483630575 56.0074395814733 -2.53421241403442
26.3784765895432 -6.7545862220322 67.8653058668582 4.48489558295059 56.2016344791114 -2.03390506421334
25.9946805791322 -7.00970938712455 65.2210002667452 2.30883145704696 56.3996960989731 -1.42175346919705
25.8822191833614 -6.95111448428576 63.8336494338125 -0.150076554444811 56.556906715459 -0.735797979075443
26.1406084891955 -6.51084881864225 64.2413947566786 -2.73330089990406 56.6470431882685 -0.0173867519063824
26.7524831787875 -5.71985317047752 66.4182593019426 -5.25240984008492 56.6651287849114 0.688967829643475
27.58392437178 -4.7061594964707 69.7733693944275 -7.52480394954935 56.626574232826 1.33444695487547
28.4088633594037 -3.68759553201062 73.2566653255502 -9.40895275995762 56.5637699888586 1.86822507981434
28.9715473146833 -2.92065598921421 75.6511852259855 -10.8295627339353 56.5166267608375 2.24662599652238
29.4450317957826 -5.80822625449801 83.675509425993 8.21657376752873 55.4266324190428 -3.40132209773744
28.8838157201075 -6.5196189148276 80.2646499514162 6.80765650044887 55.6410491006474 -2.97483997362678
28.071003997865 -7.44641063229885 75.3614675119561 4.86759810282409 55.9455299041819 -2.35654490461414
27.3835329185546 -8.14411174373457 70.9210072885256 2.43599202398454 56.2501782060789 -1.59201352920075
27.1277087309694 -8.28402130523412 68.5448029451507 -0.356835475022053 56.48117496494 -0.733978497691478
27.4566267786098 -7.72645685527379 69.0666348324298 -3.3073341428836 56.5980986801987 0.165315076322138
28.3478449927048 -6.51220159851405 72.453778873792 -6.17419269068749 56.5951339637448 1.05141806143863
29.6032441854837 -4.86035644251023 77.8042892154894 -8.72476981559469 56.4991552987666 1.86224851056511
30.8729659819087 -3.17078130986149 83.4447683240018 -10.7809797987813 56.3664468018578 2.5279828263661
31.7449834196877 -1.93964033058394 87.3563517531933 -12.2530863389279 56.2683591240058 2.98391989854463
31.9955900092067 -4.20895885248242 96.5008891664682 8.93460407149739 54.8491441323464 -3.96595733173294
31.1008825794322 -5.46057801571416 91.2377603140727 7.49081816585491 55.1614984128307 -3.46784586998771
29.8244893179727 -7.14085407853899 83.7224309871874 5.39083620860413 55.6085143739849 -2.72088422205958
28.739227542318 -8.47835272428261 76.968626437243 2.68545679044038 56.0472804048642 -1.79328428614859
28.2893953205108 -8.92504862154414 73.3263248918455 -0.462072494342625 56.3672606483376 -0.754939226830948
28.6882978033841 -8.25294320322321 73.9633461300972 -3.79997260948344 56.5121998259122 0.332348733593946
29.9088326446994 -6.51250891156476 78.8414621859629 -7.03148341420613 56.4760304046668 1.40685804188217
31.6823944638176 -4.03059369035119 86.7105133689047 -9.87187952571886 56.2993865661181 2.39466195735473
33.5085106110337 -1.44572137129249 95.1264791358722 -12.1045477406443 56.0691691410725 3.20428405562453
34.7662386710986 0.402996582304059 100.984734753361 -13.6238752141409 55.9003311526225 3.74270167394916
34.3771944404774 -2.00345845267996 108.822759861427 9.6145971998558 54.2652903327169 -4.48714286308647
33.1337218011743 -3.85900297425467 101.624120378329 8.14142674847802 54.6802538402968 -3.92307736760038
31.3732340262763 -6.38060757493749 91.3831143551411 5.89785044494513 55.2760156504362 -3.05645836980237
29.8782263158399 -8.42710420241044 82.2571494433855 2.94896916704732 55.8512600369411 -1.98104307837545
29.2271503069528 -9.22174571476432 77.3312093373135 -0.51060815825629 56.2587620122127 -0.783119021230256
29.6858501812293 -8.45276459204562 78.067711458267 -4.18634600401869 56.4284119682928 0.468934890499447
31.223655736641 -6.17871262643741 84.4249123707453 -7.73339849629975 56.3544719389517 1.70980224234795
33.5111724212791 -2.82659583541757 94.8475086983549 -10.8224880919465 56.0903902275749 2.85730108997155
35.90217637908 0.718811873871536 106.135841424827 -13.2036638892236 55.7539632979853 3.79988208107363
37.5521267850987 3.23209124963466 114.012133231207 -14.7564245757963 55.5080853930471 4.41375282847599
35.9106264356911 -0.499539266994999 116.785200662925 10.0244270720935 53.8853420899754 -4.81620881131422
34.4331945117698 -2.7948082188078 108.274598466295 8.53304965385694 54.3710014277599 -4.20974988728807
32.3483590473576 -5.93039848836071 96.1870673779448 6.19840383195196 55.0691012662697 -3.26596753331548
30.5820648500134 -8.49338378148888 85.4720347496155 3.09690930558167 55.7370102372021 -2.09652274815909
29.7985522108278 -9.54481808433865 79.6931751965734 -0.555929342344116 56.2029262320779 -0.798319485252508
30.2945439860459 -8.71550627138075 80.4918034977192 -4.43808961077332 56.3880463600776 0.556478580276246
32.0370297130988 -6.06944216941991 87.8240228336552 -8.17443903942467 56.2869634930856 1.90080829292511
34.6605507181729 -2.10165732060521 99.9493200614455 -11.4090210743868 55.9614025707016 3.14807998099808
37.4259174652853 2.13012650960455 113.176473028312 -13.8732838029301 55.5500748364565 4.17447792120197
39.3360701755868 5.11845124647509 122.415934841398 -15.4391989474274 55.2499622502491 4.83555946879788
15.8320733935406 18.2431228477455 91.0575227104328 3.87941383378092 -197.752315279985 0.93293533491881
16.2475132798219 19.3091056535452 91.4763165057762 1.39880608933509 -197.691507095433 0.863635894448967
16.6535628153036 20.3369706583212 91.4841536025325 -1.47377997678323 -197.739751150733 0.787651736491822
17.0820935931747 21.4249870347695 91.3846439531344 -4.65807769850427 -197.810198865653 0.705758177276788
17.5548393554138 22.6431989885819 91.4411575068025 -8.03984291500731 -197.826898005306 0.619596102903752
18.0746034852031 24.0064348418769 91.8008444272452 -11.483100010482 -197.746787822964 0.531577568225481
18.6216814700402 25.4626635788595 92.4504171492076 -14.8474094441582 -197.572254054047 0.444470012742533
19.156814397357 26.9007064037649 93.2182267540191 -18.00607429531 -197.350642935305 0.360837401139012
19.6297276953062 28.1748727229343 93.8219311927502 -20.8607491255688 -197.160945127761 0.282582302712522
19.9905015085532 29.1388058253994 93.9461675357259 -23.3492072533289 -197.091552581625 0.210759443646987
16.8175962405217 28.8040400540376 96.2742913768112 6.79738910466275 -161.358878973982 0.295045400914417
17.0833433921218 29.4653916450819 96.3502365681445 4.27298365186077 -161.380070631453 0.253094882084841
17.3056081469485 29.9436026741664 95.9027056163724 1.29958254208723 -161.741314072661 0.214809944431825
17.5293212447373 30.4245835920589 95.3478575918794 -2.02598159681648 -162.172996809341 0.176393794042024
17.7903265174148 31.0622800331413 95.0526525907182 -5.567802625358 -162.436311925803 0.134977539177814
18.104076986611 31.9309467410165 95.228714191989 -9.16800160627558 -162.392251260208 0.0894619532576536
18.4606743528273 33.0018052932889 95.8717498245432 -12.6683453977695 -162.041531673163 0.0405489524767941
18.82742955346 34.1499137676711 96.7631880899946 -15.9313597313791 -161.524129751595 -0.00986780383051737
19.157709703384 35.1880870576625 97.5331050886814 -18.8560673320122 -161.078722263299 -0.059536886094877
19.4031293185049 35.9174851287602 97.7664883920408 -21.3851017933137 -160.973764489255 -0.106513386394463
18.4206688090272 40.7372185804241 107.097319245527 10.3844299749997 -126.382449517034 -0.315691451628475
18.5115113201891 40.8860086777806 106.483101545796 7.72818604233827 -126.619143061944 -0.328491312927633
18.5131302402207 40.6701078854156 105.0924704694 4.50756692448575 -127.436229680503 -0.326753948114259
18.5025196489307 40.425400793962 103.628642069968 0.846997172208803 -128.3502217532 -0.319456516598484
18.5461440663536 40.4445106897971 102.718575110779 -3.07722242348646 -128.929552749758 -0.314396233563222
18.6807778866845 40.8903757080277 102.728332006431 -7.06261479570744 -128.921457792683 -0.316265058469998
18.9045535366093 41.7524644112397 103.661707110961 -10.9102827608028 -128.325090940669 -0.326283077400172
19.1793807016154 42.8535396540816 105.161535241953 -14.4522501029239 -127.390944851588 -0.343101833489594
19.443135451073 43.9028697670936 106.612474148799 -17.571135732217 -126.547059639165 -0.364202679766375
19.6282376694412 44.5822148462313 107.324247848095 -20.2086180916652 -126.2726096805 -0.387043133080461
20.6371770167023 54.0376444396394 123.884427832493 14.5628878527278 -93.6120980799046 -0.908173327326874
20.513185664641 53.4952738593101 122.062022944635 11.6950238725773 -94.2615469813533 -0.887489618171493
20.2341832074126 52.338790226261 118.999356945654 8.08130041054232 -95.7530457644776 -0.839361676775393
19.9355759199497 51.149219535324 115.946856915108 3.88608663384005 -97.3378177160645 -0.779510027840386
19.7377377343344 50.4422883801425 114.021972376664 -0.652157315006444 -98.3426015330821 -0.72188255958535
19.7116708656405 50.5163921862326 113.875514277836 -5.26031889719198 -98.3721646298177 -0.675263251680594
19.8629487089929 51.3770064720384 115.519581412626 -9.67291709354178 -97.4240756202233 -0.642751577351205
20.1340782704138 52.743718748737 118.328470671313 -13.669145196296 -95.8878028846026 -0.623416861825078
20.4232206061296 54.1345855127858 121.2110223982 -17.0996857820589 -94.428994101221 -0.614623267560777
20.6163262016204 55.0142678917673 122.941041113119 -19.8993725746221 -93.7880273385543 -0.613674682676864
23.5013682677755 68.8381379964089 147.292556875801 19.2668511911147 -63.62784775783 -1.49463203067573
23.0979170805743 67.3305688240627 143.479237011548 16.124132441432 -64.919200654916 -1.43370730602527
22.4399908787286 64.8423682332444 137.627867485138 11.9760973038194 -67.3534017637646 -1.3285813874422
21.76181203105 62.3489923261002 131.946325078051 7.0418691414525 -69.8449052507155 -1.20457352394994
21.2725886963216 60.7179916177272 128.393267433255 1.64818484423167 -71.4132934965356 -1.08388695293846
21.0967105078361 60.4530362210727 128.09419696231 -3.8311685450588 -71.4841821191113 -0.980124116488147
21.2476349526585 61.5757158228924 131.070766626403 -9.03472179161955 -70.0535111658889 -0.898075482711635
21.6301649785102 63.6329875945756 136.241090477881 -13.6629013058451 -67.6859380846425 -0.837020059618753
22.0684578930597 65.8234302667314 141.689050735744 -17.5154742863287 -65.3488718495452 -0.794625044734918
22.3614617359447 67.2448493878784 145.242394702913 -20.513163023162 -64.1136064663349 -0.769037212418725
27.054657365394 85.3048515513766 177.991734011989 24.4149495532676 -36.8301587096585 -2.08775730899643
26.2774463924605 82.4536920747381 171.086480527926 20.9594413844891 -38.98414626282 -1.97783538674947
25.0944537666363 78.07357184657 160.839639427468 16.1485457990271 -42.6397109407374 -1.8011349668358
23.8996574936671 73.7586078210317 151.04197548202 10.2753829377239 -46.2865347092475 -1.59717626340722
23.0404388817021 70.9084703034785 144.99213640534 3.78583881707953 -48.5638068181967 -1.39940538366477
22.7198360998287 70.322780374056 144.53926387133 -2.81350402944328 -48.6812978303457 -1.22682289592745
22.9604002785005 72.0410761158932 149.716586151859 -9.03479879804442 -46.6334504729845 -1.08517253955961
23.6063580048603 75.3508334658574 158.740925469861 -14.4710577680877 -43.1963694607723 -0.973496000043816
24.3605882773518 78.9546242985579 168.375397606891 -18.8469799834478 -39.7104227053669 -0.890687361542877
24.8748463181695 81.3609430645376 174.877064834285 -22.057666666673 -37.6627480584101 -0.837823662524049
31.2612133476882 103.332620140794 215.845853193009 29.8427689582017 -13.5717364756063 -2.69170419557173
29.9951964669192 98.6952750197501 204.514709858899 26.0695792094132 -16.746576875675 -2.52353451946161
28.1038563103882 91.741830473484 187.870574907508 20.4969489405844 -21.8443575558065 -2.25883556502308
26.2231158022023 84.9834674476259 172.135178044066 13.5174379584729 -26.841330556668 -1.95776941630772
24.897636695512 80.5637664178208 162.548056917869 5.72881837614926 -29.9377859429653 -1.66846581713602
24.4351741408494 79.6691152034488 161.939316136597 -2.20225267031724 -30.1072434214134 -1.41515563805685
24.8687916891053 82.3594037451377 170.355888398045 -9.63778025588938 -27.3431967841903 -1.20282819625736
25.9590419607239 87.5770905551389 185.060263669342 -16.0370481946813 -22.6536357376894 -1.02943798681018
27.2314427083453 93.3229597892652 200.897792751968 -21.0204388953702 -17.8077781769118 -0.896694057816568
28.1100408550503 97.2218178198591 211.708440766591 -24.4375983172642 -14.79260697497 -0.812265587238909
35.8368633691035 121.926678341772 258.216251923869 35.1789604090779 5.61371314052837 -3.28408592465568
33.9868104305918 115.150577560548 241.307332305819 31.1220670014872 1.40299770577969 -3.05199437480054
31.227283255443 105.048974221097 216.469664382182 24.7558202470519 -5.17713989566873 -2.687655009032
28.5194917420199 95.3452349518175 193.221911037067 16.5990317803059 -11.5463314143708 -2.27848930952122
26.6536120049857 89.0920852554094 179.24013606701 7.42469385915992 -15.4647463332755 -1.88977490398321
26.0565838475943 87.9079125376026 178.480166379335 -1.93096430143891 -15.6883019758506 -1.5495372963485
26.7727398823396 91.8742433847913 191.003742891999 -10.6747042779068 -12.2105457478136 -1.2594823076759
28.4663315447653 99.5466019849725 212.976842206415 -18.1187607991257 -6.25357580162138 -1.01534853158214
30.4398275059693 108.063889203899 236.83463032639 -23.7517372981656 -0.0143857852471466 -0.823670159107827
31.8080897816757 113.876482233372 253.135960305503 -27.3495920006998 3.98227092139714 -0.703555204833716
40.0379939632748 138.451828156966 297.835048515409 39.7123441565988 19.824642278664 -3.7947034675635
37.6145433433971 129.591428987675 275.274720093177 35.4486320633621 14.8106333636899 -3.50428617108415
33.9853010117061 116.365535270133 242.016690053305 28.3902844473344 7.06278762020171 -3.04652339934122
30.4612088266802 103.7799482028 211.14857776958 19.1866624190044 -0.371208995103106 -2.53759971880115
28.0764478821178 95.7736620902131 192.782173924061 8.77619145299437 -4.91878532255392 -2.05883832054615
27.3658841230201 94.3467919852281 191.893095485952 -1.85724083485708 -5.19050493012622 -1.63976703525356
28.3844384016336 99.6013090401043 208.556859094164 -11.7873880785728 -1.18082577951961 -1.27704310852703
30.710000167661 109.753577832777 237.947037656285 -20.1917417250142 5.74490288412559 -0.963665141292789
33.4225300714803 121.101337288803 270.088404348013 -26.4211221433076 13.0693150675874 -0.712386066143137
35.3023325821368 128.848011279069 291.985981957965 -30.1578342212019 17.821213250386 -0.557078455497798
42.6927789936745 148.775580716739 323.057108697969 42.4642097315172 28.0332357025246 -4.11077696511128
39.9039430793462 138.620758777683 296.819573642571 38.1108573771658 22.7468191540166 -3.78635382565402
35.709553207086 123.418475071984 258.000436806262 30.6564594228871 14.5983727928476 -3.27238862785334
31.6563077522813 109.016712164361 222.12222880059 20.8249253521345 6.80881376663827 -2.70311794325296
28.937055822954 99.911159853746 200.892367553425 9.65307586627173 2.05216835020126 -2.16909981516901
28.1545630943204 98.3303211790274 199.921677877963 -1.78387645539954 1.74983232149601 -1.69987033602639
29.3720583242401 104.39279730813 219.295966729698 -12.4724448366524 5.90680891310703 -1.28855517447304
32.1154818513666 116.118796853208 253.573183966147 -21.4982877649209 13.1271826363059 -0.926897382004815
35.3197878547568 129.278020859474 291.198594049572 -28.1148704399486 20.8002625326973 -0.633172747867127
37.5364784227796 138.248081115836 316.749322901685 -31.9337496944076 25.7955798521668 -0.453142769679975
43.6215511541409 150.203157041783 323.900697816027 43.5919102220107 53.2178214475057 -4.31201579845153
41.001342400416 140.282387471425 297.80852959521 39.5164952879102 53.2115003706027 -4.02053699222737
37.0656686637679 125.438064919466 259.216330241198 32.4921264586576 53.1829920677054 -3.55660458585355
33.2419729545918 111.335668223233 223.540806999817 23.0957581445989 53.0902700219023 -3.02855299313149
30.6341385506831 102.344691624177 202.41187081695 12.2254873663297 52.8980647640354 -2.50918199234191
29.8070286492139 100.650418889865 201.407144309867 0.866482741536137 52.5872546435956 -2.02225693157816
30.8364658544335 106.403476809106 220.622034324277 -9.98977855994148 52.1652243527339 -1.56591267267074
33.3046668507384 117.714014736584 254.661701333496 -19.371019427585 51.680053910676 -1.1449662223638
36.2351724150765 130.476962035329 292.04863068987 -26.391315537997 51.2302805601509 -0.795295082041707
38.2752222533059 139.192642850942 317.447831034405 -30.474182156528 50.9439127870454 -0.57923517905071
41.2600741693504 140.331054844351 298.83126413739 41.1850327749687 53.2788020988123 -4.06840305278894
38.9836444781859 131.66224800176 276.37622377813 37.1985186349164 53.270686536008 -3.80620297297189
35.5851603077766 118.741183988205 243.29117887447 30.5637364731282 53.2445314389881 -3.39279232003635
32.2638758439964 106.402715527105 212.575381019392 21.7933204120518 53.1609083043873 -2.91926601496507
29.9702852114881 98.4682380989382 194.276916557546 11.6926904087207 52.9866868090153 -2.44974955619628
29.2040398908664 96.899714387549 193.345453927023 1.15663184259717 52.7045219175608 -2.00841593399413
30.0334798923038 101.833264456359 209.86671320535 -8.91208723703972 52.322457492713 -1.59730878045771
32.0912080247442 111.573023664868 239.055044307367 -17.635969240177 51.8855641780945 -1.22260403799559
34.5404899131482 122.533357430795 270.998634537812 -24.2321604220922 51.4821065896251 -0.914098529417521
36.2489844266866 130.026736777758 292.772349750896 -28.2036881874417 51.2234335114528 -0.721030436639846
37.562833213182 124.581967889325 259.435416730472 37.2409850466886 53.3886923241118 -3.68542252623707
35.8115949060678 117.907137902498 242.568483813361 33.4487130705288 53.3744764479046 -3.46974161104123
33.2209878260912 107.999274077365 217.82287235572 27.4758908503476 53.3467793084771 -3.13536690553857
30.6588052777237 98.4387899423339 194.653630800126 19.7276731384497 53.2724241447759 -2.74794524936963
28.8442961384403 92.1799394537262 180.6919614574 10.8615543935447 53.123556167549 -2.35771146259403
28.1747171473887 90.811064614995 179.876905482871 1.63291320040887 52.8865843311621 -1.98820160703235
28.7075397428047 94.4471577797905 192.280162601969 -7.18803231869205 52.570366827807 -1.64645561714728
30.1557050734288 101.722200187489 214.098901586978 -14.8659674823516 52.2139591554718 -1.340417885969
31.8924242962925 109.873101708211 237.813001527813 -20.7736828496662 51.8880074644622 -1.09160641673854
33.1035088038008 115.436004483651 254.027861078639 -24.534155995279 51.6771347989589 -0.931858044957497
33.6545707420073 107.016365853958 217.229089257702 32.6738462161191 53.5485959727791 -3.27255974559508
32.4230976072397 102.357312058024 205.866267090318 29.1567249539603 53.5274646824803 -3.10369740552452
30.6205757083252 95.4508211235155 189.225332566847 23.9480442225269 53.4970627571974 -2.84849741615364
28.8108206920253 88.6979290082175 173.487851910698 17.3527386303596 53.4317884866606 -2.54966084603278
27.4834593387694 84.1671873610808 163.866793865677 9.8755984311843 53.3103180012795 -2.24328616382451
26.9237345812144 83.0247185953536 163.184416809232 2.11502675440484 53.1231719109348 -1.95032601301156
27.176916155525 85.3615396256316 171.496867110109 -5.31240712914409 52.8790378762176 -1.68079835792984
28.0437917051859 90.1855737219829 186.087854145409 -11.8288468462036 52.6090467660106 -1.44324615272355
29.1054054282272 95.5739106537061 201.829644161609 -16.9625808367163 52.3650681878032 -1.25165898041015
29.8390340684122 99.213426736444 212.588049418337 -20.4425630897395 52.2060017032143 -1.12351814839677
30.2347475843238 90.2017175884018 179.342248219825 28.1336718438303 53.7547576817766 -2.89836684115326
29.4199588094017 87.1847153850088 172.329276213958 24.9428811854677 53.7284867803786 -2.76678813198469
28.2387502647523 82.6844998175061 161.999944110489 20.4866156201848 53.6965234011641 -2.57496542819184
27.0324746984507 78.2152750148088 152.122598009059 14.9932014628849 53.6403285737178 -2.34923743197407
26.108898897216 75.124403026293 145.983423207481 8.83719558209354 53.5447173956709 -2.11422493566019
25.6559476345451 74.2011781361756 145.430683911093 2.47020125787948 53.4036218781123 -1.88705178252376
25.7073821026146 75.5137706186666 150.506022867527 -3.63966061101871 53.2245366813293 -1.67817049090033
26.1391437667185 78.4023971330174 159.439589451686 -9.05964808178937 53.0305073529844 -1.49549529062442
26.6955863275753 81.6267352190783 169.008310032875 -13.4464539496534 52.8574159227972 -1.34761904477505
27.0666767775944 83.7384795682857 175.480740739235 -16.6051318483094 52.7443427696491 -1.24294842419265
27.553861976067 75.0808222160886 148.262282625312 23.9429452164326 54.0004451868303 -2.58781890149949
27.0366658644351 73.2464737119616 144.265425456808 21.0995604077976 53.9719796284144 -2.48089019092224
26.2909674998178 70.4553385306979 138.252328417312 17.3288294767551 53.9406909266761 -2.33228334975095
25.5143757881576 67.6281336140251 132.419237573971 12.8026226182377 53.8937581186994 -2.15802416965289
24.8896673761729 65.5997548827153 128.720786607443 7.79393418842692 53.8209157653894 -1.974574180236
24.5328545896099 64.8728481041692 128.28571296131 2.63276798890335 53.7184910822498 -1.79517430454896
24.4680750934145 65.4963393801915 131.143626351957 -2.3382620830409 53.5923060601347 -1.6292160226674
24.6249778353668 67.0603819629666 136.221654874598 -6.80489463985673 53.4584493344638 -1.48347310410547
24.8583191200515 68.8069489801684 141.610733587777 -10.5205901113376 53.3407765326311 -1.36329510142401
24.9942617184381 69.8646729968893 145.14308819102 -13.3423795354492 53.2645999852435 -1.27236086603784
25.6160418514279 61.7092827732014 123.941391618275 20.2192450917667 54.2760203168516 -2.3427235678844
25.298737782238 60.6616632571196 121.859984397672 17.7168465391098 54.2485298468858 -2.24796414734375
24.8396727321862 59.0007479081309 118.563103977743 14.541997940005 54.2203944020474 -2.12344812390351
24.3501507419098 57.2729077390785 115.292818721243 10.8239578214606 54.1830332951829 -1.97915072766438
23.9347030300996 55.9774922329563 113.164653614818 6.75982601289738 54.1297334335504 -1.82624978441154
23.6618376508002 55.4206875088608 112.833514294313 2.58653404933316 54.0583135942618 -1.67487144729178
23.5482058306863 55.6363965966225 114.319676286605 -1.45007307661953 53.9729262771706 -1.53303351164093
23.5568877356173 56.3828364091611 117.006658671273 -5.12508200078217 53.8842873093278 -1.40654252485648
23.6096967251115 57.2145768320263 119.810891210442 -8.26176049408179 53.807797770903 -1.29919047659943
23.6129690383429 57.6215754743176 121.511608061575 -10.7534356588992 53.7595999662765 -1.21273231634921
24.3400305138202 49.8577098088157 105.474630145781 16.9879615687101 54.5681840266888 -2.15835708922368
24.1537158430959 49.3023386017552 104.527693487477 14.7981732495931 54.5446265512395 -2.06435096308807
23.8780589829573 48.3559936687522 102.839604439731 12.1214174318519 54.5220390647457 -1.94709816674547
23.5752903561967 47.3353491145007 101.099250933584 9.05417894626344 54.4947552654618 -1.81327892646605
23.3042537806101 46.5300331673293 99.9259786083513 5.7383752322231 54.4584042234782 -1.67101054270279
23.1044966006135 46.1198165736683 99.6868135451099 2.34354027515182 54.4116100432898 -1.52844107954202
22.9870187146038 46.127278406969 100.394953606775 -0.954334117964365 54.3570862810649 -1.39268379514304
22.9332097831109 46.4156409187865 101.708500155141 -3.99397422570324 54.3016659784924 -1.2691872995922
22.9019426822027 46.7316952232987 103.029386450223 -6.64754274357424 54.2550303369504 -1.16145495272075
22.8434069501781 46.7843403745962 103.68366004916 -8.83433699374994 54.2273139736498 -1.07100334282552
23.6366930685167 39.3048531338512 91.9038817572635 14.2437558143416 54.8593016138996 -2.03177552811771
23.5362210910045 39.0403860446768 91.5825307459458 12.323188736718 54.8423058217334 -1.92812622213819
23.3769458119518 38.532401936067 90.794119663057 10.0454797459394 54.8276054485407 -1.80318217099412
23.1951946522843 37.9581615577271 89.9207156357145 7.48209422514815 54.8112912465084 -1.66213615367629
23.0251852775848 37.4793015178809 89.3043116609097 4.73608410536447 54.7903027122449 -1.51176945228526
22.8901012221259 37.196940335715 89.1482959402742 1.9306579219913 54.7635334964178 -1.35951472441133
22.7966394685561 37.1251102670219 89.4603914983414 -0.805608112026257 54.732518731515 -1.21248526440666
22.7343771468757 37.1894238919599 90.0519434736933 -3.35421426483132 54.7014144599443 -1.07665221561664
22.6799665516342 37.2510010526106 90.5935496033472 -5.62016657661555 54.676172563894 -0.956295464409913
22.6048981039906 37.1489368846935 90.7122370776946 -7.54109705610771 54.6630901840671 -0.853792515387527
23.4362023716546 29.9345260018122 82.4882641536341 11.9765310926096 55.1271348102703 -1.96486983840546
23.3917985228993 29.8318864774446 82.4745276814408 10.2734801374623 55.1191384918358 -1.84188435432487
23.3049191429709 29.5872896766147 82.1448650563972 8.2982439408245 55.1149236085462 -1.69527530549225
23.2009477608353 29.2940907017711 81.7255241945453 6.10380628841083 55.1112122578502 -1.53005367281911
23.1032556159064 29.0369548167621 81.4173571218604 3.76732473450361 55.1052617193002 -1.35312074232385
23.027076084975 28.8688851528788 81.3392679074868 1.38257370414271 55.0957155427246 -1.1725335232411
22.9756667067559 28.7972126461916 81.494462187532 -0.951178338095233 55.0831193657136 -0.996591078210919
22.939949751264 28.7827970502121 81.7700876229138 -3.14149339919161 55.0699053203062 -0.8329045044151
22.9016865553542 28.7525571165818 81.9703225701873 -5.11350625073701 55.0598188474566 -0.687610993439113
22.8390986307792 28.6213065715547 81.8724301285124 -6.81682998034917 55.0569549183268 -0.564858768810751
23.6947212478287 21.7438336960717 76.7496036233416 10.1796531218858 55.3449435814252 -1.96507199899954
23.6834564515533 21.7241372204265 76.8376147189897 8.63966751551378 55.3486626973092 -1.81340044448528
23.6357195160988 21.6338088152668 76.6782765171104 6.87500442861025 55.3584881351636 -1.63116265004483
23.5773086540909 21.5178522587388 76.4422612493653 4.92579104957815 55.3704146374008 -1.42430502019241
23.5311499315817 21.416519059906 76.2797891506601 2.853895701086 55.3808068861154 -1.20125969313428
23.5108247117277 21.3542493961689 76.278268141891 0.737491751779748 55.3873784459942 -0.972189892206829
23.5165822371388 21.3326924704381 76.4367600884561 -1.33852052720145 55.3897632542075 -0.74804125682201
23.5351605352647 21.3302615462259 76.6658536467901 -3.29390859233514 55.3895194664133 -0.539481694756986
23.5435372733218 21.3084560054977 76.8131057691314 -5.06327471509863 55.3895888943261 -0.355808036178973
23.5154506815295 21.2228182258674 76.7056774221095 -6.60249296154708 55.3933991335727 -0.203943441175905
24.3957366051382 14.8206815472439 74.4513755525995 8.85060822634135 55.4817259281839 -2.0452634347045
24.3933967173718 14.8335084814515 74.4779137350702 7.42075321204347 55.5010911052135 -1.85553598278473
24.3511006993441 14.8230865720546 74.256996497293 5.78067968638106 55.530744010536 -1.6227114516764
24.3066626716731 14.8128628679261 73.986578689322 3.96250376285387 55.5639220105346 -1.35485760724537
24.2930437142292 14.8227476062915 73.8406841862737 2.02188879233837 55.5942649033808 -1.06352515261143
24.3283257102914 14.8627843251066 73.9185877355332 0.0333786636867562 55.6174757108498 -0.762726992387662
24.4097922539945 14.9292273441655 74.2150446948779 -1.91940533570492 55.6322340509404 -0.467860103553602
24.5138782340222 15.0043635582436 74.6203164156732 -3.75614728503196 55.6402097294584 -0.194485365140387
24.6022173922829 15.0604753652485 74.9503430136644 -5.41130478313655 55.645263295394 0.0431970365237995
24.6323028177978 15.0670975056147 74.9987274920059 -6.84161343864525 55.652085944933 0.234137286144464
25.5515593192838 9.31681047309914 75.5730375985049 7.98900129463054 55.5023581925274 -2.22348187093892
25.5245217758711 9.31755921092637 75.3546274025767 6.62101561318852 55.5440358893468 -1.9859417748162
25.4423511861267 9.31749053771616 74.811728789279 5.02600417001351 55.6036072530968 -1.68549300202691
25.3705839891194 9.34630579845932 74.2637037643441 3.23229292743541 55.6681392543477 -1.33387678315103
25.3662348368845 9.42795385634346 73.9924297672849 1.29768090353679 55.7254702406661 -0.947781807065548
25.4598547602004 9.57187832681654 74.157324786273 -0.695708606754588 55.7674741817813 -0.547202893395613
25.6454426227942 9.76854488859362 74.7481731117452 -2.65310307975382 55.7917220819682 -0.154202168687208
25.8804801751419 9.98949612549397 75.5851945010088 -4.48226489760666 55.8014604234891 0.208375324084397
26.0965147591904 10.1925998545805 76.3670808010283 -6.10812977074914 55.804114909918 0.518967944790044
26.2185116196625 10.3330166662524 76.7583963324232 -7.48302051802497 55.8086459093748 0.760380593678887
27.204786657898 5.42560701653998 80.2903015164079 7.59371158879953 55.3678029354584 -2.52228512690955
27.1014848929234 5.35099932153401 79.5630939398954 6.24639615948397 55.4433067930293 -2.22643700152055
26.9102005237987 5.26470453069816 78.3256683225837 4.62343565767175 55.5501827224196 -1.83807307680995
26.7486590215404 5.24192168958855 77.1542100802693 2.75326602937196 55.6634137645299 -1.3749832851135
26.7193851877384 5.3442578681229 76.5576271254221 0.704217073717273 55.7598145335578 -0.861770461223578
26.8772387374245 5.59884492184483 76.8222882516591 -1.42261508729829 55.824443101961 -0.326996829443346
27.2122904728379 5.98933249268202 77.9319169878409 -3.50860040044619 55.8535309051338 0.198044345633158
27.6498444488435 6.45612123634764 79.5674314693523 -5.43730457422962 55.854302784736 0.680201256536107
28.0684100954372 6.90699432853569 81.1882156458854 -7.11428362055811 55.8421511774827 1.08701792819948
28.3347600876668 7.24210358938075 82.1918055107722 -8.48207442468031 55.8353677778635 1.39196033114261
29.423984071984 3.3601840389134 88.9329299463777 7.65857385430411 55.0368087996498 -2.96658763508058
29.1664728750301 3.10324780044497 87.2969099522033 6.29965627171727 55.1649073806816 -2.6009549119944
28.7596545540758 2.77326479658816 84.7965758479845 4.58216292980352 55.3474159201405 -2.10006068248184
28.4125226069564 2.55393340312943 82.4766549542374 2.53886485954183 55.537213426452 -1.49170160599253
28.3061689611718 2.59674460105468 81.2529699805844 0.25794113293619 55.6916184196441 -0.812330738085111
28.5372525964351 2.97372326473543 81.6354087198848 -2.12835274391159 55.7843285211923 -0.101981079777737
29.0910613484002 3.66018219476044 83.6003513188959 -4.46417306296906 55.8100163689855 0.59628328359479
29.8412443201844 4.53490447420525 86.5895895961954 -6.59573801553915 55.7837040995771 1.23549186015287
30.5777670931129 5.39985855173051 89.6387480159894 -8.39825317682577 55.7358989317723 1.76725337491343
31.0679396554312 6.03452995316539 91.6620260828123 -9.79855786449814 55.7026803121133 2.15049000685146
32.2787156722504 3.30766948056653 101.837325699272 8.16294055442371 54.4733071703679 -3.57683805790595
31.757697533896 2.69875349173824 98.7220375154869 6.77035488504789 54.6816690380387 -3.12913996256661
30.9820902213981 1.87846609093266 94.1338532543389 4.89864707495523 54.9819344506511 -2.48658790148933
30.3117796807064 1.23865974214874 89.9091543822952 2.5907247728015 55.2889408588058 -1.69363384177824
30.0535655288002 1.09862065365104 87.6273482793202 -0.0343432056621826 55.5279991054757 -0.80403024786876
30.3690656374309 1.613180856095 88.1493113867447 -2.8004263102673 55.6554148133695 0.128050035447316
31.2379992390837 2.74769416185314 91.4431389030292 -5.50133894083959 55.664266869087 1.04620004650736
32.4569805194393 4.27750000050151 96.5806589453515 -7.93252430240198 55.5827661309063 1.88625952284027
33.6767536643483 5.81573354958579 101.910520229852 -9.92643448013971 55.4671233913646 2.57704699837462
34.5017985356538 6.91695303014474 105.53270639985 -11.3869058171283 55.384475680071 3.05456218265443
35.7651573463771 5.30713875945882 118.931812473757 9.04958771344986 53.6681310021872 -4.35144635204367
34.8481431465773 4.11851316582072 113.635065816766 7.61175840159144 53.9914556569482 -3.81008599425099
33.5122273698494 2.47465174663015 105.918339489652 5.53599151520044 54.4632042612676 -2.99516455387845
32.3487160305112 1.11623296139397 98.8495198462467 2.88440283054209 54.9378324442344 -1.97800569504785
31.8468098041495 0.629956648173434 94.9832214916496 -0.180332109769506 55.2930627791611 -0.836400366342676
32.2572882085563 1.29640717831683 95.6652743991342 -3.42701266543887 55.4615724040325 0.360021172426123
33.5540700125175 3.0700125385966 100.855724942728 -6.58919786916459 55.4352235701323 1.54235599600115
35.4308937730482 5.5764312510328 109.12041688636 -9.40042539581449 55.2614933389895 2.62736755883405
37.3382367379057 8.13406993992957 117.801338541383 -11.6374282176932 55.0354842798928 3.51291872688887
38.6315135208042 9.92478518564656 123.732646006424 -13.1713891723069 54.8736995901855 4.09979778710019
39.6506122357146 8.98684815826055 138.873448610104 10.1818516028784 52.6849860208781 -5.23191562423125
38.2216916618326 6.99434076551253 130.772713183402 8.69677662202318 53.1544182052876 -4.59070465152046
36.1515916558486 4.19208491158253 118.972584630013 6.38671406524882 53.8472656557337 -3.58175556307028
34.3446883522594 1.82213985160646 108.225274649194 3.34528188642065 54.5338649763874 -2.31536647711757
33.5190501164026 0.83007520838912 102.322086664576 -0.209786008803367 55.0307996872483 -0.899414179226116
34.0285478485298 1.6528616012405 103.1731968614 -3.98695461961035 55.2436211369987 0.582292958637075
35.842056173899 4.23454003254136 110.732585662368 -7.65764791226337 55.1638321214249 2.05246212058785
38.536583780867 8.01973944257677 122.981727693073 -10.8896225230649 54.862371748638 3.41001448872828
41.312152945436 11.935363212595 135.987524393751 -13.3943939109065 54.4846959935846 4.51506585605495
43.1868848141987 14.6297846677582 144.851970555113 -14.9997974497083 54.2157874974399 5.21940847964606
43.2778503316422 13.2130437171954 157.954037191456 11.2924604101213 51.7194078180985 -6.06036768300286
41.3236331457511 10.3438505234795 146.971014404358 9.76668470408159 52.3389024782394 -5.32831127550643
38.4905414655689 6.26291176047625 130.916507190076 7.23327651430548 53.2616983033976 -4.13518803110023
36.0209359120463 2.78208607483827 116.379293992322 3.82587083794775 54.1649124821425 -2.63605315332032
34.861165797078 1.22737876528113 108.398051457314 -0.180728968206007 54.802566812906 -0.969483927789335
35.4586574285467 2.18809365411622 109.400462334874 -4.44048572976041 55.0555076327289 0.770276476158266
37.7787205109825 5.59997060639486 119.337233011278 -8.57228596539894 54.9157375207553 2.50284117257829
41.2935314565227 10.7340151764657 135.656740966601 -12.1867755325354 54.476591587874 4.11385328967769
44.953394844682 16.1044832696898 153.140178396323 -14.9331323452403 53.9352298673334 5.42606018600785
47.4117020369188 19.7549642222791 164.999665738758 -16.592538979044 53.552229986973 6.23689658142172
45.5872114549657 16.0823841770698 170.200324392995 11.998314599356 51.0941068346778 -6.58721564794804
43.2898830146055 12.588054724795 157.3105698016 10.4470903278926 51.8140674447222 -5.7989448974582
39.9518831664152 7.58315550950185 138.40180584577 7.76731632440951 52.892979528937 -4.48745616890917
37.0457859338424 3.29838491298182 121.331733517101 4.12306043549471 53.9424184081444 -2.83899079762525
35.666822677439 1.3323888290735 111.968182450405 -0.171319572585094 54.673911506056 -1.01280897637397
36.3199736487905 2.38028329109798 113.066363510139 -4.73399380946518 54.9522736726455 0.890245678915633
38.9680767193363 6.37195046271013 124.574823541159 -9.15066998879694 54.7699331895158 2.78825995707165
43.0182996834792 12.4582339755777 143.604400690719 -12.997232651004 54.2349455532529 4.55905161884257
47.2581049988166 18.8598719112999 164.082063437838 -15.8851532731928 53.579817505233 6.00139660338841
50.0931047088521 23.1792790108929 177.915314662341 -17.5672818222657 53.1185927683486 6.87633716083018
19.7824931479294 27.9411241984954 119.320300710562 4.27520567559363 -197.353003936191 0.978119082361081
20.212214705774 29.034860300756 119.840389325277 1.79940824881089 -197.319907253702 0.919495268249214
20.6158411611915 30.0465076435422 119.819652375668 -1.07798949922691 -197.406307726081 0.856061612559158
21.0352789480035 31.1028513147364 119.640597132944 -4.27430294105776 -197.515477946801 0.788193078539612
21.5008968119951 32.2985825036089 119.635943989429 -7.67196748300176 -197.562376938246 0.716976440303007
22.0203333629997 33.6623508978973 119.993296199046 -11.1315072918751 -197.498296042245 0.644159635742274
22.5735262234811 35.1411279818081 120.699215269561 -14.5094135733708 -197.324857969418 0.571777945415067
23.1157869900372 36.6082326981233 121.541380554907 -17.6767671005235 -197.093599514561 0.501647163966396
23.5879252746533 37.892462933722 122.168089304819 -20.5340938226212 -196.891343120985 0.434973287210419
23.9300780010767 38.8190686817331 122.185299312587 -23.0192250529063 -196.815416368941 0.372239907361542
20.4662738835402 38.5086260460245 124.504747116315 7.1569116573002 -160.626456205821 0.285445231750253
20.7400393701899 39.165116724622 124.621020543861 4.63005578886479 -160.719926851438 0.257834701460007
20.954063946151 39.58453511856 124.069238406719 1.6393625795425 -161.181840670364 0.237497942931439
21.163578113413 39.9933075488787 123.36656300753 -1.71421005020076 -161.710801010218 0.219419953257081
21.4132950982803 40.5807977913948 122.969402026889 -5.28932623142038 -162.039240938691 0.199363551135688
21.7236330452707 41.4413623583195 123.141568255426 -8.92265763400801 -162.011133457965 0.174939758288964
22.0844521134762 42.5455542036573 123.878673894045 -12.4512979930586 -161.626416890401 0.145758311552572
22.4578648171321 43.7476133324738 124.909966669527 -15.7342565833437 -161.040575513429 0.112854525319179
22.7887284518748 44.8257055209671 125.776542878491 -18.6684713673553 -160.519688770822 0.0778556372867308
23.0192659329926 45.5426525233528 125.963241848711 -21.196200620034 -160.362932501558 0.0423076218893713
21.9798713475423 51.0220718205649 136.857113383066 10.8141108172862 -125.092545404379 -0.385411185761408
22.0626158724006 51.097545811011 136.132823966389 8.13992381748348 -125.47518351723 -0.378956618807945
22.0360072172173 50.7301615857812 134.435854659857 4.87283141003726 -126.495402035654 -0.351949845333686
21.9927028731229 50.3259207374656 132.636733403469 1.14593450800411 -127.602618829146 -0.315681812761044
22.0128069598026 50.2393768118026 131.512176527785 -2.85362498557795 -128.305001413932 -0.280418185167288
22.1407474542022 50.6687437155896 131.515569756506 -6.91315559038284 -128.314747947609 -0.252989605534785
22.3744321349729 51.6028480729493 132.65064307909 -10.8253070154946 -127.630096538408 -0.236224672990476
22.6681269310471 52.8290105412979 134.473170235259 -14.4154818611015 -126.534751762132 -0.229857811769842
22.9471428646994 53.997020354002 136.219193864133 -17.5617586106038 -125.515278222927 -0.23201006935335
23.1302060310354 54.7232477774732 137.032930610813 -20.2042307373449 -125.116503706817 -0.24042200127118
24.3212216848591 65.5293628338879 156.788267783196 15.2121726274937 -91.4105062349096 -1.04864279559278
24.1595869835967 64.7909990133238 154.576997520787 12.2996542498574 -92.3309683511752 -1.00198749473873
23.8124914125521 63.3126042594356 150.821421016697 8.58511467226419 -94.1999489696183 -0.918294859551733
23.4433766067194 61.802118161224 147.070771169074 4.25109227702787 -96.1410996586712 -0.817271841829188
23.1973570745566 60.8882508184082 144.712543989134 -0.442132116362228 -97.3675603861469 -0.717000102011072
23.1593518613746 60.9336533662375 144.554594989976 -5.20211917706765 -97.4191693628596 -0.629642448924398
23.3347123987135 61.9430731564866 146.60905387325 -9.74802012891532 -96.2923042131501 -0.560640792914654
23.6524109249056 63.5723583426954 150.093976438714 -13.8464816911063 -94.4389032439322 -0.510483712086494
23.9881297889173 65.2316514371159 153.650586159513 -17.3384637936893 -92.6356883733312 -0.477240885688074
24.2034935782142 66.2674570523195 155.75738519494 -20.1543947818423 -91.7484091060976 -0.458373567574452
27.5303333478287 82.2208037988531 185.036487490668 20.347385493948 -60.0491125499115 -1.72162230317254
27.0408032746445 80.3168197346688 180.372547049024 17.1189930982169 -61.811931300737 -1.62581651831614
26.2454751195272 77.2189011698915 173.165735558837 12.7780431432398 -64.9075019638051 -1.47077176912728
25.4297103459042 74.1292360114948 166.156496948491 7.57995118736813 -68.0213945248911 -1.28844262190858
24.84838958353 72.1184133033756 161.788749476976 1.89377692094849 -69.9718177434298 -1.10776236736022
24.6515543587251 71.8048286986791 161.468404405471 -3.87152646714903 -70.0717600824112 -0.947535230008604
24.8525097127957 73.2093105978209 165.217402968469 -9.32774790737275 -68.3155374194897 -0.815905433073269
25.3315806499569 75.7660281080545 171.675425084371 -14.1522773125555 -65.3769225228323 -0.714038303766307
25.8717121600478 78.4802918624268 178.446037097753 -18.1247168287585 -62.4207872002898 -0.640431943394671
26.2274139768712 80.2386967719671 182.830995326558 -21.1550972770084 -60.7437581662243 -0.59322010099038
31.6520445370731 101.29914648423 222.321479162753 26.2094401871782 -31.3452585387233 -2.42110304486938
30.7165625765167 97.7538756973442 213.872577749713 22.6124408904818 -34.2641626328081 -2.26522493310759
29.2857682098875 92.3139578306933 201.22229417646 17.4642924818846 -39.0098366981067 -2.01927368602927
27.8442135605123 86.9652871388685 189.084131957885 11.1267639678987 -43.6823983798996 -1.73355019571802
26.8210148446163 83.459866698838 181.603360212721 4.12404654647853 -46.5838432942691 -1.45223128193411
26.4647416948247 82.7938820968548 181.112518456687 -2.97658861835961 -46.7407565056711 -1.2021205710195
26.7980142538209 85.0063043585523 187.645645153987 -9.64350385522648 -44.1453516583589 -0.993638565752733
27.6222979838528 89.1929356736031 198.940402407461 -15.4291720210497 -39.7518016247293 -0.828364426870028
28.5671934034612 93.7222137563307 210.92290067503 -20.0179859920093 -35.2314338480933 -0.7063144932367
29.2056036153019 96.7375362588879 218.939373452166 -23.2812047767741 -32.4551297218122 -0.628369464615859
36.6331870070851 122.602063149521 268.356939951739 32.67790445454 -5.70598728598681 -3.15142392510033
35.1137725090563 116.879901604121 254.563440284719 28.698992270711 -10.0258237717052 -2.92497258874567
32.8151663326896 108.227117220529 234.007738362473 22.583579836315 -16.7966834456244 -2.56662273576559
30.5257702709343 99.7996908241377 214.439567985564 14.8458737969729 -23.3715420275674 -2.15347344712005
28.9291308395318 94.3230233027868 202.509178867466 6.22025112276451 -27.422006400143 -1.75027076968206
28.4091333507594 93.3017063844087 201.837092190227 -2.52843210146981 -27.6449119802747 -1.39253447924678
28.9993553999313 96.7956503255131 212.471905122218 -10.6956151725748 -24.030768315925 -1.09151925160725
30.3898219680856 103.439401928201 230.893776543447 -17.6730674246052 -17.8568494719239 -0.848647951513425
31.9823710371265 110.684265544746 250.554922833635 -23.0048707514058 -11.4111249568531 -0.667482866759082
33.0681608167919 115.554181729916 263.787783430544 -26.4919518618851 -7.29445225950797 -0.555462787594202
42.1116536788947 144.832458621222 319.798148497778 39.3170441651673 16.0367525610028 -3.88070382461988
39.9037020372059 136.543872202724 299.410214829209 34.9981877205463 10.2697247362574 -3.57901154377055
36.5371251138099 123.955481156701 268.774648288993 27.8354945714488 1.34106158413738 -3.09367306977486
33.2110306927417 111.776962894786 239.768148450579 18.5445230276742 -7.25209750272302 -2.53716483449988
30.9344123380333 103.954912283865 222.259167121192 8.11757124549636 -12.5086023197341 -1.99918155327112
30.2515576142817 102.584587281491 221.402600011835 -2.46264365808463 -12.8025020820143 -1.52322160203061
31.208025693286 107.748668493062 237.263031852084 -12.3101110053753 -8.1235349452149 -1.11893636058205
33.360623810483 117.544526326147 264.821079543004 -20.6327709100885 -0.0653321454742031 -0.786844348661405
35.8181544184037 128.270320536211 294.348876904031 -26.7868801867324 8.42903312343576 -0.5369031511665
37.4879139910044 135.457350832021 314.079652117093 -30.4597515396625 13.932448540926 -0.388402901712869
47.1547716058015 164.626373991138 367.667744191366 45.135642174055 32.3284288199427 -4.51276399994324
44.2879005507248 153.905767627032 340.786477855578 40.5824098610205 25.4314503637658 -4.14559557926461
39.8547475889233 137.434779365266 299.871821410314 32.4825235715384 14.7464019660331 -3.54249948146202
35.4967830640733 121.566750791952 261.267747080167 21.7629515036921 4.51611929963086 -2.85298360978865
32.5564277584702 111.473552665147 238.14805994187 9.67337468998165 -1.70939081463539 -2.19107274500113
31.7308033440651 109.799383450741 237.127766203777 -2.60516837202641 -2.06815446865499 -1.60593752287735
33.0771174839327 116.649337055802 258.286712183222 -14.0280706181232 3.4499858452521 -1.10374727166496
36.0262596716126 129.625183255442 295.179512552753 -23.6272087759542 13.0206808708885 -0.683955523608503
39.3865471278156 143.868816678562 334.811849932462 -30.5529956437964 23.1704837180784 -0.365225077705891
41.6491820059819 153.327160608354 360.977368662685 -34.3511028053709 29.7528697020853 -0.182604459394326
50.3038489770504 176.772948478182 397.738566240133 48.6674539845405 41.2899299591593 -4.89545683634169
47.0342051016871 164.613110271275 366.799119622667 44.03228977925 34.0113744507479 -4.4932675659123
41.9188375705602 145.738589714955 319.21548244222 35.3971071677097 22.6833436132069 -3.82165412366918
36.8939352252795 127.564120407438 274.340166203644 23.8091766616979 11.8488681669635 -3.0524744685451
33.5238245046009 116.047278285627 247.555055111078 10.6774948752312 5.26303406040808 -2.31422786625989
32.6067850169869 114.178546351988 246.42993427874 -2.68862217482643 4.86264887136268 -1.65902890232856
34.2098799301231 122.082883497339 271.056770357203 -15.1356965189063 10.6581165760256 -1.09093360069154
37.6837588542133 137.058368184289 314.060882783194 -25.5704914006448 20.7542658229667 -0.609875634203339
41.6364124689787 153.506386211414 360.265382102814 -32.9953841657346 31.4850327669337 -0.242474321572371
44.2769182813105 164.340650898729 390.469046210586 -36.8537708584409 38.4207135790401 -0.0366747916189712
50.707446590963 177.377489096776 397.945442731306 49.1916062951713 53.1390741898204 -4.99254248391888
47.6691370178822 165.547519685388 367.110422141076 44.9044607866924 53.1453099703328 -4.64415203068159
42.9017423901803 147.157100462803 319.678305235865 36.827660288925 53.1187854581725 -4.05172858620259
38.1863170132075 129.389657483694 274.927605730678 25.8042908313395 53.0024411441076 -3.34955727031477
34.9732211222815 118.047367666316 248.195080925584 13.0516076629784 52.7512640940416 -2.64041814004525
34.0149636312403 116.073578620304 247.038792239104 -0.242215687295442 52.3434357149239 -1.96834367555672
35.3956069351402 123.636585796537 271.563551634278 -12.9535260790678 51.7924171396038 -1.34436697823969
38.5364074464733 138.144911331775 314.425176746772 -23.9115112071472 51.1661399636931 -0.78668341619757
42.1582477842536 154.152587655388 360.491107568819 -31.924907530309 50.5984660000422 -0.347163228968167
44.5920544818525 164.719790023433 390.608957498636 -36.1745385161968 50.2537810392459 -0.0976827381564327
47.8527546895396 165.669386881457 367.924210756459 46.0416979462613 53.1902943542744 -4.68813248422514
45.190155641551 155.227661652008 341.091310664521 41.828615696737 53.1917613970815 -4.36961473075804
41.066184108868 139.170812893446 300.248813605029 34.2667196253203 53.1661910714619 -3.83875839382876
36.9801835342488 123.6408814536 261.694463044438 24.0957554253597 53.0610042879277 -3.20907307540002
34.1704085878023 113.669996504894 238.579922691029 12.3849494613909 52.8343517252818 -2.57004596399051
33.292927236296 111.863540114344 237.520534253778 0.197481779739153 52.4663885065987 -1.96345356086522
34.4227718499222 118.372090052126 258.609568491168 -11.4533597013071 51.970415407788 -1.40286652011298
37.0578289694922 130.902425730144 295.420850952389 -21.5271696353706 51.4084873597901 -0.905890577880534
40.1095408212652 144.733514812105 334.981433943726 -28.9920640621021 50.8988473594309 -0.515270067382879
42.1772955272489 153.936992994001 361.105607778781 -33.1468769454429 50.5843714240355 -0.287998049249858
43.3323710424872 146.651408016577 320.036335953313 40.9010498376929 53.2931729119376 -4.2030128902132
41.268226041897 138.532361122592 299.622967463486 36.8952567577323 53.2834460843157 -3.93525538713913
38.1288552659425 126.217173294014 268.96485223307 30.2128557180157 53.2530233898005 -3.5030570114667
34.9988211745608 114.24585937019 239.921865668587 21.4182067116423 53.1589468231601 -2.98839289355534
32.8025229739273 106.453873444673 222.363201378232 11.3516886073191 52.9667135564551 -2.46004568596536
32.0512167463438 104.908758443576 221.45520598827 0.891876310918597 52.6609174929522 -1.95542334065833
32.8074215660869 109.736522532669 237.275184847366 -9.10507327018443 52.2547379098886 -1.49131997547628
34.6855211182956 119.124951892092 264.810718277728 -17.7861587124681 51.8001291014709 -1.08467293353287
36.8781679695339 129.481444691632 294.332641161863 -24.354406372366 51.3895443866573 -0.76603635882533
38.3766811871583 136.42902783087 314.068069657985 -28.2922470501213 51.130658427601 -0.572429013758185
38.5241473165747 125.409935574521 268.334192200392 35.1310133356438 53.4469856952487 -3.67994814223189
37.069931227954 119.712104026163 254.438107706836 31.4401333567364 53.4254579235024 -3.46612335125889
34.8973729300629 111.155105495549 233.770735797354 25.7459523575814 53.3890753471541 -3.13438016525889
32.7105153422171 102.770683499247 214.086970148615 18.4505632773647 53.3058858378182 -2.73810775519813
31.1304852372894 97.2046276574168 202.054402763615 10.1705912900403 53.1501957253904 -2.32580730327632
30.5174718660665 95.9455325331949 201.312706498166 1.58580081469418 52.9115076517574 -1.92859812631939
30.9202099703093 99.0920885859839 211.921786471123 -6.62599031683484 52.6018348559009 -1.56423425850119
32.0743652701775 105.350988154576 230.35901959642 -13.8101805134063 52.2612148504219 -1.247952812774
33.4442290794812 112.253253886619 250.059283073555 -19.3931817696948 51.9557398486325 -0.999617359345701
34.3804130505655 116.883420136223 263.331194548936 -23.0199484128488 51.7592699356795 -0.839852777254394
34.2902023056633 105.199656514112 221.623004027285 29.6319148110899 53.6446630038424 -3.20860486293446
33.3351541384223 101.514906774475 212.997519361043 26.3173963141102 53.6146088992005 -3.04002954048409
31.9265631490094 95.9796328396682 200.159562538603 21.5569112949423 53.5746687616995 -2.79022199784696
30.4904895259801 90.4944692401406 187.839876561873 15.6329598511636 53.5026318955449 -2.49214589512599
29.4134587040306 86.7596552258402 180.209413806354 8.98306543426504 53.3808198845747 -2.17836111388496
28.92916860074 85.7660040590737 179.623200378372 2.10843927786889 53.2027878840239 -1.87309844851513
29.073524423403 87.5865456828291 186.125114718061 -4.48279429960118 52.9784338440427 -1.59261151708537
29.6823856124847 91.3725159084507 197.444779510373 -10.3116138105674 52.7365300841386 -1.34964807240107
30.4294199991807 95.5479563027218 209.483658719051 -14.9784163553826 52.5215872150296 -1.15659856118366
30.9274190885541 98.2939620960461 217.556829992012 -18.2424068521603 52.3816684681174 -1.02377503999923
30.9431965689835 87.2391800826759 183.061690544797 24.7769496379212 53.8761681459845 -2.82152149728461
30.3485049659197 85.0199227986416 178.149889420936 21.8553916240451 53.8422274038425 -2.68475193727917
29.4745663205698 81.6279171536144 170.690855733357 17.9079000805539 53.8024474173894 -2.4924881648865
28.5680191214711 78.2100615775999 163.445158155151 13.1347499632025 53.7421033614017 -2.26477912527045
27.856800324818 75.8071495252682 158.88294587475 7.84246055932018 53.6497061789744 -2.02309659163967
27.4834713295029 75.0411642206622 158.431796013971 2.38945311733095 53.5216000626603 -1.78552787320976
27.4733610398282 75.9638433767483 162.122468480645 -2.85743230512554 53.3652585400302 -1.56566337806506
27.7325930249491 78.0528835571828 168.58638716407 -7.55763883436518 53.2002667749797 -1.37373141632563
28.0748857328225 80.3533311601928 175.403597393357 -11.4351372590465 53.0554649849432 -1.21761573973287
28.2812920098912 81.7759552475791 179.84659468396 -14.3233788064841 52.9612851946106 -1.1022273864632
28.495072856982 71.6231631507371 152.710084746207 20.6362276812664 54.1291090107335 -2.5207307645913
28.1423827352035 70.3807665742551 150.179726660406 18.0901402744936 54.0957919697663 -2.40165208912306
27.6179467171904 68.3978533323571 146.115572891176 14.8202167370862 54.0598327389836 -2.24359802517421
27.0606854361174 66.3488683116229 142.081112099441 10.9698827395974 54.0117558378046 -2.05899994999019
26.6002935327679 64.8491993999301 139.483277864549 6.75332236929138 53.9443410238971 -1.86222371360708
26.3201306644746 64.2728552155318 139.146932695987 2.42292739194679 53.8555901576896 -1.66669387787077
26.2374262410612 64.6552212191522 141.092809916781 -1.76167655612422 53.7507423927065 -1.48343929327785
26.3018540722197 65.6901990958235 144.535786625054 -5.56132937608483 53.642573173468 -1.32076141746043
26.4120187743773 66.82073550724 148.102947436436 -8.78443903338927 53.5492727591174 -1.1842340036039
26.44855557895 67.4128634660218 150.254290180041 -11.3127406945229 53.4898062510014 -1.07649439342019
26.8538348411142 58.0701864069692 129.560637154414 17.1646169854069 54.3879465506721 -2.29935150655669
26.6577568214889 57.4358899561043 128.446373786847 14.9541327686373 54.359095094259 -2.18466540795232
26.3537993037502 56.3342304232208 126.394413734137 12.2310247248747 54.3301418381654 -2.04028215873141
26.0196067769327 55.1525456781511 124.273080173125 9.09848059834126 54.2949838958491 -1.87444447866579
25.7278895546853 54.2440727196964 122.86297187149 5.70676878752526 54.2490374634248 -1.69738215415232
25.5263528870571 53.8258843655957 122.625320193148 2.23346800015172 54.1911011183884 -1.51956170857718
25.4262067962636 53.9212442716973 123.573360115466 -1.13797377260377 54.124565442791 -1.35031796863871
25.4012373360924 54.3576744638925 125.27126561727 -4.23885528454589 54.0574592335827 -1.19698365489386
25.3972557127748 54.820359332626 126.96040722794 -6.9340913956592 54.0010228111499 -1.06442225080721
25.3498771642598 54.9494578555731 127.788267982075 -9.13752121659563 53.9669535162067 -0.954874126501352
25.9175582852128 46.2863455588051 112.510484849834 14.2954570824133 54.6331307703583 -2.15231770384612
25.821427214904 46.0073690981722 112.175594482116 12.3680013848374 54.6119304373914 -2.02973076537085
25.6539644382248 45.4372527946066 111.246128842121 10.0710339837881 54.5928640488683 -1.88081652000885
25.4604654041428 44.7916585762145 110.204130620092 7.4789683767897 54.5716482510161 -1.71187602676059
25.2830926690604 44.2664993706142 109.480544775274 4.69877323545052 54.5449899598362 -1.53124043108239
25.1496482464764 43.9829735059929 109.330636028979 1.85772807286782 54.5118140933431 -1.34812905267867
25.066816542919 43.9553326351244 109.761888455327 -0.91164609306169 54.4740331251725 -1.17144762133072
25.0195976169499 44.0896483391293 110.533409145815 -3.48703205800845 54.4365258872411 -1.00874677446862
24.9768776676559 44.2134862346909 111.226744215006 -5.76996519089506 54.4061999406118 -0.86549949913927
24.9014266136142 44.1282714367546 111.36905369613 -7.69562101306041 54.3903258251676 -0.744794531870895
25.6070791789925 36.0873494072837 100.691423911052 11.9746461890634 54.8406242536048 -2.08040694566325
25.5734002841031 36.0021765920758 100.735664775594 10.2721083167083 54.8299697909876 -1.93833385703564
25.4873887206486 35.7433508878706 100.374020031283 8.29125622715044 54.82393075966 -1.76790007764475
25.3806994884911 35.4255490375159 99.8919259251578 6.08621019395259 54.8185908943205 -1.57508232181705
25.2821752943828 35.1522593529355 99.5423417327379 3.73594592622983 54.8106845002028 -1.36815530337237
25.2101611806362 34.9874420103105 99.4744038300343 1.3364033715559 54.7986139754143 -1.15680912842105
25.1677434364091 34.9383553703989 99.6908404202942 -1.01088924641485 54.783068578029 -0.95104651084811
25.1424249226845 34.9547947985364 100.047687186389 -3.21134450049764 54.7670048497573 -0.760055071373958
25.1102726030982 34.9448293461791 100.296330290481 -5.18830868674778 54.7549551615225 -0.59124822636855
25.0431034191466 34.8019747909189 100.154399430584 -6.8902858175461 54.751866651905 -0.449631974766913
25.8737619580899 27.4131228155398 93.5301347311538 10.1680154430428 54.9817677833605 -2.09138879269381
25.8738519944286 27.4232982864659 93.6942401913383 8.63178296129926 54.9849996312426 -1.91851176588734
25.8278970603891 27.3393022947212 93.5378025886409 6.86680062463399 54.9963929870046 -1.70950824839895
25.7681411574445 27.2197347954264 93.275590537924 4.91351799130275 55.0106834205558 -1.47141341658474
25.7231085193559 27.1167045963927 93.0963858467266 2.83482505027701 55.0231097663641 -1.21420202476173
25.7095051922962 27.0614600750319 93.1097968471419 0.71044856337248 55.0307007034848 -0.949881302355261
25.7272510792402 27.0553401278779 93.3141176148116 -1.37289571077281 55.0330262521014 -0.691368920274927
25.7593143243637 27.0693244332892 93.5962495596996 -3.33321606101254 55.0321974706385 -0.45124879071805
25.7764809825995 27.0524383276743 93.7638618024364 -5.10373908145615 55.032145814984 -0.240483937162689
25.7455638756756 26.9460852725721 93.5989915136492 -6.63962104356136 55.0374358998066 -0.0672241757528472
26.7005891867577 20.3058144521001 90.7275016686204 8.85933660033643 55.0232357700272 -2.20028680156188
26.7044407732852 20.348294148509 90.8069367481388 7.43373800752521 55.0453672034113 -1.98508337921583
26.6567983193845 20.3468935321061 90.5655215035513 5.79284250129771 55.0815064826902 -1.71904923488881
26.6050316748914 20.3373745541744 90.2510718446372 3.96883076434656 55.1225060741585 -1.41175735278411
26.5904727619187 20.3503676339089 90.0814326591495 2.01845335381604 55.1598136281532 -1.07685716191789
26.63586835581 20.4019882731306 90.1810001172093 0.0181673195411779 55.187727253364 -0.730828733592155
26.7379604393584 20.4879015313245 90.543334611529 -1.94601492316581 55.2046437927423 -0.391731735543869
26.8674207979944 20.5830830555692 91.031198249214 -3.79133353322028 55.213064806807 -0.0778239274169236
26.9764228737657 20.6477672769073 91.4144513932464 -5.45023892912055 55.2184755328297 0.194200478647505
27.0119656521935 20.6379421373638 91.4349807264087 -6.87837733144545 55.2274660119393 0.411346042555457
28.103179771997 14.8822149757242 92.2303481199562 8.0463399136919 54.9268697596216 -2.42949711433698
28.0692874486477 14.9016828338358 91.9969994734057 6.68104313297097 54.9764164472559 -2.15978716509503
27.9638843853237 14.8981172286019 91.3469128433245 5.07933992053872 55.0500501188259 -1.81537795969777
27.8691213463456 14.9179972762135 90.678014497609 3.26983331586538 55.130513261975 -1.41034277934816
27.856739630003 15.0001333419801 90.342096460893 1.3123375259694 55.2016179718027 -0.964554256892546
27.9655454557551 15.1624017705135 90.538705641193 -0.707736199299719 55.2526433590739 -0.501630886441297
28.188672865058 15.3942666337191 91.2557723118397 -2.69153609173722 55.2806091702586 -0.0475330981454396
28.4735438603139 15.6566636252159 92.2696057922088 -4.54243792705199 55.2902305723653 0.370796890574109
28.7350889816925 15.8901434891211 93.2052071387998 -6.1814358043495 55.2918302080896 0.72779418385634
28.8799801905241 16.0307616814091 93.6453740270366 -7.55841387134268 55.297728314116 1.00301835933476
30.130573878692 11.3108523868078 98.2082565908746 7.73691315206656 54.6496734307827 -2.80854954844269
29.9954314798366 11.2311060406739 97.3368607626992 6.38879061814424 54.7410599068267 -2.47115190005247
29.7465973191757 11.11044066596 95.8175723397073 4.74648302869032 54.8739230649122 -2.02254143558189
29.5315667652026 11.0523438338584 94.3659967377897 2.83964950229938 55.0156243987061 -1.48432906381775
29.4795278866576 11.1441311097501 93.6166617026744 0.740871338610442 55.1358168604855 -0.886210311179658
29.6603497439701 11.4276895952459 93.9281280666905 -1.44269695333906 55.2149821033701 -0.262275142912985
30.0627372942954 11.885016475264 95.2812589857627 -3.58518817960829 55.2484409870868 0.350321294248769
30.5940390562973 12.438039920721 97.2787705052206 -5.56203116989043 55.2461009611714 0.912025613251545
31.1028402004483 12.9644127077379 99.2480965408079 -7.27082304520338 55.2285583668177 1.38376229633326
31.4231906062102 13.3317651994143 100.441861261485 -8.64866606827102 55.2200467629393 1.73346952582906
32.8591166227233 9.78851010061412 109.002585417979 7.94395760619498 54.1457081395336 -3.371900214711
32.5273959916029 9.48445082363198 107.005659206753 6.578843293191 54.3018303685197 -2.95262719353576
32.0037259844894 9.06244087755787 103.918012779803 4.81949190413301 54.5288928645372 -2.36805531255801
31.5496997553653 8.75654827393931 101.034333354429 2.70231296572695 54.766618388414 -1.65242150487363
31.3939164148481 8.76523806271774 99.4980853944696 0.324317250056864 54.9598591486268 -0.850542891154934
31.659761223234 9.18777058815442 99.9496518226152 -2.171292624055 55.0744693612286 -0.0109588321139612
32.3304010455454 9.99679618687195 102.361068066023 -4.6162742707709 55.1037189547604 0.814492832550393
33.2479819600517 11.0375945726744 106.034131964893 -6.84224662284489 55.0674679992592 1.56881897329608
34.1493300906137 12.0572568779691 109.766166727569 -8.70890840181958 55.0054298374972 2.19257353577629
34.7439916049822 12.7773121314933 112.211998663289 -10.1317461298179 54.9640196765726 2.63521250091309
36.3619833754296 10.4895457728167 124.950822740754 8.67264771209213 53.3748841111577 -4.15041545627798
35.7021019446139 9.76756556127299 121.145904713687 7.26719344383635 53.6284356691917 -3.63493812966972
34.7152714770136 8.75834096322552 115.480771853374 5.31709446298547 54.0010751523841 -2.87647456423797
33.8515641358731 7.94281382032597 110.228322441432 2.87418258883056 54.3854291871043 -1.93044413468073
33.4997674787899 7.72538466496295 107.36917858677 0.0751087649085508 54.6855885702384 -0.864490837827706
33.86729885425 8.31041033206175 107.992271589985 -2.8850367144584 54.8447963023376 0.254229420807334
34.9306839062662 9.65910709044539 112.059287033482 -5.78002251079957 54.8540737639254 1.35650977491967
36.4331189639699 11.4869504200639 118.399203811429 -8.38038885288583 54.7500817467289 2.36272083957646
37.9336877941342 13.3080156026944 124.941539573967 -10.4897699461045 54.6049002358868 3.18327690268736
38.9377562411953 14.5744196688639 129.333734952078 -11.9897911542791 54.5032037738165 3.73808721248769
40.6201899140201 13.4292309714013 145.893768864047 9.88700915351008 52.3289762208562 -5.14785097339601
39.4774380064464 12.0363806053369 139.466997520294 8.43039114676307 52.719205142207 -4.5245151633182
37.7940537292449 10.0556302798574 129.960629299337 6.2222615747277 53.3021509806165 -3.55201725677568
36.3092432779343 8.37996164752279 121.170953833957 3.34383714751031 53.8960304408849 -2.3201059233957
35.6473762960719 7.74477229704857 116.327608693242 -0.00921683088013347 54.3436460742124 -0.929446015088818
36.133650761158 8.51664880636747 117.154095533664 -3.57466161120952 54.5567846504013 0.53099931644037
37.7374072928875 10.6439315415122 123.601434651246 -7.05592045533173 54.524445655147 1.97447687322026
40.0662029703482 13.6498669675254 133.835421473703 -10.1466288240142 54.3081563307606 3.29459925943717
42.4191218178843 16.680306653561 144.49345788978 -12.5730152420441 54.0293109531016 4.35921225138256
43.9886961435118 18.7421359261599 151.654678258302 -14.1658411826172 53.8330624477039 5.04247089721842
45.3369504197415 18.1664366585555 170.145623442954 11.4403026597695 51.0870327207099 -6.29244721384974
43.5848308713823 15.8644284613317 160.421890272227 9.93478087988387 51.6463560075439 -5.55855605069372
40.9967190705454 12.5278166633299 145.930648592128 7.42276038419691 52.4982492103494 -4.34375915548784
38.7033639125072 9.64305445425523 132.556322676209 4.0334314908775 53.357390971224 -2.78768265669206
37.630910555842 8.39887524454026 125.148503297572 0.0411700990709581 53.9861927723938 -1.03424926826143
38.2454586368339 9.37071791323728 126.196719921486 -4.2153763397219 54.2588496788191 0.805254578588573
40.5097387586105 12.4942798867813 135.643021323224 -8.36606463192579 54.1631293261975 2.63015764221008
43.8713424606579 17.0512338533743 150.857366787706 -12.0196121164982 53.7916759939378 4.30650226261268
47.2964962862255 21.6870266741702 166.802004442182 -14.8060794487245 53.3308086150021 5.64789578736418
49.5533764140174 24.7697535431235 177.405066773805 -16.4865308820542 53.009461967062 6.46463634154923
49.7050538937377 23.400008233769 193.185606113829 12.9855878602126 49.8867692706743 -7.37618607617279
47.3455544157044 20.1283008168778 180.164430432566 11.4441583591738 50.6142250881353 -6.54765839432265
43.8267410641933 15.3014828500264 160.518421279509 8.63730498297586 51.7431428072304 -5.10338017423671
40.7016786329574 11.0835619799132 142.410663051874 4.75418492723822 52.8736490849392 -3.23999891199437
39.2051213400952 9.15722966264524 132.369360812811 0.154616558595855 53.6837421828386 -1.14757657840821
39.9370811285184 10.3112396018027 133.621457713857 -4.75070096626412 54.0114701639674 1.04336278826558
42.8551651833533 14.4706810147199 146.102902285173 -9.5282681876477 53.8442761287507 3.22382357418157
47.2558342140406 20.6736672412611 166.420047704438 -13.7098303070356 53.3056436175338 5.2362826408317
51.7643380315492 27.0228526820617 187.798851690964 -16.8284830951292 52.6500668265441 6.83826372644363
54.6904424119108 31.1594628671096 201.819062049622 -18.5696938516686 52.1989025827462 7.7695446827197
52.4427718042521 26.9536342128357 207.8089316225 13.9851144903307 49.1178340397325 -8.06322419094205
49.7020043021318 23.0036184114936 192.68300468036 12.4252635399497 49.9533205656819 -7.18105063744714
45.5792708581485 17.1033844423339 169.630479527103 9.42533111908042 51.2669773098325 -5.59198460853129
41.9113644660689 11.9156095782952 148.372924679807 5.21829587904476 52.5794879490815 -3.53121337199978
40.1378796029554 9.48555003925919 136.577402047272 0.224384978986068 53.5105411256523 -1.22062291193905
40.9450866133267 10.7562745502475 137.960196975489 -5.09639452546662 53.8735792023464 1.19565312601453
44.2866585023547 15.6447825076683 152.452519020967 -10.2688503139201 53.6557449716435 3.60256065378345
49.3605771409252 23.0132698440612 176.152940205966 -14.7757778192405 53.001457401119 5.82688948522736
54.5656132578706 30.5693116027899 201.109862883306 -18.089431646537 52.2125642961114 7.58921420120478
57.9048985995077 35.4250166441396 217.299401031009 -19.8500135926975 51.6751778281877 8.58357024111397
23.2162323462969 36.3281083597696 143.754702219307 4.55033098689445 -197.110260265521 1.0211204021862
23.6638978385364 37.4606539212906 144.413839822563 2.08973721596715 -197.0977024556 0.971697706140509
24.0730835943287 38.4785952987833 144.43771944559 -0.777890520505758 -197.212382133508 0.91895508807825
24.4913106585071 39.5252195495724 144.25367167331 -3.96848289985128 -197.350581073464 0.862929967451761
24.9537266368711 40.7093787766171 144.233433354588 -7.36262394156458 -197.420757991784 0.804235740086601
25.4706524098194 42.0676906493863 144.587332273911 -10.8189633033736 -197.370107992991 0.744057080495658
26.0218643186009 43.5466564024067 145.301895846514 -14.1924148470616 -197.199624746959 0.68382899026528
26.5597371196294 45.0108627527393 146.142055131556 -17.352956845994 -196.963754199175 0.624788402821441
27.0202218695591 46.2746399390844 146.717176876234 -20.2005893953368 -196.754829825168 0.567640715966788
27.3379660006477 47.1469775735879 146.588596089934 -22.6732610060597 -196.676465589623 0.512490115057775
23.6149462221716 46.7491599501086 148.603539719371 7.38470303427644 -160.299192439182 0.288564549019968
23.9036440353849 47.4269428900231 148.827968761714 4.86743682150971 -160.444300875912 0.272592320075804
24.1214916795866 47.8304719118162 148.28620967053 1.877191806061 -160.978703051876 0.266613348831132
24.3287348075815 48.2087822969756 147.5486866031 -1.48242970915642 -161.578278466533 0.264715225798858
24.574320714623 48.7709057802203 147.118647298826 -5.06671087892578 -161.95471660312 0.261612783975885
24.8810150040663 49.6223661819743 147.287256949055 -8.70905885824119 -161.939618803123 0.253897677465446
25.2385599807248 50.7333905065395 148.050094004386 -12.2438679209996 -161.532286597803 0.240309195685156
25.6066508554407 51.9468072256918 149.109120892468 -15.528149063682 -160.89936335842 0.221223636950552
25.9262304688086 53.0218349150477 149.958968329475 -18.4576448367031 -160.326638941459 0.19783789425116
26.1351733068907 53.700289970385 150.031835795632 -20.9744061328328 -160.13526342473 0.171475330601856
24.9741374593217 59.4630378929072 161.521149029053 11.0732708924615 -124.48783988528 -0.425562845950691
25.0643229202001 59.5242040275489 160.833568511728 8.39722436688591 -124.974080407633 -0.404281653086647
25.0332548858422 59.0934768152217 159.054568249707 5.10937879881411 -126.140098655153 -0.358041881929324
24.9803352007123 58.61425783591 157.136098224549 1.34875548512382 -127.387012207445 -0.299757363315628
24.9914624006514 58.4742297859576 155.928078544905 -2.69023654903317 -128.179096217776 -0.24151982220285
25.1142775656149 58.8905402752686 155.92695697973 -6.78822989373276 -128.202789525187 -0.191821005018079
25.3465537667755 59.8516467499196 157.136420406037 -10.7324940199929 -127.455581227091 -0.154770166991567
25.639395551217 61.1259685146786 159.069375145125 -14.3442573236197 -126.24549131298 -0.130925608365448
25.9131092834313 62.33198648422 160.889482189451 -17.4986873858077 -125.101712676069 -0.118794852616545
26.0810697673951 63.0520025473331 161.660818942278 -20.1348079786034 -124.61644459015 -0.116158742604255
27.2858801256146 74.5225267293193 182.847526939797 15.6138444500404 -90.2330879841774 -1.13825234587395
27.118831687905 73.7091537706834 180.551431594511 12.6801756425511 -91.3452408617473 -1.07263803006101
26.7506960379896 72.0833962430273 176.548385445373 8.90589307182218 -93.4848550139465 -0.963117458876744
26.3561708490749 70.4176299896359 172.52206277655 4.48610377146053 -95.6836798887094 -0.832052510889414
26.0904542658618 69.3990838125827 169.984924999579 -0.303773896984202 -97.0714262290696 -0.70051086144247
26.0441781743892 69.4241857237517 169.819327311078 -5.15795474427248 -97.1395032885699 -0.583291289441118
26.2225496491637 70.497235622122 172.037406373045 -9.78513184568639 -95.8832919938832 -0.487754022732097
26.5491259058375 72.2407898551208 175.783272975133 -13.9435595538715 -93.8012110180454 -0.415483246274653
26.8911227284302 74.010102363586 179.574915028983 -17.4677726630815 -91.7516613164388 -0.364873538934661
27.1015092124596 75.0933319008882 181.758881404716 -20.2853553549115 -90.691016056919 -0.333118574962218
30.5774553905435 92.0939274384287 213.186962965801 21.0446544094682 -57.9329417407128 -1.86890621738304
30.0638212520013 90.0248088409784 208.263213342101 17.7667097539382 -60.0257195605052 -1.74917624161028
29.2204994313607 86.6476242972297 200.554225186622 13.3014124241257 -63.5923894173807 -1.55966219662165
28.3520978221676 83.272601894936 193.01901435181 7.92875327900314 -67.1550466384668 -1.33643494908872
27.7318830666293 81.0723677135466 188.315777952112 2.047494793204 -69.3830617813345 -1.1131819289326
27.5206848193322 80.725191521322 187.981040452719 -3.90805342565431 -69.5038719418504 -0.912861566649007
27.7317467020461 82.2515246818745 192.036956382679 -9.53030791743199 -67.5103504559716 -0.746547157698534
28.2355206142625 85.0273022194697 198.994021608111 -14.4805524569883 -64.1589631563718 -0.61694907971886
28.799739194303 87.9627376212892 206.245045972167 -18.5251364173684 -60.7608137183983 -0.522783542126441
29.1642839846653 89.8469696284894 210.877820299965 -21.5678842048276 -58.7741841869669 -0.461343363171885
34.8706174973995 112.309778024682 253.024342085528 27.3961895913753 -27.909532117045 -2.63471686028417
33.8888192325227 108.487395011053 244.112001009807 23.7145790490874 -31.3514666858424 -2.44981082078241
32.3723271070543 102.58514986957 230.6188641401 18.3450391343681 -36.8621288217789 -2.15881363679285
30.8368074923708 96.7600826833581 217.594284142383 11.6933806131055 -42.2686864554159 -1.81807010436593
29.7441865509317 92.9366963245657 209.543593631339 4.33864945735808 -45.6223025596414 -1.47917396311537
29.3631912290825 92.2150467869236 209.026437507773 -3.1060647581984 -45.8067115073492 -1.17544640492235
29.7166985901389 94.6342560960817 216.077591049503 -10.0748049287066 -42.8119311934803 -0.921852148744101
30.5883104423987 99.1905847339326 228.210877813938 -16.0903125473035 -37.7305804246265 -0.722299776795701
31.5807972870428 104.092812344117 240.999153103742 -20.8110862820219 -32.4808015596762 -0.576890555049384
32.2437085922626 107.330646406831 249.46081540953 -24.0965560534166 -29.2039140064932 -0.484624287842665
40.0733374601153 134.865693827999 301.694424304044 34.5603860635745 -0.656285577124337 -3.4372666076907
38.4899989298782 128.76431548755 287.285818632091 30.4652757526367 -5.72871191154824 -3.17812076946773
36.0617650091865 119.433331811215 265.511675350067 23.9996587006077 -13.6457094132192 -2.76320795715332
33.622862243131 110.279050305668 244.595206495004 15.7491184802815 -21.3363235651246 -2.27786119245728
31.9130577347325 104.307188951156 231.77434863262 6.54282415428588 -26.075124067218 -1.79809372910099
31.3527085390145 103.197316437031 231.057617828489 -2.77587199239823 -26.3346124552328 -1.36951050571599
31.9764310231302 107.010982221312 242.495436643575 -11.444326547177 -22.1018958810672 -1.0104208298565
33.4427765868519 114.217527970316 262.186669209046 -18.8017015307737 -14.8716680031879 -0.725959751359888
35.1079937753892 122.010528930273 283.008127297793 -24.3445113176069 -7.32270606405405 -0.519733384095303
36.2294894942622 127.190346157347 296.831576737704 -27.854306730617 -2.47663610933742 -0.395539643890219
45.7661927138034 158.23480843794 355.335197955329 42.0356128408501 22.7445350726665 -4.23659602843844
43.4950264490909 149.531216437237 334.364457128277 37.5904034997303 16.0101194720482 -3.90217607828764
39.9603879437621 136.067213373151 302.214650476947 29.9345565928615 5.52220307089252 -3.35006702504665
36.4208822808042 122.881258570355 271.354467476878 19.8854650191894 -4.62170131283103 -2.70279141859312
33.9760996597719 114.349879189694 252.566841116256 8.58572344784378 -10.8404871362356 -2.06636987929618
33.2324667982363 112.848317647728 251.641427433115 -2.85661591193713 -11.1821016850273 -1.49931432061154
34.2380866762838 118.463930262317 268.646554894797 -13.463067766268 -5.63113152006718 -1.0218897488061
36.4971700284642 129.033223184099 297.940347720855 -22.3542497043519 3.90330830717089 -0.640571323192806
39.0452551570324 140.461050364443 328.900629524567 -28.8063324601365 13.9075649118101 -0.365651559390426
40.7469516708345 147.986729227071 349.186819894772 -32.4807849685253 20.3574854841517 -0.210130555315515
50.9535181090631 178.7832224345 404.48657074573 48.6383655428135 40.302515928532 -4.92270536933613
48.0502242661185 167.717160446504 377.308717795878 43.9822182909034 32.3067491173771 -4.52738707466133
43.4303797701867 150.260649696261 334.787907238694 35.2704333204574 19.7335471252229 -3.85156408943186
38.8014500756066 133.143296509812 293.902722481652 23.553485440183 7.57815084780634 -3.05523943703049
35.6372153361937 122.134567639626 269.12416249857 10.2917191534259 0.147529521217431 -2.27408553039617
34.7294666519608 120.2847454583 268.009578188858 -3.15375008806691 -0.270169274211906 -1.57787477704592
36.1402171203509 127.708309274728 290.645289360997 -15.6041781326464 6.34246356931825 -0.987571649219598
39.2212869357607 141.632723312293 329.663059358439 -25.9609993462409 17.7500041582629 -0.511565147302232
42.6744565402519 156.654614489428 370.800358533076 -33.2563576674942 29.735008155288 -0.169647681794812
44.9450322121167 166.388226275365 397.238270224496 -37.0101739815707 37.4010691998422 0.0126351086097686
54.1425005171188 191.137496798517 434.819073583441 52.6191483769507 49.6622466200593 -5.32909982750132
50.871748552184 178.754368338167 403.944322163785 47.9205402774247 41.2742682830408 -4.90504273031206
45.573744468937 158.902257331284 354.861500028221 38.6207489311995 27.947037714179 -4.16050660231853
40.2472241623428 139.366865307851 307.50676497703 25.8916158243701 15.0322526874923 -3.27646906505645
36.6175452155612 126.815869064993 278.833364830697 11.3909447508965 7.13197630756838 -2.40624373947168
35.6040109430333 124.741683191714 277.596736164571 -3.34970762573985 6.66515872177708 -1.62667852611955
37.2809074517132 133.283812861994 303.898104618087 -17.0068673608962 13.6512354301795 -0.960074415239419
40.8988824452196 149.281693450079 349.202921120721 -28.320870658633 25.7316145713448 -0.418013293659075
44.9345646493144 166.489083323705 396.797632423976 -36.1489307106863 38.4086300986441 -0.0292199047007782
47.5545086015054 177.491796867112 426.919587248998 -39.9171140854502 46.4447854109245 0.17034437725099
54.2502805918881 191.294156293032 434.826424306845 52.7694652292966 53.0990459262918 -5.35790605164048
51.2324031949889 179.267723731322 403.953864103873 48.4540374312562 53.1124458255657 -5.00058734354574
46.3169671090324 159.935837283722 354.852438983464 39.7888269533148 53.0842382021264 -4.35508687953334
41.3343854350105 140.840469828556 307.455302139705 27.7088201788107 52.947990702268 -3.5568774328985
37.8827960626571 128.483475695506 278.734124029319 13.6408292151542 52.6533381207968 -2.72672887792781
36.8302816492915 126.309698303326 277.468267751927 -1.03119876585321 52.1798278822299 -1.9307296149832
38.2711209019619 134.509732278494 303.773939389487 -15.01899719934 51.5503138990277 -1.19962898072983
41.5359565131276 150.044103204171 349.114235811416 -26.9659527417396 50.8505435659706 -0.567904905304738
45.2261707341767 166.826065792642 396.755358249249 -35.493918132748 50.2348924075663 -0.0957358603865966
47.6369662905728 177.583784462804 426.907925014215 -39.7222441138805 49.8772006524081 0.152164246106198
51.3454145475821 179.349316861321 404.430915168772 49.1890581697976 53.1412838617799 -5.03329025957693
48.6660579039082 168.585736972609 377.187685468368 44.9061506485348 53.1476354942113 -4.69980757667183
44.3841540456657 151.570154817176 334.551184640464 36.8015081376993 53.1191875255444 -4.11563535498234
40.0545788398956 134.812811783917 293.531043490362 25.7087988411519 52.9954700660413 -3.39715027021538
37.037476991147 123.938893658181 268.64649553389 12.8733284407002 52.7300661873467 -2.64924119821679
36.080433485394 121.962993770323 267.495087915447 -0.485214809267111 52.3040969707879 -1.93198293724152
37.2662665387754 129.052817954512 290.178666477486 -13.2247901962967 51.7384405559974 -1.27525268255709
40.020923578017 142.54805574654 329.311139816541 -24.1581774112396 51.1097061118883 -0.709930944772461
43.1575572010593 157.183801641993 370.580078801011 -32.0984639584958 50.5534916953768 -0.285578034434698
45.2338075502103 166.69069352277 397.105460200519 -36.2777652943937 50.2223644844292 -0.0541550629287435
46.6678380299396 159.527453682698 354.97842486035 43.3141161573831 53.2340695502069 -4.50735022651913
44.5559873617444 151.01093853605 333.868520541715 39.209173860069 53.2257415472699 -4.21875218756368
41.2682055339266 137.834597250511 301.512292734376 32.0875755689181 53.1903953870602 -3.7363979815253
37.9421709423851 124.864626326593 270.435249208856 22.5926782435943 53.0794499507222 -3.14597724960561
35.588157956726 116.368040457522 251.489358877471 11.6891469182403 52.8551628456689 -2.527670300791
34.7788935695191 114.69841802867 250.515126512388 0.362756183239296 52.5028277336064 -1.93219345251786
35.5820157645439 119.993162073566 267.595386364145 -10.4425460976265 52.0410141692945 -1.38831893962677
37.5634672489876 130.182249835877 297.058238454025 -19.7746508748999 51.5319078049268 -0.922507770413599
39.8464856114517 141.275896162864 328.211280665153 -26.7289303433066 51.0804582731229 -0.570168568329571
41.3807495935858 148.593860386339 348.630443873037 -30.7294678289696 50.8027516504658 -0.365603601236818
41.6123332221361 137.05166403108 300.606932180749 36.7668228818596 53.3769378208326 -3.93381099926434
40.1041709694159 130.984454922873 285.991154020123 32.9786166790737 53.3535754473836 -3.6967122730754
37.8124035899292 121.752326590785 263.94144486877 26.9705983476447 53.3104868190187 -3.32099915602922
35.4842964814179 112.639236902639 242.74971338469 19.2008156557872 53.2122454491405 -2.86359604146393
33.7962224289174 106.576953409572 229.730850891848 10.3633360123901 53.0312224207455 -2.38077204779858
33.1458969903602 105.236370501414 228.947516406583 1.20393073687718 52.7574884638794 -1.91260632836279
33.585074495997 108.72302105881 240.462777486776 -7.5451396503926 52.4065923437968 -1.48502630967887
34.8195992902824 115.578186696922 260.33954467333 -15.1691586454928 52.0250893441174 -1.1196495778883
36.2685830048864 123.068047250252 281.377264774842 -21.0286159926229 51.6871536315912 -0.839625163308716
37.2474669842692 128.041162696332 295.357572543182 -24.7263383884012 51.472929792722 -0.664475959555586
37.0889039926369 115.423950251508 250.595334026952 30.6202754296242 53.5614964402449 -3.41282097030446
36.0921995314573 111.464697340952 241.41560596838 27.2316658336469 53.5274222757127 -3.2217103878797
34.601193848079 105.462185302441 227.598249542604 22.2707576811415 53.4798660632743 -2.93528794239233
33.0730433924378 99.4926562724461 214.260819408363 16.054770673711 53.394744652845 -2.58934312507044
31.9282611412941 95.436029230332 205.982310473129 9.06552816355958 53.2534291955639 -2.2215455691341
31.4225340945199 94.3940630950013 205.373332134553 1.8421593192714 53.0499825155584 -1.86197203545601
31.593406369995 96.4436104768429 212.479389345177 -5.07547618710074 52.7965309422114 -1.53228348098838
32.2589287477738 100.634315315996 224.778990154996 -11.1742661889314 52.5257704917613 -1.24943164424424
33.064381359625 105.222421786169 237.772067161513 -16.0175021274134 52.2870976607737 -1.02806214332367
33.5964086190579 108.223500521678 246.392989806445 -19.3380846476799 52.1327527530597 -0.878261156843817
33.4567736538099 96.075446992276 208.604561667897 25.3024670325517 53.7755772524123 -2.98321622308513
32.8385544094544 93.6881779555767 203.35603639533 22.3351377266856 53.7365967848016 -2.82617575462377
31.9155408403314 90.0078904926121 195.286090974461 18.2729023794965 53.689240135288 -2.60413607533113
30.9548918769099 86.2947137007832 187.41222474699 13.3355105111579 53.6179254266809 -2.33919499651089
30.20492055663 83.6983313064219 182.454876301724 7.85325463322321 53.5108303746854 -2.05615480922199
29.8208743921382 82.9065043932531 181.993696514107 2.20526339028981 53.3647572996383 -1.77691218647678
29.8288976750301 83.9729762089064 186.060167817873 -3.22394720567777 53.1885658213455 -1.51863995626664
30.124519951184 86.3145294145415 193.135726629149 -8.07536980913112 53.0041285041501 -1.2943841068705
30.5039610710237 88.8735506336306 200.553379903603 -12.0533222417881 52.8431054884691 -1.11363952455834
30.7304957005476 90.4532393589697 205.332027523794 -14.9765064903296 52.7384719506476 -0.98149399490894
30.7594358993358 79.2297116556616 175.048878450009 20.8668932273791 54.0046551236374 -2.64958549441306
30.3992114928945 77.9057544775662 172.367506299963 18.2986594844309 53.9662014934504 -2.51266324172854
29.8507267733639 75.7655129739925 167.971599073722 14.9711044167997 53.9234505730362 -2.33024460787404
29.2656809392878 73.552368036183 163.585667766917 11.0376898350817 53.8666154517974 -2.11618412023279
28.7857419219632 71.9456305873429 160.766433079607 6.72464895419972 53.7884523638373 -1.88704147248148
28.5015134251851 71.3573968973013 160.428020587632 2.29516072771742 53.6873468453645 -1.65877466933506
28.4305743539061 71.824021744864 162.59137952637 -1.9817268515992 53.5693941992809 -1.44484791854493
28.5162828322858 73.0036660831147 166.382890288662 -5.85728194634852 53.4486783810674 -1.25552642753604
28.6466171915027 74.2783974854992 170.281269656216 -9.13003494129974 53.3449660772731 -1.09759399161181
28.6908119140976 74.9482257972896 172.587120164336 -11.6741342239906 53.2786802138248 -0.974029920630344
28.9228862520319 64.6652621512967 149.124495948724 17.2270956435544 54.2314612347567 -2.4055780754716
28.7305189462509 64.0077417818356 147.987074553224 15.0105534677422 54.1979743616421 -2.27488051197517
28.41898755733 62.8340530395013 145.789169411658 12.2642547786786 54.1635018877249 -2.10978671797469
28.0736723944539 61.5716762395613 143.495916595243 9.09613321791247 54.1218395212446 -1.9195403939414
27.7742625531407 60.6102350018588 141.9754799134 5.66219572002962 54.0684606585553 -1.71587751618554
27.5725841095311 60.1882829609832 141.740630492404 2.14535051899503 54.0024336991091 -1.51103462404361
27.4799390699602 60.329481225309 142.804535069677 -1.26617442475535 53.9276646658739 -1.31609622722355
27.4662914380711 60.8408575002023 144.679871609013 -4.39893878796296 53.8529294077794 -1.13985755467275
27.4709978829399 61.3725441479432 146.520868671364 -7.1131567086517 53.7903502367818 -0.988159274052794
27.422536638038 61.5259050816362 147.37883681148 -9.31907315379451 53.7524528960694 -0.863658773908262
27.8546197092102 52.1048973230049 129.828887582488 14.2752696521917 54.4352354156855 -2.24597078739185
27.7689116120438 51.8369098228082 129.545530802989 12.3511162269026 54.4102523671555 -2.10825544794623
27.6034681854098 51.2452343284201 128.580830818271 10.0497510764361 54.387250573079 -1.94045301054156
27.4084150481077 50.5681625015899 127.473827983307 7.44759029073485 54.3618184587584 -1.74963230286774
27.2301486125347 50.0217732889401 126.706020747796 4.65413504757817 54.3306307626967 -1.545265433924
27.0989040247543 49.7390688595152 126.562145337193 1.79915649539393 54.2927228821895 -1.33793935050565
27.021310019421 49.7343843203635 127.049437939192 -0.982503240974554 54.2502905646314 -1.13795557879007
26.9798822763172 49.9022436281319 127.897143772046 -3.56627463973449 54.2086595163976 -0.954085709551747
26.9393511552268 50.0504780625107 128.636107200023 -5.85157608205425 54.1752840874475 -0.792692083814252
26.857817751734 49.9583712411231 128.736550654761 -7.77203291656011 54.1579702758435 -0.657352927882555
27.4800989645039 41.35637115662 116.332341995685 11.9252899694955 54.5912325821049 -2.17147575627956
27.4600199162564 41.2996330753339 116.463623271678 10.2305928689424 54.5779007583277 -2.01403567302776
27.380540539003 41.046432991376 116.124092368999 8.25422786660255 54.5697926402352 -1.82466142536652
27.2768802548663 40.7240758740575 115.63375578561 6.05099750877689 54.562650133057 -1.610028360453
27.1809401564592 40.4471090456993 115.275737933764 3.70091508168249 54.5529410536441 -1.37943959402349
27.1127669372178 40.2858868679575 115.216578660097 1.30109289737275 54.538962346814 -1.14383569685437
27.0752882182023 40.2475626816504 115.45860084233 -1.04575289235469 54.5215115382987 -0.914535105629045
27.0540213618505 40.275366486035 115.839695842204 -3.24389545603405 54.5038618195998 -0.701935340000313
27.0217733899673 40.2662246652777 116.080523024818 -5.2157004570467 54.4910035213814 -0.514408739439586
26.9466838830785 40.1010114732664 115.863796106901 -6.9090467985767 54.4883755355566 -0.357583203449685
27.7525123872261 32.3378532645073 108.064115146503 10.1216733971534 54.670521057238 -2.19034484711543
27.7665521315754 32.3837020386317 108.324008498799 8.59474388315356 54.6724963142272 -2.00062031028282
27.7276584093151 32.318348623602 108.210277766372 6.8370564515625 54.6841092656069 -1.7706202025947
27.6717612053563 32.2077669990956 107.962332537567 4.88917214079324 54.6993543209929 -1.50816241529796
27.6305335500282 32.110375731826 107.790198800523 2.81447259824149 54.7128102332355 -1.22436871130856
27.6223960413556 32.0609888434242 107.815588838337 0.693458246614227 54.7211010679559 -0.932647044812808
27.6470043710155 32.0606873212879 108.036190607321 -1.38623408639051 54.7237512818961 -0.647422357828401
27.6851015824091 32.0763757271132 108.32564122384 -3.34169831216969 54.7231832745799 -0.38272861563682
27.7038717991908 32.0502907675134 108.469362063014 -5.10542777396059 54.7238941129313 -0.150760344435966
27.6660923367685 31.9160632516939 108.22400433611 -6.63219868878005 54.7311064609959 0.0394560008652658
28.6544798625392 25.0618431095751 104.705052183573 8.8368321407618 54.6398799375039 -2.31895189724572
28.6697967994236 25.1415403784849 104.869160035722 7.42008099305351 54.6626922268365 -2.08407005598577
28.6258560907293 25.1637627420056 104.663075413287 5.78521204849826 54.7020633387038 -1.79271234238525
28.575264517955 25.1693089312756 104.359359178377 3.96435462171396 54.7474745985118 -1.45548430883481
28.5638877659216 25.1930218747555 104.197272442775 2.01481397782741 54.7891022294263 -1.08755899494989
28.6169460757264 25.2533163865168 104.313339098237 0.0140952476718358 54.8204062517855 -0.707271649672361
28.730767486295 25.345410587991 104.700203648188 -1.95043214797132 54.8395745037576 -0.334703731203375
28.8727247227124 25.4410566649686 105.206706895442 -3.79456993342928 54.8495292103427 0.00987286742360658
28.9896696544243 25.4953213219202 105.579655774831 -5.44954052327718 54.8566277056415 0.307967751812088
29.0227159905059 25.4583017842825 105.534913583673 -6.87029773687684 54.8685022690144 0.545250942647439
30.1986557751748 19.6103946855083 106.163688779669 8.06604379699102 54.461664511291 -2.58215317973853
30.1701521235812 19.6655880245497 105.985104330911 6.70779010866719 54.5146225985814 -2.28852504203449
30.0602986688145 19.6863340451064 105.336184692791 5.10720208719371 54.5956489876528 -1.91178383536155
29.959802234208 19.7235571578195 104.649480241705 3.2929768199841 54.6851694742049 -1.46749003279148
29.9479742738195 19.8198705333694 104.307511549944 1.32612868567702 54.7647854687213 -0.977761471262302
30.0678073057699 19.9952087821497 104.527391301081 -0.705908169140454 54.8222831574731 -0.468935323542789
30.311779014795 20.2382886660321 105.295630265045 -2.70170426585323 54.8542662906184 0.0300491687286257
30.6217882918363 20.5063997170017 106.368148729112 -4.56177263140395 54.8661139228214 0.489203320838937
30.9038684601854 20.7345711132082 107.336563478474 -6.20444692294328 54.8695749478429 0.880153673601262
31.0550263589134 20.8528528190578 107.746956520499 -7.57789791319856 54.8786613303034 1.1803506281209
32.4271418453125 16.1126793419127 112.550285728574 7.82273006534106 54.0940398766988 -3.01312119605137
32.2865675057065 16.0658318674919 111.682499488223 6.47871376899195 54.1925750628139 -2.64628764710102
32.0187391587843 15.9683233027564 110.099171070861 4.82812389722079 54.338592950843 -2.1551584232973
31.785382391983 15.9283827351076 108.571618853365 2.90126518200252 54.4957703706445 -1.56355052549226
31.7286587317791 16.0379906383644 107.785948708031 0.773415500520156 54.6301055256476 -0.904646491181392
31.9257389891054 16.341758878247 108.130842808641 -1.44428247687673 54.7195662773441 -0.216736446008398
32.3642655717823 16.8204221184565 109.584916165523 -3.62106128801824 54.758760416371 0.458422396848609
32.9420828974578 17.3904429646591 111.716232970086 -5.6267171275766 54.7586878627852 1.07647190921943
33.4925607307722 17.9217595231658 113.79630785055 -7.35326142032453 54.7422688168174 1.59380740886407
33.8336713278017 18.2745307532828 115.018701170332 -8.73393162492772 54.7364133937135 1.97501720264931
35.4029134564738 14.7201891886307 124.116108156376 8.13191363696499 53.4934629489343 -3.65072111756553
35.0496532414537 14.4471182082507 122.050129791311 6.76718621030978 53.6613395777849 -3.19583576540581
34.4846035237721 14.0478687059226 118.7973621642 4.98396370481794 53.9091739242534 -2.55498909036607
33.9922679951765 13.7614451450058 115.742489318209 2.82051774993847 54.1711390201456 -1.76565305712878
33.8231360880652 13.7932548962259 114.118004813601 0.379519480988804 54.3862091931732 -0.878204816961257
34.1132051261085 14.2473052863515 114.617971531227 -2.18828469821284 54.5160903829743 0.0521387106461249
34.8438941781786 15.0940900964125 117.210806770199 -4.70575093335482 54.5528807491294 0.966259606187776
35.8410570436304 16.1693753205936 121.137246875259 -6.99396015200827 54.5182496860084 1.79943553988703
36.8158318259504 17.2079322698987 125.098450059509 -8.90162311997349 54.4556306501331 2.48484286475229
37.4518661475994 17.9217451005403 127.654027762706 -10.3364082191741 54.4154869698658 2.96673033155256
39.1758304329878 15.5546397142956 141.061771904231 9.01385803254647 52.6245002103902 -4.5293881000521
38.4750624705298 14.8677375576988 137.106193566146 7.60559474075674 52.8942698427079 -3.9730658495467
37.4170625300107 13.8862188959503 131.142742573297 5.60814200559125 53.2967614238241 -3.14117478899109
36.4867181555871 13.0943238954837 125.581731236125 3.07735883345222 53.7167796699788 -2.09363419041244
36.1088320176453 12.9081938558912 122.55541701983 0.161016189109813 54.0491086348043 -0.907052221538092
36.5122799324724 13.541836710505 123.248335606338 -2.93211806087443 54.2301633914299 0.340639314293995
37.6706937927088 14.9527808679638 127.616302630453 -5.96036195630327 54.2490649877352 1.56860695367386
39.299628955604 16.8385754214844 134.380568564835 -8.67549490124096 54.1454953366025 2.68470129727483
40.9157635974846 18.6922177988192 141.307308954823 -10.860847582651 53.9974006770285 3.58735611848321
41.9850516096261 19.9551477253427 145.898828734468 -12.3837453437999 53.8952019322061 4.18877800976273
43.6905082373181 18.5746789046261 163.029804272063 10.4417499716239 51.4870483395444 -5.65174245872221
42.491468224773 17.2371620789408 156.400268521012 8.98283550509581 51.8953525223771 -4.9862988804503
40.7045934195391 15.3023304504262 146.455378698773 6.69603778968316 52.5170341139935 -3.92136110427812
39.117831145662 13.6599336724167 137.182511750809 3.66961195279052 53.1602987154186 -2.55226317430163
38.4130965325692 13.0673585210934 132.06311690919 0.119602771069682 53.6533944961471 -0.994024926738897
38.9514572936434 13.9119926747939 132.98852511568 -3.66804284333871 53.8968796732162 0.647048774707758
40.6975166209478 16.135976108626 139.90031615172 -7.37114285163171 53.8767208947491 2.26579080760431
43.2126993949223 19.2276673665411 150.776696861509 -10.6516224566936 53.6595528466184 3.73572110998684
45.7280423832545 22.2952426849911 161.984378540789 -13.2006173924057 53.375924284092 4.90558832051279
47.3808400817178 24.3379504459333 169.400959425971 -14.8254468511435 53.178431347898 5.63911537446393
48.6035859502591 23.2968821536656 188.090565646989 12.2555613288841 50.1716940670344 -6.93378019463207
46.7957905384881 21.0992308603446 178.202934283102 10.7565196022511 50.744837336594 -6.16417432622423
44.0799131227807 17.8485307733201 163.177479849422 8.13096518593279 51.6410708976242 -4.83967685192518
41.6476562758017 15.0128973637974 149.131381932792 4.51782586531351 52.5640201757788 -3.10543666769625
40.5130403566415 13.8234774223146 141.314010921613 0.225602205926344 53.2539685794494 -1.12748790607685
41.1997914783954 14.8985052895298 142.49692334691 -4.36850354102694 53.567121571918 0.955927931695615
43.6632035824201 18.1637341768797 152.607569497248 -8.85439753415506 53.4866032263331 3.01607027476738
47.2769341938902 22.8352496196198 168.702910010442 -12.7907385770992 53.1135686916175 4.88796426026517
50.9029874657885 27.4913469668249 185.316364206197 -15.751922537782 52.6483095162912 6.35616351931113
53.2405754909169 30.5043789713573 196.13114351652 -17.4654523709048 52.3281981842775 7.21875427150948
53.0705694920828 28.4334346529987 211.533048758677 14.0552501648729 48.9267214905373 -8.13928418341033
50.6789599483122 25.3422311092973 198.506192700415 12.5383322511325 49.6565108479583 -7.28953452828117
47.027208270679 20.6595558537886 178.323037092075 9.58867476820441 50.8294083341241 -5.72478302438897
43.7343812506989 16.5077546823863 159.385819395152 5.40540244976789 52.0357147291664 -3.64490051622282
42.1581052967261 14.6438163328313 148.801251365559 0.398461865749756 52.9222756394767 -1.2709918339228
42.9827968866588 15.9322842668569 150.224314080599 -4.96487361693032 53.3006333033428 1.22789134026969
46.1553377440366 20.2836599152169 163.570160041533 -10.1941853184735 53.1516825854834 3.70326369099549
50.8641400183598 26.6268217832752 184.972619968309 -14.7499224704135 52.6119210516679 5.95364200182286
55.5886401234738 32.9552058183853 207.038593638855 -18.0870948555489 51.9557151621721 7.69635977434614
58.5645471429329 36.9365112208539 221.097531609077 -19.8506449533303 51.5124292156485 8.6597998051166
55.8145504151048 31.90942209587 226.177809609968 15.2174675227674 48.1425603657616 -8.89545863906165
53.0731766681432 28.2042785409895 211.228540175038 13.6994626706866 48.9680319669192 -8.00670996114832
48.8302443948047 22.4935253472772 187.707767163178 10.5421401326324 50.3208542861546 -6.29501657905589
44.9843824530778 17.3783552544635 165.546299643094 5.98547703591001 51.7149072055649 -3.99476400596757
43.1226485235619 15.009137278064 153.123307683893 0.511028102204302 52.732139214134 -1.36499872214605
44.0364129413797 16.4354230119885 154.701451429352 -5.35000807162053 53.1525928506393 1.40228401087721
47.6657761954903 21.5555150338203 170.185873810249 -11.051354664633 52.9552753615022 4.14302706114612
53.0740206322036 29.0829549988046 195.073401277329 -15.9883417731 52.3013054772148 6.62987286487418
58.4851334758517 36.57855488721 220.652102999796 -19.5408941158552 51.5168926787395 8.5358766045737
61.8341522135158 41.2027383058192 236.681639815852 -21.3087495480051 50.9946018697516 9.54727837458492
-12.9014260633356 -54.5060314147355 -133.117462089957 -29.7934807486114 -235.208184981916 -0.890710652696253
-13.4786168943336 -55.9757425277429 -133.844211685608 -27.2852220261061 -235.352779939625 -0.735513576746256
-14.0319579665443 -57.3988402193922 -133.890811850018 -24.351297708375 -235.400530626512 -0.548923008043379
-14.6265780303549 -58.9281009731073 -133.757698806056 -21.0854211213717 -235.451567988193 -0.338351184890825
-15.3095783928707 -60.6720475299078 -133.878149394791 -17.6165598513187 -235.590951341902 -0.113498195949804
-16.0917027940012 -62.6517343611284 -134.492014007356 -14.0933004341746 -235.862127956754 0.114890385464201
-16.9383907308133 -64.780057994676 -135.571784498957 -10.6643511954911 -236.252308614861 0.336384295478492
-17.7736321561963 -66.8715879288304 -136.825551906849 -7.45957595613335 -236.693790413295 0.542067810616456
-18.4960508906865 -68.6813849439813 -137.776483416268 -4.57587722585935 -237.0810873693 0.725368542008649
-19.0026878768432 -69.9618917941773 -137.893492778826 -2.07077859936448 -237.299524586751 0.882414828396366
-16.7584757213262 -66.6967121773642 -152.460154786978 -34.554566869211 -272.296157914138 -0.842151982878939
-17.4047849142245 -68.358285250523 -152.784265097899 -31.8840645779359 -272.341770821101 -0.664844320585356
-18.0207601517525 -69.9541230473283 -152.183814343584 -28.6804728951192 -272.042657750107 -0.448501694051336
-18.7279867067459 -71.7703585867222 -151.476508096698 -25.0791102273618 -271.722749378004 -0.202640316437486
-19.6185560018506 -74.0212141055869 -151.376072621283 -21.2562109758868 -271.664948429153 0.0602898997080457
-20.7201918969396 -76.7669754690126 -152.27800245796 -17.4021833302599 -272.025581134723 0.326656540759458
-21.9784602085881 -79.8725972998183 -154.137127332269 -13.6943972827548 -272.786166828385 0.583364381752395
-23.261905927805 -83.0207241910463 -156.471614967704 -10.2749888967705 -273.754980715686 0.819275478994784
-24.3902020838809 -85.7791258321433 -158.493677284707 -7.23753284345347 -274.618570500412 1.0261996168384
-25.1788853631634 -87.7070378074561 -159.332147778052 -4.62454961713102 -275.030734178549 1.19938511935837
-21.8170874394125 -81.3034331389229 -180.884765211214 -40.3049871862721 -308.318588758321 -0.927091566106956
-22.4293899894436 -82.9246542637678 -180.128092474536 -37.3512198451036 -308.084749734927 -0.717404482321831
-22.9832455040182 -84.4204535086433 -177.95931435516 -33.6735498635807 -307.236986910982 -0.453629182326233
-23.7091520871697 -86.3261891126037 -175.836661789492 -29.4731824774392 -306.378966883434 -0.150076862718534
-24.7886777565488 -89.0592356576314 -175.044878915646 -25.006371641934 -306.042641200769 0.174877906719221
-26.2882219832159 -92.7654176274875 -176.30043341234 -20.5385609445129 -306.52578956157 0.501850809767207
-28.1250787562925 -97.2408735275973 -179.533556492135 -16.3041005580804 -307.801332415889 0.812961567495471
-30.0744904565277 -101.949932973876 -183.893720501277 -12.4778847587144 -309.51912497441 1.0936076819767
-31.819092237071 -106.142092653604 -187.980086829354 -9.16103191628068 -311.101080907903 1.33360873429863
-33.0324756286654 -109.04803847686 -190.25115233814 -6.38150807690173 -311.909583820696 1.52775144031493
-28.2456637897271 -98.4691871134254 -219.470632580112 -47.1408929145533 -342.721886130343 -1.17198190036955
-28.6472053491176 -99.6579327254146 -216.57031771086 -43.7715559554009 -341.920550378669 -0.918320891869042
-28.9219340678883 -100.585677269509 -211.377827344677 -39.3771469838178 -340.187839653188 -0.585382850362458
-29.4958078491481 -102.224454041637 -206.506283576292 -34.2616530994907 -338.505608281705 -0.196441842166243
-30.7133708056002 -105.352638062384 -204.272135163772 -28.8086326528605 -337.744257019886 0.219467018055677
-32.7158803397734 -110.27739152525 -205.97114005209 -23.402773049523 -338.392486782673 0.633254135740357
-35.3804961153439 -116.696719413486 -211.499001254741 -18.3698854088947 -340.410851883023 1.01964006561921
-38.329535509613 -123.723080611934 -219.358373506967 -13.9403038672022 -343.233416228119 1.3593092546395
-41.0142883525363 -130.07896889175 -227.05668452404 -10.2322777061711 -345.919962312666 1.64009809409584
-42.8673604880485 -134.448937477499 -231.856467791583 -7.25471635835382 -347.436811519731 1.85744390299567
-36.2526722531429 -118.452959737714 -269.581921119844 -55.201614214682 -375.106387894001 -1.60605168472283
-36.1683930630707 -118.609088573064 -262.956165058138 -51.2808757890618 -373.371359686714 -1.29485012058699
-35.8145540204734 -118.225693506648 -252.508702209559 -45.8817033668601 -370.299914058245 -0.864716972241057
-35.951879801712 -119.008929415851 -242.827358715484 -39.4670224392129 -367.399037904219 -0.354613119179307
-37.2047388279579 -122.345411471688 -237.982604778072 -32.616330280868 -366.007658703289 0.188476786073499
-39.8463074831975 -128.821544333409 -240.242807006269 -25.8922844442228 -366.874856294757 0.720230590495967
-43.6979452993869 -137.99852971947 -249.456008414974 -19.7542633018426 -369.944258261964 1.20478180271233
-48.1395880311855 -148.439412382797 -263.057221566996 -14.5145934441032 -374.354313741306 1.61694742747673
-52.2429730854571 -158.016064854656 -276.712432339179 -10.3189005786306 -378.660484738926 1.94318222420385
-55.0406426445623 -164.522056871038 -285.650311200684 -7.14766916557134 -381.27608900541 2.18176006013312
-46.0050157023523 -141.461533671626 -332.312348267492 -64.5986594084177 -405.145686801756 -2.25340104135165
-45.0550316538791 -139.769097199825 -319.84198086136 -60.0048736829173 -402.086750322608 -1.86956519454621
-43.5659567940688 -137.011962325174 -300.9952816976 -53.2730190708672 -397.151139281349 -1.30681827540982
-42.8431331143036 -136.072843368404 -283.571444332593 -45.1079619842277 -392.566024974495 -0.63034998730345
-43.9613868967445 -139.302600098675 -274.448941884405 -36.3810253109249 -390.303122842609 0.0840947663587267
-47.4063314965352 -147.730946972559 -277.413348509747 -27.9059921998031 -391.45340253489 0.769678211308724
-52.9251198344545 -160.736774957336 -292.249718520306 -20.3233577166896 -395.938797642995 1.37640281077499
-59.5335642492998 -176.068328744876 -314.745840281056 -14.0583359344279 -402.508110191384 1.87235061508346
-65.707639787226 -190.280065607321 -337.63226804949 -9.29817522833203 -409.030595521875 2.24394484724007
-69.8390092426387 -199.758078996357 -352.838635043005 -5.9826180366334 -413.155656437168 2.49589209632744
-57.4035821459254 -167.186897933613 -406.967025339164 -75.2200292556173 -432.344675837074 -3.11192811153041
-55.1514116802186 -162.722358016748 -386.296863971844 -69.8809498657881 -427.648903773967 -2.64182653119714
-51.9043084445391 -156.304246536312 -355.268935364514 -61.4923547845944 -420.368895225472 -1.90694932438901
-49.7889931610973 -152.567459666018 -326.536029024903 -51.111375419844 -413.667156152724 -1.01352220242265
-50.5440067956792 -155.264755234632 -311.112116420687 -40.0204990064305 -410.313933349577 -0.0803061547512676
-54.9609920995877 -166.056328234644 -314.927876596596 -29.3621808516429 -411.812586695976 0.795105915392762
-62.6956439364336 -184.095908925317 -337.691239325001 -20.0016674740585 -418.059766617272 1.54545251176552
-72.2613577925621 -206.019798181093 -372.877084279796 -12.5096728814686 -427.33137923969 2.13174545391132
-81.2652880855327 -226.482155671233 -408.900411758946 -7.13770210492012 -436.621519480005 2.54234476056268
-87.1372409594348 -239.780291544332 -432.708817765055 -3.77491342619269 -442.577784720988 2.79333669450209
-69.6383544492472 -193.902393169889 -488.045588544964 -86.346073806196 -455.632156513 -4.11082505321508
-65.7468429086208 -185.968226728004 -457.487015408501 -80.293271346896 -449.233422361661 -3.54926011003744
-60.2002675723707 -174.795670474448 -411.09842653813 -70.0533721184367 -439.419553495919 -2.61210601771271
-56.216100855758 -167.319993777286 -368.001256767172 -57.1431775005626 -430.427202753255 -1.4623446342824
-56.3871504044074 -169.075527462116 -344.552371230643 -43.3650249930503 -425.909472805711 -0.275894689416293
-61.8830777839407 -182.490889715701 -349.312725608791 -30.2442743225927 -427.798376224726 0.812373232621764
-72.2590768843914 -206.471866720792 -381.906082283321 -18.8931097021658 -435.964680359564 1.71652117157884
-85.4209248806212 -236.322980806177 -432.981389226024 -10.0533828845604 -448.186632147184 2.39087139951984
-97.857281619637 -264.274927084433 -485.378579686248 -4.07168942069794 -460.475717855157 2.82773115026567
-105.720143323058 -281.87673305673 -519.405164582811 -0.786933967574917 -468.314605093605 3.0598008343798
-80.6725409510158 -217.441586156075 -561.720698667995 -96.2120913247004 -473.054395468397 -5.05915195215897
-75.1763030691311 -206.140442668484 -521.760833403005 -89.6285117649397 -465.332871210939 -4.41880842409637
-67.2819495910598 -190.16630281771 -459.99027935867 -77.6997030743459 -453.447225369237 -3.28609319784467
-61.3585611540599 -178.854095893569 -402.378277187004 -62.4141848625323 -442.580865538631 -1.88600448414754
-60.8781621546665 -179.545919593691 -370.814420896422 -46.1049753437176 -437.138826597998 -0.455791815959262
-67.3818491790951 -195.412301511444 -376.456836567123 -30.6666783041775 -439.393688435461 0.832208928193622
-80.3303958022523 -225.125771660295 -418.850581016042 -17.4413642914271 -449.193352945011 1.87481113847636
-97.0318737221569 -262.693541524979 -485.854883092034 -7.34419056127275 -463.908767946786 2.62077584146221
-112.818274320656 -297.864690767605 -554.53295588671 -0.837866960856714 -478.693951582694 3.06768652030403
-122.495047952737 -319.322214203534 -598.165330107125 2.27688918557127 -487.987713291079 3.26778546373199
-87.418753876501 -231.615427846196 -606.973865156416 -102.178370303992 -482.318566976907 -5.65741839555766
-80.9471592732776 -218.31152572697 -561.421638722597 -95.3778578467924 -474.157749849011 -4.9728796683588
-71.5662904101177 -199.375394024074 -489.965257709652 -82.4770508140024 -461.520443393413 -3.71570500014981
-64.3995321464158 -185.681427960728 -423.043121684359 -65.7358067948053 -449.980431850117 -2.15205260888158
-63.5022865663735 -185.74177649117 -386.240246286483 -47.8248106574792 -444.254227793578 -0.561985031278155
-70.6571605230078 -203.191987242817 -392.45258169033 -30.8882338087395 -446.745523462399 0.855118274152627
-85.2540426679147 -236.529793883314 -441.165785772312 -16.4356009885905 -457.284633333298 1.98321745358239
-104.196891589304 -278.898607409365 -518.362570980819 -5.5152778451241 -473.063211297153 2.76738745744361
-122.050627982861 -318.431510259381 -597.248972606836 1.31914628805665 -488.853173229027 3.21077312518673
-132.758444735162 -342.014775618321 -646.535945542635 4.29174509262971 -498.644501200251 3.38227208474336
-9.05881555930993 -45.6393007080332 -107.438039087909 -29.40839785349 -235.016708466471 -0.735428409576844
-9.61870441319248 -47.0704996107025 -108.02900882585 -26.8854659447504 -235.164057505665 -0.585275992610474
-10.1699503536521 -48.4897227676878 -108.045024691836 -23.9436123533677 -235.218582745657 -0.405833005715521
-10.7688566424302 -50.0298317928583 -107.931306086419 -20.6741471007427 -235.273792201663 -0.203948999956194
-11.4549296890917 -51.7822231212991 -108.072936176349 -17.2032767871666 -235.409021577914 0.0113550037956876
-12.2346956926245 -53.7584468907657 -108.681875046017 -13.6771754669999 -235.664813308667 0.230016610583216
-13.0740807784656 -55.8725057443075 -109.731150739543 -10.2429362241033 -236.029277745996 0.442190827818911
-13.9022708431614 -57.9507031325074 -110.957811983931 -7.02975631391194 -236.439326136779 0.639381612388652
-14.6264171417044 -59.7673580645327 -111.934220411319 -4.13476728474815 -236.796638005163 0.815244740443045
-15.1530957613285 -61.0964396001814 -112.185273436497 -1.61645386267358 -236.994174953634 0.965955279513539
-12.3751123852336 -57.0239595265915 -124.578943812257 -33.9893096132118 -271.920739093105 -0.658454199053114
-13.0118080453317 -58.6669286829797 -124.817806007467 -31.3123649879915 -271.999414811196 -0.485600929740649
-13.6380245921513 -60.2869536130255 -124.265051508476 -28.1158882801801 -271.750353008984 -0.276186352716306
-14.3599785545577 -62.1367653688581 -123.651287319816 -24.5291902047811 -271.474358596696 -0.0389506010617307
-15.2563670820616 -64.4015131518843 -123.613196308917 -20.7220805473649 -271.433786851551 0.214544286495913
-16.3475078469029 -67.1254673295164 -124.501611828823 -16.8798623888359 -271.773617189229 0.471485724585995
-17.5800677897287 -70.1761000712564 -126.272523846463 -13.1769973848595 -272.476666745276 0.719401063782514
-18.8323257041598 -73.2574201105861 -128.491176351892 -9.75495909227122 -273.365069743266 0.94752402181321
-19.9398145545923 -75.9719817000994 -130.449316338305 -6.70850035353937 -274.148137248081 1.14779098720531
-20.7355509199327 -77.9173209491502 -131.364986395872 -4.08259891094458 -274.504418452839 1.31536679564568
-16.7739973176576 -70.5216194302296 -149.883575664084 -39.4706477395003 -307.580593453493 -0.705205031236449
-17.3933430877057 -72.1645226902777 -149.151587163544 -36.5270154731327 -307.430244706818 -0.500394454448013
-17.9803538846404 -73.7368406542011 -147.188538512163 -32.8869922000315 -306.703068456549 -0.245027961286003
-18.7393575433265 -75.7168933967512 -145.30670083646 -28.7392883376015 -305.953193106138 0.0477967327669003
-19.8287965866828 -78.4717991506102 -144.659328674281 -24.3268459173272 -305.668353356436 0.361077666031688
-21.302315817321 -82.1198491518694 -145.886256837151 -19.9047296944134 -306.121650134666 0.676634453405913
-23.0795002912681 -86.4625052493033 -148.920015867477 -15.7013998333674 -307.288026110099 0.977435179073268
-24.9533085326859 -91.0032181205629 -152.991613200079 -11.8900583380931 -308.845994071072 1.24934420352211
-26.6349626897512 -95.0545980972933 -156.836960570815 -8.57336917299163 -310.265309427348 1.48232027948897
-27.8289696090569 -97.9155693461131 -159.065031869434 -5.78320187355657 -310.96057908991 1.67100684459489
-22.4468400013064 -86.3151229756183 -184.511094376336 -45.9098532590747 -341.344805367973 -0.901193701957731
-22.8844778863833 -87.5945352907671 -181.824986112938 -42.5789969094654 -340.713235508885 -0.653942176479316
-23.2296495263687 -88.6846123992524 -177.105956211581 -38.2766749860398 -339.221315801112 -0.333029814197729
-23.8653955773984 -90.4623247390234 -172.725102162271 -33.2829876058712 -337.756742793502 0.0402277666181534
-25.0975197688592 -93.620759736527 -170.774840959322 -27.9556834367553 -337.10565727023 0.439066570952811
-27.0458616007424 -98.4203901172694 -172.419022883524 -22.6594680490539 -337.709744878317 0.836349021391718
-29.5920733574779 -104.569792137516 -177.557699745459 -17.7086196881291 -339.532819819861 1.20813410212668
-32.3898247204038 -111.251608219742 -184.834903086307 -13.3291325399239 -342.062476657843 1.53587799568085
-34.9403650430417 -117.300350998274 -191.992531952158 -9.64016402383202 -344.448841461022 1.80776619445259
-36.7288504527999 -121.518658075502 -196.543999587842 -6.65585413204975 -345.756830682731 2.01918062527532
-29.6468120066096 -104.75392854416 -230.006301683351 -53.4001281107405 -372.74967497764 -1.27420780556036
-29.6414715868341 -105.103202171647 -223.871067574922 -49.5597606264282 -371.321226248903 -0.97190972567873
-29.4119958326025 -105.008127931159 -214.299372521926 -44.341023193124 -368.684407462934 -0.560004897514953
-29.6519342600358 -106.023075034691 -205.493058295514 -38.1639862605464 -366.179191900605 -0.074345963253993
-30.9226665992492 -109.394042723015 -201.148752526871 -31.5604812026243 -364.994379662477 0.441913685591356
-33.4621497733375 -115.629909722151 -203.310662795333 -25.0564185779667 -365.795683330115 0.947738661777676
-37.1001581659691 -124.311845004616 -211.834781829505 -19.0896902929604 -368.532058483053 1.40949499333941
-41.2708493797472 -134.125736691807 -224.397956531866 -13.9627800943823 -372.436141325516 1.80340195539041
-45.1308258230336 -143.136625159895 -237.059892152281 -9.81942386059863 -376.223801861951 2.11681688587419
-47.7979860140276 -149.333704681467 -245.451534209372 -6.64607570689554 -378.482535306368 2.348326837981
-38.615300769992 -126.203680856777 -287.804476442858 -62.0134516933305 -401.462433105939 -1.84748008924448
-37.7954524063849 -124.831193818348 -276.149819357062 -57.5512687835932 -398.902898911892 -1.47521050930196
-36.4978357534421 -122.52351014239 -258.707440819331 -51.1295730800297 -394.686948581589 -0.93958987921218
-35.9287039888243 -121.934550770481 -242.695606023661 -43.3813389216004 -390.763680436375 -0.301118540756126
-37.0632063910321 -125.190305156688 -234.383983636367 -35.0937054428359 -388.852412952436 0.370912639541102
-40.329811660544 -133.194149241842 -237.182000091461 -27.0155241298265 -389.904946901675 1.01526195018758
-45.4908257283778 -145.361119795681 -250.888802796259 -19.7490154935669 -393.85193897053 1.58568664936058
-51.6541208004289 -159.649510855095 -271.70029402347 -13.6990866150435 -399.599368451473 2.05278897075841
-57.4359663694812 -172.936744049489 -292.992158842451 -9.04404859383724 -405.286150486345 2.40499645918501
-61.3588924828187 -181.914839659102 -307.302883116876 -5.72900724151412 -408.850756260559 2.64816458732354
-49.3595245001906 -150.589395026561 -357.774107608648 -71.6382893336519 -427.081290397688 -2.62096784532567
-47.2786313081617 -146.558951470292 -338.169951428991 -66.4755103646669 -423.116416148847 -2.16337951220977
-44.288517365153 -140.75698464949 -309.117710698338 -58.5644383615189 -416.926104550038 -1.46635426884792
-42.3809345306249 -137.498933001905 -282.464034829061 -48.8514704263065 -411.241937613128 -0.629654756919236
-43.1407681681405 -140.189285806539 -268.258176594887 -38.4778932288596 -408.435671243878 0.23863985698431
-47.2679292000823 -150.286120112862 -271.808934028855 -28.4762860913666 -409.792601863508 1.05039172622876
-54.4442562957144 -167.005732396847 -292.848311450196 -19.6467735081899 -415.223455623059 1.74453664474804
-63.3361585937467 -187.333941016803 -325.528627176795 -12.5214619097269 -423.251759878829 2.28636347311145
-71.7755889163418 -206.445550028652 -359.292606569513 -7.32888689748977 -431.298409393109 2.66806328235082
-77.3776885263468 -219.08022908848 -381.937536761338 -3.96126143101824 -436.457360705116 2.90833259459259
-61.1854150304986 -176.447388965448 -435.172475808664 -81.6522102070975 -448.78328522908 -3.53232545001076
-57.465715470385 -168.983752394318 -405.652672877354 -75.7865112017066 -443.334976298434 -2.97982173314195
-52.2130288141658 -158.540913100788 -361.674116420811 -66.2027469787069 -435.011331932789 -2.09063793417783
-48.4799060956724 -151.651475118756 -321.359154210477 -54.2658958417579 -427.439522977904 -1.02006341095073
-48.6312066127238 -153.334172121904 -299.601014144735 -41.558129152353 -423.691849335345 0.0728623600758037
-53.6936304339621 -165.705866228138 -303.969988553528 -29.4300939139638 -425.384360186936 1.06862717823242
-63.2648039807261 -187.774103775621 -334.128658301719 -18.8897820320532 -432.409585998941 1.89104585845784
-75.4940452912573 -215.397533246257 -381.807291707388 -10.6120998096109 -442.908181704961 2.50110045310639
-87.2127417697507 -241.601042367295 -431.410569130212 -4.89810484485523 -453.516432278351 2.89738972134946
-94.8076426703688 -258.507556417476 -464.304560342188 -1.58722673864001 -460.345204766058 3.11720661435807
-72.1109820631292 -199.757303412103 -506.829630225856 -90.5308813143128 -465.029028360641 -4.40720855948493
-66.7287240755589 -188.841272464872 -467.491930425318 -84.0935860205054 -458.395929917768 -3.76717302621954
-59.1133252702706 -173.600118556585 -408.238696689772 -72.9602558400272 -448.317655060215 -2.6886044230246
-53.4582850665392 -162.922658659437 -353.969339202472 -58.9409108959817 -439.213861755228 -1.38914076597526
-52.9230776554482 -163.448910203188 -324.536952265191 -44.061989506247 -434.732674075856 -0.0818467161596179
-58.8436859062397 -177.908012723991 -329.656819974903 -29.9669789222246 -436.735350699493 1.08368478030086
-70.7434852742787 -205.122843193458 -368.931004984972 -17.8461761916496 -445.100751405298 2.0183391133544
-86.2840392282971 -239.899915886657 -431.794884053178 -8.51204086809821 -457.677845685801 2.6801418090071
-101.273543685416 -273.087921841284 -497.491998290144 -2.35448708759496 -470.439263539707 3.07538966014668
-110.774109423499 -294.015828111331 -540.44060085377 0.824286590587392 -478.6057135156 3.26275349083752
-78.9545723084598 -214.168420100507 -551.742435492494 -95.9599348511786 -473.959680642772 -4.96524816245442
-72.5174537071039 -201.104868709549 -506.265615489053 -89.2415330277594 -466.903037019683 -4.2717113522058
-63.3619472773129 -182.806802517821 -437.119402348603 -77.1883669585181 -456.176672283761 -3.06945627495623
-56.4484315605849 -169.716447916446 -373.754732271867 -61.8840949405573 -446.532529405164 -1.61922154681153
-55.4613036832606 -169.519013870682 -339.321101506326 -45.6375754420167 -441.84089706673 -0.171672137593257
-61.9315002338585 -185.314868562331 -344.921893994015 -30.2829600119688 -444.042367301868 1.10262172563315
-75.3293392317198 -215.795098412171 -390.115773706311 -17.1367766662595 -453.005988538099 2.10541805460046
-92.9976354279455 -255.09003352781 -462.845925529428 -7.11369217277099 -466.469427961841 2.79301194699787
-110.06814980406 -292.635506662593 -538.925896796297 -0.674781512800977 -480.12432365427 3.1784850181359
-120.724000819611 -315.940732406686 -588.117215997815 2.3965342049963 -488.795594058109 3.33779752235745
-4.59390696253585 -35.3470913803196 -77.5921796856137 -28.8701041293857 -234.681018023557 -0.54843697243863
-5.14161570929799 -36.7508889999878 -78.0925647925419 -26.3440449872371 -234.8343694952 -0.405431081428012
-5.70124925193143 -38.1893344496986 -78.1630302397825 -23.4105883310491 -234.900458997598 -0.236045178698737
-6.31415063946087 -39.7615167534705 -78.1539957686363 -20.1570742045628 -234.963355568289 -0.0462495283194554
-7.00688215799203 -41.5296531672292 -78.3671484573184 -16.704996602596 -235.094259422061 0.155958761866922
-7.77880123262675 -43.4891783488432 -78.9660813031654 -13.1961964798155 -235.329559969018 0.36150297960489
-8.59670255983561 -45.5561333969429 -79.9246993986354 -9.7746232084566 -235.658577976089 0.561335347649116
-9.39865058335943 -47.5769459143689 -81.0301448958153 -6.56790308360375 -236.024692853822 0.747483654113404
-10.1062966489471 -49.3587467527967 -81.9397539358898 -3.6731862186856 -236.3397083063 0.913838755475596
-10.642310213565 -50.7118879376557 -82.2744042264232 -1.15030608635903 -236.507460568654 1.05656062146091
-7.15887900757985 -45.5291405238019 -91.4973784305759 -33.1890103192564 -271.128714610241 -0.433935357100607
-7.79934857757936 -47.1818208348619 -91.7480921368097 -30.5218163922158 -271.256891364041 -0.268000477235981
-8.45802442026145 -48.8729790470574 -91.4020591094997 -27.3564139176815 -271.080598467511 -0.0690491694047454
-9.21449581857201 -50.7976240918456 -91.0358503586587 -23.8127670175208 -270.868094673144 0.155473775968613
-10.1242105640813 -53.0906168708199 -91.1494799841483 -20.0505267729695 -270.852986000066 0.395428143279975
-11.1946418573926 -55.7685969067548 -92.0146059809926 -16.2466740053849 -271.164404575321 0.63924306767506
-12.374250448119 -58.7032170286818 -93.5890162816248 -12.5706492498419 -271.786923641976 0.875306417448736
-13.5578761147108 -61.6347883287344 -95.5208350182087 -9.16247558529096 -272.561961196895 1.09326789404245
-14.6080910916141 -64.2250037416041 -97.2422270928253 -6.11853901808368 -273.230696273036 1.2850797158058
-15.3876851738258 -66.1364354910178 -98.1284009580616 -3.48764284238 -273.506605477023 1.44562299845679
-10.5639687100613 -57.2536725132239 -111.845111076741 -38.2767654086558 -306.123519241625 -0.425805540230603
-11.2230119800696 -58.9874732757699 -111.353971929144 -35.3683057057148 -306.094337505647 -0.229417429946289
-11.8918803416335 -60.738654357325 -109.923186913854 -31.8049813509595 -305.538754603872 0.0122469371186944
-12.7268536182863 -62.8818801093702 -108.591523123308 -27.7562183557839 -304.941595995821 0.288286239068693
-13.8440932628884 -65.6933644268189 -108.267334104318 -23.4444258131883 -304.729304230524 0.584041700814558
-15.2739211527035 -69.2416271480886 -109.448673304044 -19.108543588749 -305.140947205099 0.883241097994178
-16.9394185920319 -73.3363464325256 -112.071474743567 -14.9677850555623 -306.154179244648 1.17002512946679
-18.6643492582762 -77.5483611682351 -115.5157597363 -11.1927872925403 -307.486985019114 1.43068516633041
-20.2102914783341 -81.3002402260081 -118.77007031481 -7.88903335121602 -308.675610376282 1.65501162034066
-21.3367241960797 -84.0108598609066 -120.723529970913 -5.09510690585258 -309.208078024632 1.83706240800606
-14.9820628996888 -70.6649596582381 -139.632896613864 -44.1286307791991 -338.886491192521 -0.545745226328817
-15.5271360356003 -72.1862714325292 -137.611353922152 -40.8771319015773 -338.499150788573 -0.310622126910727
-16.0440649661928 -73.6512251207944 -134.021162152156 -36.7338192485277 -337.34764511914 -0.0105605493473509
-16.8305670362959 -75.7518915878556 -130.744431205496 -31.9412723656228 -336.187845626304 0.337015704518529
-18.1168635838272 -79.0184206564756 -129.432085753199 -26.8175727096725 -335.689859849977 0.709456626802119
-19.9811842060336 -83.6224040286229 -130.992982319836 -21.6972257996227 -336.231320087433 1.08281573825411
-22.3116542527778 -89.2877686155121 -135.33330460099 -16.8775731797567 -337.780288326904 1.43496183763302
-24.8178963800442 -95.3201241091466 -141.365562972303 -12.5791847547346 -339.897194993935 1.74792115860114
-27.0930500046723 -100.75576605548 -147.288335062851 -8.92451429753176 -341.857083041596 2.00956486179026
-28.7217687066294 -104.615924417791 -151.117255683825 -5.93794361489703 -342.863916348665 2.21434169352824
-20.6521959847034 -86.0879487632889 -176.224052730456 -50.7545583207204 -368.847787593749 -0.815625391659504
-20.8688751740632 -86.93307967744 -171.458267158092 -47.0628444883683 -367.863269193814 -0.531863786507629
-20.9628200773139 -87.5428059032389 -164.023528719801 -42.1412279022209 -365.843787328875 -0.15347682356569
-21.4796554525599 -89.1494323790136 -157.263227350336 -36.3396405287965 -363.893136997586 0.29061311377572
-22.8490327597837 -92.7143150060673 -154.093414926814 -30.1160944506926 -362.994254615513 0.764572756678346
-25.2366698334328 -98.5919165887663 -156.110114433039 -23.9422885827995 -363.700890229479 1.23280228483067
-28.4837003724676 -106.390538437808 -163.179852736063 -18.2265056513778 -365.968572597508 1.66454916078374
-32.1228380636572 -115.013482332587 -173.451878305744 -13.2601187331137 -369.156050813544 2.03690018726068
-35.474168876648 -122.88661148163 -183.795441749548 -9.18867372955255 -372.200366264027 2.33682121571177
-37.8313371551107 -128.387798213768 -190.725396508152 -6.01263196585274 -373.937926875784 2.56157574863219
-27.8193141724815 -103.907727895272 -222.941880500399 -58.1362946063319 -395.618560151403 -1.25184007966318
-27.3965664746405 -103.418382742738 -213.716767008986 -53.9197663715231 -393.798578117264 -0.907394682738505
-26.6600234176455 -102.330663024922 -199.993247134137 -48.0105996307107 -390.620872548097 -0.425393435928771
-26.5671091333769 -102.755502965044 -187.525854881416 -40.91572893608 -387.633256664815 0.145831938689189
-27.8705507570821 -106.338513604867 -181.245505885274 -33.2901454389882 -386.210457342689 0.74987953371477
-30.8777532505105 -113.724819139522 -183.801600065054 -25.7899734699381 -387.121326988955 1.33463113165726
-35.3697647075884 -124.374456377437 -195.010396929051 -18.9687709478382 -390.306379967974 1.85833124259271
-40.6215597845442 -136.61475507562 -211.869532204931 -13.2101688171112 -394.876955239436 2.29291271221367
-45.5313870772794 -147.94709393673 -229.146996163295 -8.68800703324829 -399.342821750417 2.62647373064712
-48.9230380598553 -155.732655782511 -240.892306101143 -5.36386384557213 -402.065999178755 2.8631452364966
-36.5436938653542 -124.1806951415 -279.857239156087 -66.1136630071797 -418.858652859789 -1.85083433446563
-35.0963910684428 -121.556635547991 -264.089098914116 -61.3131775728735 -416.020263431836 -1.43243473865932
-33.006512620755 -117.706086916556 -241.017678184783 -54.2204940432371 -411.443187984252 -0.817874638850153
-31.8645447839801 -116.069382038249 -220.098234497518 -45.5668884152143 -407.218003574509 -0.0862644255134051
-32.8956979147877 -119.27705871266 -209.18160131884 -36.2686727937886 -405.176662445112 0.676299101232476
-36.6065976297617 -128.376939846042 -212.350797186689 -27.2089503834731 -406.327260517368 1.39641428251082
-42.7077911750915 -142.654501225227 -229.363751270114 -19.113650898357 -410.594582232087 2.01963804334296
-50.1348963273286 -159.689163320628 -255.666596710931 -12.4771551836682 -416.813673860757 2.51318125083956
-57.1856490551337 -175.686300781612 -282.994987480677 -7.50780723856723 -422.989253128876 2.86920453107683
-61.9700049355761 -186.48655644127 -301.621205974504 -4.11237881517884 -426.894087005985 3.10432399806744
-46.2959092429411 -145.814624278961 -343.253947149118 -74.1661309171176 -438.043747827563 -2.55988537989519
-43.4779279360225 -140.351800461245 -319.128033611115 -68.7737380321989 -434.145429554416 -2.05757325890201
-39.5460375509756 -132.760755039258 -283.942713400868 -60.3852680789177 -428.103182553908 -1.28693219701779
-36.9469151371547 -128.256842845073 -252.168344511717 -50.0264320413341 -422.602457641689 -0.370443701450995
-37.5004749900173 -130.693458792614 -235.320752376315 -38.9241509535202 -419.939073268939 0.568047520272211
-41.9457540941277 -141.581260658527 -239.130462234211 -28.2060804244226 -421.345661846031 1.43134025865592
-49.9207277730575 -160.025262652394 -263.296215819221 -18.776526592329 -426.733494370761 2.15231683692856
-59.9782312042562 -182.770734509336 -301.491130427516 -11.2493061200503 -434.676339311342 2.6944924135947
-69.6691008788383 -204.430722181162 -341.651850408403 -5.87584648793014 -442.656711824779 3.05699582344252
-76.1391248618927 -218.815953231541 -368.932538902893 -2.50040736811527 -447.787343310356 3.27472974835075
-55.4415744845126 -165.539302106895 -402.440870198982 -81.1641793441894 -452.270957436408 -3.24085955611342
-51.190918806905 -157.135132481584 -369.788149254442 -75.2689320525923 -447.529445352161 -2.65814810913112
-45.30608356634 -145.612983537571 -322.079907188389 -65.6948238225385 -440.315523881796 -1.73392006611179
-41.1568776491692 -138.079194757737 -279.210052223166 -53.7794850522949 -433.821638588846 -0.639388779544074
-41.1561575352119 -139.5889404061 -256.354194126547 -41.0496749080638 -430.699885951167 0.462901772240813
-46.2526624281905 -152.061869285974 -260.732392281533 -28.8482849874996 -432.336588102022 1.45405464927619
-56.0218554706911 -174.446881530434 -291.993155536974 -18.2329213424646 -438.633857242698 2.25642981741189
-68.672302408677 -202.74716845559 -342.208644650749 -9.92740107895802 -447.981860880736 2.83110380988896
-81.0121564698206 -230.010664454414 -395.523652296868 -4.23226346092643 -457.448638389228 3.185461626524
-89.1460543279481 -247.878818886559 -431.555805890893 -0.938253822655778 -463.566897413763 3.37530219384558
-61.2865967450326 -178.022587709932 -440.122458313057 -85.4644768322107 -460.496687917029 -3.67602073313417
-56.0915266093005 -167.714733713353 -401.91030142347 -79.2940514179965 -455.451716442954 -3.04124334446009
-48.9044353698963 -153.624597357044 -345.923584726734 -69.0067715246496 -447.828700793566 -2.01523880376782
-43.7246378567932 -144.125039145816 -295.753427767898 -56.1365326569611 -441.020576099435 -0.803537414864659
-43.3508689557467 -145.034175008101 -268.966721731852 -42.3956571103772 -437.796050446257 0.404874071968221
-48.8576351181028 -158.505542777132 -273.703231280691 -29.2611680277105 -439.578144182829 1.47662030880477
-59.7779976449821 -183.382152879128 -309.577412258301 -17.89200274961 -446.263117124776 2.32705025448198
-74.1054988516396 -215.212294844304 -367.667937234737 -9.0899085012887 -456.185403287577 2.91593315191793
-88.1658626449901 -246.04680890801 -429.643027691707 -3.19502248750732 -466.258446270433 3.25738876392092
-97.3603169494526 -266.087116794552 -471.351466338127 0.0323271536115067 -472.765402461222 3.42346880862973
0.382063199374522 -23.8928916406452 -44.3681962805795 -28.2480729310168 -234.304491029004 -0.337107146176563
-0.158492942963052 -25.2798278185437 -44.8155091194446 -25.7246154024405 -234.461231111434 -0.202802926664454
-0.736783091068819 -26.7597109388486 -45.011889830163 -22.8059862492259 -234.535500648315 -0.0455280522878579
-1.37402337392814 -28.3864838439534 -45.1798821595669 -19.5749611800028 -234.602329317158 0.129885687031081
-2.07925764690961 -30.1831182754758 -45.5084695529161 -16.1477843063984 -234.725203245046 0.316718315318042
-2.84201684486841 -32.123078513164 -46.0957918788834 -12.661619260147 -234.936683227069 0.507070629479861
-3.62998705504327 -34.1244754742617 -46.9166820113091 -9.25721561964076 -235.227468206899 0.692790850693531
-4.39280662808793 -36.0597583664293 -47.8255567728412 -6.06088013285022 -235.547415217676 0.866433694666978
-5.07122166818183 -37.7789368652317 -48.5941139220707 -3.17026559554173 -235.818350778143 1.02205526281529
-5.60917027241483 -39.1400975365203 -48.9723492741556 -0.647116065572777 -235.954860470509 1.15569614199739
-1.2553589261503 -32.5607650067512 -54.2034655943751 -32.2729210703847 -270.245276647253 -0.17802027119198
-1.91159582025879 -34.2467156167662 -54.5421458310054 -29.6218791575605 -270.417693045606 -0.0207512575052205
-2.62339420807673 -36.0505026193174 -54.5302153270602 -26.4947383303257 -270.306820277251 0.16540292289559
-3.43463694704948 -38.0909255070071 -54.5366577831241 -23.0010831667937 -270.150000038449 0.374726896344395
-4.36946530656393 -40.436162260151 -54.877289935927 -19.2895174082558 -270.153691675084 0.598902431773967
-5.41782755407529 -43.0656856514667 -55.7169619023178 -15.528195376627 -270.432227027621 0.827863996252592
-6.52998330889337 -45.8552908384357 -57.0153222128849 -11.881583969343 -270.972152263141 1.05093059240268
-7.62200400417786 -48.5909979979197 -58.5311202089065 -8.4888884309826 -271.633565826377 1.25804525420033
-8.59151033472957 -51.0098058706965 -59.8845527926114 -5.4491986140562 -272.188366181098 1.44091357636989
-9.34008606971521 -52.8575656980264 -60.6616124408159 -2.81633654859577 -272.383746602628 1.59382363881199
-3.37989916352341 -41.9666587534972 -68.0875339314468 -36.9283523812626 -304.546404345789 -0.10291500586486
-4.1062418441689 -43.8456105647326 -68.0021385872619 -34.0627693534539 -304.628792469633 0.0826103486229858
-4.90017037936889 -45.8613564138875 -67.3570611438868 -30.5845391439826 -304.230867332609 0.307291316392349
-5.8527272331224 -48.250730395779 -66.818755751786 -26.6419487780395 -303.771851724024 0.563221385772138
-7.02258096822669 -51.1688295203051 -66.963338928079 -22.4353887448437 -303.620553139262 0.838791791617212
-8.40792695687426 -54.6168947759312 -68.0966822285462 -18.1869581121167 -303.984307702091 1.12006102159453
-9.93526801356437 -58.4125578161355 -70.15814798455 -14.1069493681342 -304.843744107507 1.39238409491104
-11.4677923048223 -62.2109277365726 -72.7272086364636 -10.3648608448592 -305.954593421693 1.6421480001081
-12.8324108994717 -65.5739666630553 -75.1323973434547 -7.07124544663935 -306.916613827343 1.85837934114727
-13.8605672179111 -68.0739920727602 -76.6418563064883 -4.27384009235448 -307.28825852073 2.03388349819249
-6.10703672384399 -52.1453407070987 -86.6592153658 -42.1446975180629 -336.311098514177 -0.128131969673408
-6.81773921857094 -54.0233869470781 -85.6412472679183 -38.9831998048577 -336.151544608161 0.0909405936365025
-7.59299769417361 -56.0347465010948 -83.6767745358809 -35.0097639195617 -335.315525544809 0.364905588588132
-8.61263853008332 -58.6222990506077 -81.9730891527503 -30.4259853016797 -334.434419704961 0.681729247446005
-10.0028795477641 -62.0972581444329 -81.578010334189 -25.5078085437793 -334.069823418003 1.02414784670026
-11.7840852591034 -66.5102751849641 -83.0536476240528 -20.5586287417199 -334.539990823709 1.37210799751877
-13.8505456446611 -71.5997699855136 -86.3121646847939 -15.8598346141008 -335.817472137007 1.70527319231335
-15.9834318815561 -76.8245147048194 -90.6260132191006 -11.6295262626108 -337.53149848327 2.0055358061569
-17.8955331864107 -81.4766248572608 -94.811876499497 -7.9978998074392 -339.075519955928 2.25926054122747
-19.3031646947322 -84.8588362612094 -97.5735318814707 -5.00429827926906 -339.786520869837 2.45865243028978
-9.60819330688532 -63.2947107745067 -110.817740518811 -47.843919058835 -364.864960038672 -0.267509895553756
-10.1611401340103 -64.8616187861569 -108.080229038293 -44.3185191097895 -364.298946655452 -0.0090258616186972
-10.7432696549869 -66.5025132437214 -103.718574571358 -39.7105093132261 -362.855017622254 0.326985335776205
-11.691891983259 -69.0087502820754 -99.8737024578503 -34.2929748599717 -361.414207313703 0.721325419331943
-13.2538929859127 -72.9569333773082 -98.3924171116786 -28.4462012173266 -360.768434061613 1.14771239931252
-15.4942721873888 -78.4912216050855 -100.263708010033 -22.5869691487187 -361.36873383557 1.5770987521382
-18.2645998160385 -85.2446953077825 -105.363946132005 -17.0964821176456 -363.177197160282 1.98145358914937
-21.2227683348515 -92.3891140532886 -112.472365182384 -12.260789757408 -365.669828832875 2.33737269568613
-23.9018159532959 -98.8068811847616 -119.555699755839 -8.23554225760516 -367.991440083676 2.62920106277009
-25.8309903198916 -103.381390801299 -124.357090400037 -5.0438184648012 -369.216426980978 2.8504399618899
-14.0716669271362 -75.7012526110822 -141.450457628661 -53.9105895543628 -389.755435128561 -0.52821041317065
-14.2573116925182 -76.5134060203403 -135.871499676715 -49.9737759037216 -388.641966584358 -0.223416797140655
-14.3790936194414 -77.2341774619383 -127.549373195082 -44.6062121873109 -386.437878708812 0.1898778415625
-15.0373464584544 -79.2187878097133 -120.157489119806 -38.1755545266718 -384.312771725501 0.680616154958537
-16.6761072271956 -83.4640330484019 -116.802502265181 -31.19924980803 -383.325465567052 1.20898014364381
-19.43564787203 -90.2668514995451 -119.120860535141 -24.241808855705 -384.079895689747 1.73356314175757
-23.1133423904346 -99.1263590219311 -126.94386417202 -17.8142122109372 -386.52561329783 2.21658200966239
-27.1926134624698 -108.817039759156 -138.320027679666 -12.2896618573413 -389.96056715766 2.62886136732116
-30.9364739837217 -117.62329996627 -149.89309910478 -7.85212706528014 -393.238544619305 2.95425344440341
-33.5781849165657 -123.786714846578 -157.84249624536 -4.49429044701308 -395.126909567416 3.19085413802547
-19.5733069994393 -89.4784761956165 -178.628913190045 -60.1286859597458 -410.687289435874 -0.901657126437321
-19.1272161272003 -88.989515209914 -168.822459307985 -55.7596927227771 -408.94475972815 -0.542928442599024
-18.4415078403999 -88.0875298473022 -154.584944055827 -49.5402027944838 -405.890186662367 -0.0359107002486986
-18.5208003885524 -88.9757238481273 -141.924116801493 -41.960658492961 -403.01059564942 0.569917436536994
-20.096710549505 -93.2507769933798 -135.743688067785 -33.7071510556924 -401.652015541962 1.21602532546753
-23.4159848329432 -101.421145904344 -138.544560626297 -25.5205665668598 -402.579371817516 1.84556965486148
-28.2122402975237 -112.827911066284 -150.105489263949 -18.06621380627 -405.728820672374 2.40945071720361
-33.7458879230012 -125.746264523304 -167.513294232127 -11.820130907589 -410.20925886841 2.87275549932512
-38.9068819062427 -137.652555593419 -185.540155174592 -6.99458444465199 -414.557155388028 3.2212202320954
-42.4868680810804 -145.853560063147 -197.994121708096 -3.53356998044737 -417.195983785748 3.46222281354185
-25.8021339870722 -104.012259520149 -219.964222968951 -66.077964141438 -427.410194995496 -1.34687725927343
-24.4772818102182 -101.723733049764 -204.677505322555 -61.2921265069399 -425.05539545327 -0.928429190321803
-22.6536410241212 -98.5416738485281 -182.755581166617 -54.198710524513 -421.181279113192 -0.315638633102856
-21.8801737138744 -97.793112030649 -163.339240454362 -45.437331830659 -417.587975364525 0.416570070565163
-23.2459735539638 -101.808167971251 -153.538017415809 -35.8794784100501 -415.889134121383 1.1869603482631
-27.1192912076924 -111.331631244972 -156.817329333031 -26.451108793572 -416.993181932416 1.9219467430847
-33.1670440488918 -125.538710602444 -172.901560707302 -17.9796990881613 -420.824131755985 2.56085646428926
-40.4060200282596 -142.16600557827 -197.811893475079 -11.0502968836148 -426.320314466117 3.0636443074922
-47.2773028557822 -157.73425746416 -224.034544830058 -5.90164556580864 -431.716703312992 3.42045664999523
-51.9858631878554 -168.329393206103 -242.200928785613 -2.4139546022712 -435.088280218597 3.65288060661256
-31.7151015519277 -117.266954145412 -258.594314875681 -71.0378864219379 -439.629774285284 -1.77174723630728
-29.445750991909 -113.06163220909 -237.615522436791 -65.9066660774404 -436.820884006121 -1.29618585427158
-26.3921220167952 -107.433920772292 -207.723278015849 -58.0530422044993 -432.349069262339 -0.582040121015993
-24.6872652236624 -104.900947481009 -181.418703381764 -48.2664730712819 -428.254038189306 0.267600194903888
-25.7700367498994 -108.498853621103 -167.957631448646 -37.5850331091666 -426.33492816455 1.14921300125383
-30.1132131313312 -119.169281582048 -171.64336105133 -27.0941021297697 -427.592079281261 1.974385548034
-37.3250752862161 -135.941166431909 -192.152988849719 -17.7634911727131 -431.940510236685 2.67253388078939
-46.2107821228444 -156.088511555562 -224.581852413093 -10.2767177239014 -438.205265471684 3.19961706213627
-54.7798762253702 -175.227508331179 -259.197860458354 -4.89606626660232 -444.404474593788 3.55151710217316
-60.6115509411724 -188.159385812395 -283.228085415989 -1.43770090833686 -448.335000187953 3.76630722097197
-35.5606136597351 -125.834131948575 -283.455762610308 -74.0758645407678 -447.103279966065 -2.03989254524264
-32.6502347717516 -120.352039309929 -258.661474733337 -68.7502585937788 -444.156267807927 -1.52633900912035
-28.7608469340885 -113.09662952055 -223.432045949283 -60.4459450916154 -439.525455906361 -0.744975326664422
-26.4265592255981 -109.387558025866 -192.571022199709 -50.0435446837156 -435.323800664509 0.181195763186073
-27.3104436756863 -112.700792495001 -176.71003998611 -38.6788429314781 -433.392146185358 1.13376357289542
-31.9438529462441 -124.079451023622 -180.647075482456 -27.5342722656166 -434.744430362554 2.01467583701736
-39.8962404295236 -142.455562862534 -204.027978664218 -17.6722681142153 -439.290107507393 2.74688380597105
-49.8451334999757 -164.830165247249 -241.396881384321 -9.84343941691102 -445.827680900757 3.28402842996607
-59.5262239385892 -186.259246497335 -281.602048887393 -4.32787517698332 -452.314091863456 3.62676203081487
-66.0942392575908 -200.689481347792 -309.542187439245 -0.900237935563012 -456.447144751194 3.82583091245161
5.69913711456411 -11.6734935307805 -8.93745941978946 -27.6115656365721 -233.981443055539 -0.11112744759875
5.16174155417672 -13.0513439530943 -9.35599651934652 -25.0912364374994 -234.13382118017 0.0135845274326768
4.55651213049188 -14.5898849578119 -9.72561826882741 -22.1849357930098 -234.205714177623 0.157696939359818
3.88583862525379 -16.2906625770248 -10.1192717784481 -18.971255342844 -234.266414515598 0.317684040466052
3.16135828166819 -18.1307755580901 -10.5940295589737 -15.561996018176 -234.374664680856 0.488240596205362
2.40534414612277 -20.0575060895337 -11.1713095939913 -12.0907380758464 -234.560931693464 0.662718017179685
1.64951302027574 -21.9902729633162 -11.8266644101089 -8.6962679647155 -234.817322388498 0.833853306647678
0.931253418209504 -23.8302642759834 -12.4926431856811 -5.50479790577767 -235.098502262203 0.9946469477227
0.28808441018422 -25.4756511483773 -13.0741372291164 -2.61551402448308 -235.33343181429 1.13919283123936
-0.248307028302371 -26.838550105616 -13.4717122204881 -0.0927153571968624 -235.444242760929 1.2632807516714
5.11073823861186 -18.6355944443638 -14.1704930306758 -31.3590924949073 -269.564097405726 0.096726792388328
4.42962291463621 -20.3703401716861 -14.6437507087009 -28.7217024534786 -269.756063246162 0.244418054521059
3.64828949133285 -22.3168705193803 -15.0463579818933 -25.6247343808539 -269.676454742533 0.416781558295158
2.764441395905 -24.5072975472708 -15.5062473678258 -22.1685970020434 -269.543244583104 0.610130302634487
1.79060499889852 -26.9334613833931 -16.1253781936921 -18.4926310141487 -269.546100877444 0.818201747397731
0.757727585160473 -29.5314018741834 -16.9443726429973 -14.7581359390987 -269.790540105964 1.03253393837641
-0.285646972540558 -32.1795185190886 -17.924290810238 -11.1265532429809 -270.265074158843 1.24329876981632
-1.2789405224152 -34.712619360504 -18.9509863228092 -7.73808299145789 -270.842486391438 1.44047966305141
-2.15890178352063 -36.9494186562646 -19.861369957947 -4.69602111856626 -271.315047503233 1.61516448048662
-2.87073013210238 -38.7268570151755 -20.4848662739607 -2.06012299337753 -271.45217283384 1.76066674074714
4.46855760060573 -25.3675877970785 -20.6181494560386 -35.6273283369536 -303.39183269344 0.244943887428224
3.6550931398975 -27.4252086993579 -21.0361682207797 -32.7962638597362 -303.533717149236 0.41844496024787
2.70306865977439 -29.7646750380894 -21.3309397147963 -29.3833617507146 -303.221631855679 0.625045963862311
1.59750472992477 -32.4666863708403 -21.7373625123335 -25.5186513181903 -302.833833840611 0.860366512751437
0.347061878018028 -35.5483706072063 -22.4470772340685 -21.384348919051 -302.703460082672 1.11624310627411
-1.00816889328352 -38.9327306891293 -23.5432528647109 -17.1895519351477 -303.018661326359 1.38120284195747
-2.39691919844984 -42.4423336172871 -24.9677610986606 -13.1391786174336 -303.762931561609 1.64161557916098
-3.72539726610899 -45.8210421362327 -26.5280597828782 -9.4049092734182 -304.71698739184 1.88341611441127
-4.89289906326557 -48.7800568099146 -27.9427378331986 -6.10529080708061 -305.521964371175 2.09407247560064
-5.81128033290166 -51.0574659149986 -28.9163396503755 -3.29912100171461 -305.782078493191 2.26432232638602
3.74405528977187 -31.7440805191757 -28.4412030456487 -40.2986938654879 -334.495861752952 0.322606337272198
2.82789875745425 -34.0466025625017 -28.6228183795192 -37.2091014036247 -334.465791283405 0.523838206256719
1.73073651994965 -36.7179125962676 -28.5760132572952 -33.3645628260331 -333.809920034128 0.770309017640402
0.410563751183929 -39.9184614451601 -28.7264980279501 -28.9319205695645 -333.082122486973 1.05629588115042
-1.13702390528936 -43.7104388701516 -29.4267534470907 -24.1529048468015 -332.776972852483 1.37056123118142
-2.86352825720696 -48.0042421504521 -30.8390478654938 -19.3071349445216 -333.176642147181 1.69712767504842
-4.66715530260361 -52.5471381409994 -32.879743940639 -14.6664895839467 -334.257816626084 2.0170423359165
-6.40661068052205 -56.9578032179691 -35.2303539289568 -10.4528270903096 -335.694526192105 2.31100665367227
-7.92640504995431 -60.7998784167368 -37.4133488965901 -6.81003263740014 -336.956532627484 2.56233319284716
-9.08947925268082 -63.6783787126774 -38.9235071612271 -3.79659196304531 -337.466631443331 2.75938998178659
2.87213803161531 -37.7636688837424 -37.9163746398075 -45.2318842129955 -362.136621517504 0.323584523835653
1.90787577710745 -40.1808495812473 -37.5806760598712 -41.8403941092652 -361.816489917396 0.553697926756768
0.721533153808551 -43.0604658329971 -36.8218075636824 -37.4693011054457 -360.709322262779 0.845378794267844
-0.780288314255733 -46.6936965738171 -36.3910042261697 -32.3275883119507 -359.558007121736 1.19067655010523
-2.63108695955498 -51.2209560760705 -36.9113507167694 -26.7335546075423 -359.037055951537 1.57379927667016
-4.77674550782502 -56.5439971779181 -38.6784572967246 -21.0625474770227 -359.535105178347 1.97243846061665
-7.07526975081856 -62.3107090018787 -41.5752878115499 -15.6798612880647 -361.019939266471 2.36051695359133
-9.31877881712449 -67.9700991829635 -45.0898326942449 -10.8775016961675 -363.042717609515 2.71224692260008
-11.2724856536634 -72.8840821138644 -48.4316238751087 -6.83301991531919 -364.880799031506 3.00652486362311
-12.7268807358528 -76.4758292478272 -50.7514569169629 -3.60098901543641 -365.7613087488 3.23013213412991
1.76021230854762 -43.5371374021293 -49.3444133769894 -50.2441100340397 -385.821162070221 0.248946860524708
0.831953759120164 -45.8825512943923 -48.091647065488 -46.5366182890309 -385.131804804367 0.508500320047272
-0.348305263228413 -48.7709602593144 -46.082211770529 -41.5779274731442 -383.505436428064 0.850269357275049
-1.96327160757466 -52.701096262259 -44.5965085134038 -35.6213755235388 -381.878379153229 1.26281563111596
-4.09977945661097 -57.9400498485423 -44.6811655474348 -29.0770808967922 -381.116983635356 1.72403431666445
-6.70312219269343 -64.3884211320666 -46.8345549493389 -22.4416397364878 -381.725550340131 2.20325373083221
-9.58036266047184 -71.5679892597253 -50.8974894702715 -16.2015813253633 -383.660834040847 2.66533919363246
-12.4346589897062 -78.7075041516428 -56.0808113527354 -10.7389970834107 -386.338184903998 3.07686441614052
-14.9204912018542 -84.9010177300034 -61.1220562666395 -6.27036742550917 -388.828191182281 3.41256890525206
-16.7218886195317 -89.3230630257708 -64.6271957566978 -2.83742229064461 -390.1570553846 3.65928349661431
0.331594711235341 -49.2005902031523 -62.7703917858932 -55.0859667397922 -405.282016318064 0.110423067229178
-0.451509589637506 -51.2449535132035 -60.1057286367293 -51.0806176161977 -404.208647471803 0.39945983471236
-1.49346837580724 -53.8745873634127 -56.1722576603757 -45.5210954404509 -402.065010668377 0.794965600254243
-3.11709167010668 -57.8958615101104 -53.0486200179532 -38.7034571747243 -399.968682523857 1.28032366724662
-5.49209767497452 -63.7594504440571 -52.3794499327953 -31.138938593515 -398.973636853649 1.82536863775959
-8.56881784624312 -71.3723940796955 -54.9319594086024 -23.4655293912916 -399.69952460702 2.3892759226306
-12.0938554354694 -80.1066219775606 -60.4971277428353 -16.3149371591116 -402.09049223263 2.92620356197774
-15.6614913345336 -88.9274548257429 -67.9309595053512 -10.1756282240956 -405.423722281099 3.39434188721275
-18.7825715827703 -96.596077066685 -75.3215140579619 -5.30372158616011 -408.565510937676 3.76522198992819
-20.9909967066607 -101.956547665727 -80.4660707800785 -1.71443658757383 -410.352436081759 4.02827340714023
-1.37500754755277 -54.7120823917905 -77.4158062882806 -59.4199412051589 -420.439199499361 -0.0648913020297219
-1.90566139373826 -56.2397482023516 -72.8855416234944 -55.164026852594 -419.041773233989 0.252701900420065
-2.67270781939107 -58.3414291128261 -66.416470636572 -49.0516791330383 -416.471328001604 0.702375365597462
-4.18907145202122 -62.225854563366 -61.1476383424204 -41.4159724201318 -413.991043014667 1.26056331101972
-6.73083726334102 -68.5689895870247 -59.4475442118171 -32.8666925358127 -412.811766740525 1.8879995638898
-10.2558649926553 -77.284934112609 -62.378097321853 -24.1883252336943 -413.651309804066 2.53297341495522
-14.4462039638593 -87.5854284782663 -69.6772806098207 -16.1679132169588 -416.441008077827 3.13830108534368
-18.780403725814 -98.1606691269505 -79.8170893075116 -9.40654252792546 -420.33697894263 3.65385353774212
-22.6056263122358 -107.405916246281 -90.1129077972747 -4.19555016042017 -424.032006983534 4.04946842882345
-25.2643825417987 -113.762373627355 -97.297630436 -0.509789819122494 -426.207956969284 4.32007093052634
-3.07444348470212 -59.5817588301785 -90.9945145329665 -62.8275444987114 -431.372714892255 -0.231104561419722
-3.30800691096248 -60.5127514393635 -84.501495072188 -58.3912635364596 -429.780387836526 0.111503071476361
-3.73672131875433 -61.9696785449241 -75.3838264975452 -51.8460947414327 -426.963575267434 0.60894071076121
-5.07787146547451 -65.5823345671901 -67.9076619174887 -43.5513747533742 -424.268348367284 1.23004746313376
-7.71275822775977 -72.24113965373 -65.1341068579382 -34.195604380371 -422.999052561933 1.92708364911662
-11.6036356707523 -81.8570578898567 -68.3733998663126 -24.6894572963273 -423.932915834336 2.63862015768137
-16.3744194313085 -93.497429433707 -77.315960868381 -15.9594803744476 -426.990305226287 3.2973528559352
-21.4042587113735 -105.619983926065 -90.107299090152 -8.70781345733036 -431.24868958537 3.84614639781608
-25.8899704012094 -116.294971820011 -103.331564171936 -3.25271881472918 -435.293579720906 4.25470171053544
-28.9756993640272 -123.560256057366 -112.596310097392 0.476001092087129 -437.715352307695 4.52517952916812
-4.22590407627274 -62.8408848043383 -99.8062975179321 -64.886629338443 -438.330441022501 -0.329816610896354
-4.25074067758857 -63.368975460556 -91.9812743259967 -60.3577689287058 -436.720685897301 0.0293096402499092
-4.43922950408339 -64.3893583793287 -81.0798815789918 -53.5720113905417 -433.904463568493 0.557761008981965
-5.64993069026351 -67.8134001444483 -72.1395217572698 -44.8971634537221 -431.225475039113 1.2189321523777
-8.33131683636671 -74.6593097001583 -68.6579918908522 -35.0630475057352 -429.991665326147 1.95943519491925
-12.4445588601807 -84.822033915996 -72.0851349583462 -25.0572565890338 -430.983130705684 2.71140335923928
-17.5752166903443 -97.2736385003439 -82.0800004122734 -15.8972189158425 -434.113159078752 3.40090253031831
-23.0426795423027 -110.336946265751 -96.5984983013972 -8.35218328722527 -438.444381094865 3.96660704849903
-27.9516969836284 -121.893510364907 -111.766687851328 -2.7574749871876 -442.55080604036 4.37906755289205
-31.3142965818732 -129.724255147844 -122.426264268095 0.988447813734956 -445.02017206737 4.64646886631477
11.1436636470958 0.818418296227573 27.2604044596649 -27.013802963916 -233.771011422381 0.118710001401476
10.6072757119711 -0.553651832289305 26.8623015226644 -24.4939571963592 -233.908600629268 0.233614530036587
9.97042560921833 -2.15952926642816 26.3024786620393 -21.591997582588 -233.963748055687 0.364487356930554
9.26043697219158 -3.94618235989945 25.66494936362 -18.3834182711147 -234.005027710376 0.509165180879211
8.51095036020911 -5.84253845841731 25.0311286550985 -14.977284491419 -234.090910015082 0.663775970184771
7.75703622221158 -7.76778668655235 24.4603073398944 -11.5055894259727 -234.252323922627 0.822890587696421
7.03029548536093 -9.64142857783 23.976579513222 -8.10714265303382 -234.482707053097 0.980051074441691
6.35509256242638 -11.392908001644 23.5659984839939 -4.90978785182392 -234.738831028414 1.12857611188052
5.74673570918762 -12.9687182801509 23.184560926062 -2.01548552413373 -234.952199083673 1.26244981085109
5.21181219360748 -14.3356758556565 22.7742467908671 0.508338663663961 -235.047403683377 1.37708092222656
11.6570226920457 -4.38152107240556 26.8049775407207 -30.5358969359768 -269.263386856225 0.376257599951615
10.9458341691242 -6.17095098930029 26.1820144912073 -27.90417018809 -269.439290975773 0.514252810903793
10.0850205858174 -8.27491718918817 25.3371566919632 -24.8198634611415 -269.341672141921 0.673033948262225
9.11610290055381 -10.6369215370189 24.394060220077 -21.3769442443464 -269.186475020271 0.851078819053401
8.09050943547939 -13.1701284422463 23.4740847255727 -17.7090241457738 -269.1620261921 1.04424591438782
7.06179074981497 -15.7647439457045 22.6666498586158 -13.9740692790969 -269.373873676312 1.24563601494742
6.07825482125761 -18.2993573629104 22.010043665729 -10.3335459269895 -269.812326276716 1.44610067875539
5.17740620997848 -20.654990310725 21.4870752155433 -6.9310356641746 -270.353661992427 1.63535634723044
4.38314428410672 -22.7293990301291 21.0362846210556 -3.87560647684812 -270.794741435364 1.80347790311285
3.70607596867394 -24.4484431287936 20.5756385770154 -1.2334881707032 -270.909612342649 1.94242338820132
12.5884115715396 -8.31310394969148 28.1234085602354 -34.5206888186538 -302.987187987335 0.597602453215898
11.6769459356561 -10.5612598702746 27.1712248260392 -31.7057760981015 -303.112379510649 0.75907701931106
10.546865778159 -13.2527028494079 25.8849494214601 -28.3210843048608 -302.781520926551 0.948334652600757
9.26339770991381 -16.3092867802706 24.4791030551134 -24.4843977490123 -302.368627441746 1.16476124844814
7.90667101822402 -19.6065727897892 23.1625063228801 -20.367006059384 -302.203646345962 1.40374274850624
6.55820271880526 -22.985336076949 22.084526992518 -16.1716594543641 -302.47396314623 1.65618763740148
5.2888774040341 -26.2684620691768 21.3022631637147 -12.1033065548881 -303.165585467746 1.90914059107023
4.15027814382187 -29.2826921873758 20.7736241851849 -8.34003515192408 -304.065055173962 2.14746164301617
3.17085342782923 -31.8814515051962 20.3774636114153 -5.01137598313859 -304.821639402002 2.35623079432226
2.35785363356666 -33.9622519358063 19.9579944319993 -2.18841866943029 -305.047990008889 2.52330191946524
14.0135757152897 -10.6641501267372 31.5734024340965 -38.8318683025085 -333.968164895809 0.776226770262159
12.8712408607985 -13.413497381205 30.1320057618528 -35.777981729205 -333.922807059616 0.959719202151301
11.4144913507893 -16.7979218908967 28.1658450297138 -31.9896053656682 -333.249630870262 1.18036766234295
9.74687176948781 -20.690501027483 26.0618769228727 -27.6112462260344 -332.494443290005 1.43912653993823
7.99339996224143 -24.897879139888 24.1901881656901 -22.864750628907 -332.145348000932 1.7308942321449
6.27707161562571 -29.1831503652776 22.8049270594836 -18.0182684269159 -332.482177233289 2.04357150785192
4.69912120163959 -33.2940508267221 21.9882449284235 -13.3437173705857 -333.485066919031 2.35896330303697
3.32516229644534 -36.9975542129334 21.639075819989 -9.07450591893027 -334.837605756793 2.65541629086165
2.17998115980231 -40.1139268844125 21.5089972775162 -5.37448658654214 -336.023681416808 2.91158776515076
1.25389553650768 -42.5365653972863 21.2874247816478 -2.32455491199978 -336.481146798009 3.11040520580269
15.9969721536516 -11.1919381650395 37.553196576783 -43.3061595226665 -361.460497563398 0.911823849237833
14.5844584700729 -14.4989565591937 35.3749627940414 -39.9841853149055 -361.130455305189 1.1136922147337
12.7266352779077 -18.7127948058885 32.3632711083356 -35.7169331396213 -360.012210198808 1.36433901959647
10.5880235322751 -23.6148613283934 29.2087767555583 -30.6738856737834 -358.834125442316 1.66752498672808
8.36185097360015 -28.897532383791 26.5555377828606 -25.1385827931565 -358.258624431533 2.01794160200853
6.23084223013923 -34.2082234252144 24.8271379001054 -19.4666199731461 -358.669064444341 2.39959040194131
4.33625127269758 -39.1954470691455 24.1386557509813 -14.023340434066 -360.037679789536 2.78727698237158
2.7556879988668 -43.5639516368671 24.2785140804319 -9.12060949441477 -361.930822048296 3.15079524154226
1.49520100387954 -47.1253911660086 24.7647375372461 -4.97086328273817 -363.649752748073 3.4606609735699
0.504340781890279 -49.8144354557306 24.9992779496298 -1.66829958984924 -364.447960608222 3.6939320775732
18.565852548525 -9.78205699604554 46.3929616575857 -47.7407315436223 -384.965425939785 1.01095488561643
16.8324766075044 -13.72820600602 43.119365827091 -44.1570444787954 -384.277849092948 1.22521934691855
14.4802744957443 -18.9473272925377 38.5378872430865 -39.3784759160111 -382.654608552077 1.50149900476118
11.7683481512775 -25.0635821447589 33.8425416920023 -33.5908849281119 -381.007132227265 1.8483417928691
8.988763260813 -31.5943325433146 30.1076999308536 -27.1464668771447 -380.180733837118 2.26090572406277
6.40575116154225 -38.0255237150262 28.0078971461968 -20.5097421596914 -380.669468856835 2.71838658152683
4.21138425384247 -43.8796644665639 27.7000378615971 -14.1672957887285 -382.435235531158 3.18662319917293
2.49082140742539 -48.8019832274011 28.7946832288559 -8.53343140292059 -384.916358856102 3.62463863170547
1.20761734288706 -52.638855175304 30.4252326274667 -3.88274153212087 -387.222347101581 3.99299295242308
0.232474249747796 -55.4423155661582 31.5022039883061 -0.324645091407006 -388.424348493632 4.26187193037801
21.6533263970524 -6.56184712098031 58.0671310246585 -51.8832218740359 -404.214312293233 1.08569346578945
19.5402013503782 -11.2518775450288 53.2473749400707 -48.0814751246365 -403.1627307689 1.30445960043815
16.5911556052503 -17.6756977252598 46.4474498216867 -42.8139528063524 -401.047285599785 1.59884711170949
13.2040311893915 -25.2113504552216 39.6307236741968 -36.2668741569535 -398.94529039222 1.98483417642054
9.80279531064215 -33.1335592593677 34.4800983829154 -28.8609204695007 -397.876886537648 2.45905827975866
6.75316476242826 -40.7235863895339 31.9989121651484 -21.1858268388146 -398.444163166025 2.99511344076992
4.30770210376836 -47.3540656466315 32.3939848558629 -13.8733542296885 -400.596212557149 3.54808014900962
2.55355355421964 -52.6182301506674 35.0321116240736 -7.46038154350558 -403.642601648364 4.06436859743411
1.38171273740964 -56.4570044514141 38.4859264145718 -2.29385679162533 -406.509507575737 4.49314763886853
0.531911981164808 -59.1476165834488 40.9011170497439 1.50081532038979 -408.106916958069 4.7967951692757
24.9971287758808 -2.09677051466743 71.6304414393483 -55.4406672809272 -419.139486372177 1.14882751841126
22.4574778978506 -7.62139287986973 64.8508562052726 -51.4915162796754 -417.791879403979 1.36400521405344
18.8376323995196 -15.3997178934183 55.2577004446423 -45.8149519109895 -415.285332782938 1.66711808648567
14.7172703270073 -24.4730646590134 45.8463076075321 -38.5777463209099 -412.822745416093 2.08409576709229
10.6741044858168 -33.8250116430964 39.0377777842691 -30.2596561810067 -411.565500287812 2.61399962862761
7.18337280833166 -42.5119287382519 36.1974752161076 -21.5791716065935 -412.204862959467 3.22436897441544
4.56245812562097 -49.746035314859 37.5859176822353 -13.3233720026011 -414.675551138515 3.85866386409052
2.89712148701599 -55.0774500652365 42.2970121265522 -6.15950047879746 -418.17541327863 4.45018180678731
1.98028024117546 -58.5990048784257 48.2096714177418 -0.509298156109624 -421.482313833142 4.93648083729282
1.36794143959948 -60.9268359610315 52.4332774967986 3.48553784084176 -423.389939768131 5.27164928412141
28.0319204000985 2.40416322686266 84.5562801008871 -58.1228432029796 -429.857609998964 1.20606396811461
25.0809881111295 -3.933562527408 75.7482869811281 -54.1008970537145 -428.345538512202 1.41284971247848
20.8224739607366 -13.0119543381877 63.2980321131203 -48.1399446111852 -425.631581682679 1.71707040819704
16.0284524966254 -23.5047098036407 51.3066361897533 -40.3728149992652 -422.980603669261 2.15515917228478
11.4208851502379 -34.114356369037 42.9055253096914 -31.3201548048813 -421.632385991718 2.72873102334822
7.57070701201351 -43.695819295007 39.7733068441671 -21.8115037975219 -422.329048683675 3.39957496941558
4.85387497322087 -51.3165451433218 42.2192207279823 -12.7734182680564 -424.991766239271 4.10058217945941
3.35571243538024 -56.4922804248479 49.1027555715682 -4.98931734753958 -428.746805671913 4.75380292537299
2.76848098494448 -59.4876547601681 57.6270870155498 1.05421366529725 -432.288781976614 5.28713773662673
2.44628110148271 -61.3071274181666 63.7847951169946 5.20010826397735 -434.361272094706 5.64728545275433
29.9403831640531 5.20235234154239 92.877830589258 -59.7131553128416 -436.676099270302 1.2517727897416
26.7162979135647 -1.69186692196801 82.6855087796703 -55.6717430485343 -435.167565299434 1.45240338736644
22.0390646359026 -11.6459881261418 68.3036309939753 -49.5702118672164 -432.480978450074 1.75627591651721
16.8122643158596 -23.0727628682514 54.5981383698158 -41.508499006545 -429.864602856818 2.20684364152716
11.8493698301637 -34.4870655306903 45.1570135625316 -32.0245489488679 -428.552169904553 2.80706879513441
7.78082895774055 -44.6119420969801 41.8474593190764 -22.0160125388937 -429.283301263686 3.51454279784697
5.02129645432999 -52.4192752183223 45.0109868560889 -12.5003061450885 -431.970089510503 4.25517564378954
3.65770561056375 -57.4055304356037 53.3692205005027 -4.33674857368125 -435.727685731497 4.94429125189209
3.3147479275409 -59.9628901346811 63.6876689193695 1.94692985062107 -439.254399004782 5.50458219085696
3.20339480102174 -61.3834800639937 71.1822186033242 6.18349377818615 -441.319742189449 5.87875076453488
16.4823157626338 13.0520107092339 62.6892744238443 -26.4810202961643 -233.681547751917 0.341843984210664
15.947386359346 11.6882955506133 62.320152797517 -23.9587072531626 -233.794563915924 0.447314741184215
15.2792492286986 10.0177627304237 61.5858857654761 -21.0525212835813 -233.819327189597 0.565673503933446
14.529141418101 8.14490771125936 60.7195120648675 -17.8362162545084 -233.828786933726 0.69606060763048
13.7519668373357 6.18662318994831 59.9340768323945 -14.4180669756832 -233.885666871805 0.835947858047028
12.9953917575243 4.25102712062101 59.36577728769 -10.9306136894794 -234.023918323649 0.9810167995897
12.2913884615954 2.41976474569809 59.0387383707145 -7.51467427501128 -234.238168213852 1.12549381669514
11.6524534401909 0.738325347202668 58.8621764614307 -4.301309783749 -234.484455401104 1.26288949536078
11.0732824903203 -0.783608802854748 58.66052855052 -1.39625601502617 -234.692045459859 1.38695846575822
10.5369977879234 -2.16292141500915 58.2267685894292 1.12963590436208 -234.782705044478 1.49263729452204
18.0734996281936 9.53669427975337 66.8167531648674 -29.8437204443229 -269.357100911177 0.646699096753144
17.3322294473511 7.69774680798885 66.0604914621113 -27.2089596618231 -269.48204999886 0.775519267335011
16.3908687657318 5.44063795116468 64.7999172744438 -24.1186079428415 -269.317929475241 0.921813394461213
15.3331554202208 2.9042455569533 63.3974642074125 -20.6634342132811 -269.096163532519 1.08618261321873
14.2482834820885 0.249245595359209 62.1867313121568 -16.9753021107002 -269.019322151493 1.26651359261713
13.2121615237265 -2.37049265003022 61.3810862338302 -13.212625520777 -269.201879184736 1.45732854961591
12.2738340737432 -4.83132407095748 61.0189569563115 -9.53994474617615 -269.635689608877 1.64996001339078
11.4499863462189 -7.05373022925307 60.9595565093871 -6.10634752516649 -270.19111559878 1.83359416324861
10.7283380274715 -9.00464187484445 60.9296521474674 -3.02779014626968 -270.653500685433 1.99698795908777
10.0785806103031 -10.6884943888312 60.6088414358358 -0.377007249536209 -270.783579528157 2.13046741253097
20.54419864104 8.29265736751142 75.5581475025042 -33.6692181059554 -303.354143352106 0.935645165213594
19.5346548684684 5.86475032886732 74.1055739412637 -30.8505683467574 -303.38724077251 1.08597851634486
18.2234829368638 2.82857402561862 71.877342418521 -27.4545999954466 -302.933790890242 1.2598617217461
16.7534653414114 -0.590327193182555 69.5148454422555 -23.5938060579343 -302.400619212977 1.46038140765523
15.2744054683382 -4.13472562162644 67.608024184999 -19.4366182543292 -302.147251301264 1.6863158060146
13.9089631021856 -7.56631891971196 66.5282395794602 -15.1865691282348 -302.378866169095 1.93071531220445
12.7295000821266 -10.70368043562 66.3330808191232 -11.0540413041662 -303.083540494019 2.18094391129263
11.7496602534556 -13.4433857282243 66.7596480296883 -7.22727826081899 -304.034130221158 2.42027401892945
10.9317423814171 -15.7616597650921 67.3071742157813 -3.84895975560302 -304.854229339746 2.63075976334004
10.2084607003653 -17.6948943666862 67.3943251676386 -1.00275332839658 -305.126957430626 2.79676828834247
24.0771535906062 9.81855041551633 89.7548334685003 -37.8341578150607 -334.76065319071 1.20494431687009
22.7093590986799 6.6446286627633 87.1204522880984 -34.7767244388364 -334.556031098333 1.37221804767026
20.8867900543613 2.5593580194783 83.2324203544271 -30.9673165426355 -333.668748912713 1.57064272222479
18.8543183970849 -2.04274513042678 79.2509633770369 -26.5422034216404 -332.706582348554 1.80768646615817
16.8638017259876 -6.72736398351836 76.2357806062865 -21.7191070682611 -332.212269092381 2.08406087833597
15.1125645005876 -11.1152541274494 74.8397572346624 -16.7678293963709 -332.497365988001 2.39111133748713
13.7046519399576 -14.9462312103177 75.1463068888295 -11.9698756721621 -333.544704533287 2.71077425580622
12.6376907831443 -18.1119142988157 76.6586677618906 -7.57717932797528 -335.011671692938 3.01809007968912
11.8170334361286 -20.6531389085728 78.4426447731254 -3.77840529947199 -336.333175877083 3.28581106463368
11.0981730471023 -22.712992555687 79.4177464641278 -0.678439576487202 -336.890241534409 3.49021467305798
28.8725426548403 14.6081504979021 110.441817224961 -42.197380450922 -362.884896209758 1.4575474697461
27.0152558038435 10.4552450383219 105.875189822153 -38.874724157575 -362.289801130903 1.63368721245575
24.4741903931136 4.92654970836932 99.2522109615878 -34.5703139533363 -360.812833610853 1.84969015426113
21.6657477794012 -1.28132993930756 92.6398070049906 -29.441569839535 -359.292469348496 2.12060844004771
19.0070259688453 -7.43434872518663 87.8971969540417 -23.7667778131294 -358.485330873216 2.4509431881812
16.8098559443545 -12.9322102656543 86.1400686364901 -17.90472752869 -358.82725284966 2.83024113316429
15.220441715019 -17.4098690895093 87.4861634501681 -12.2367699132156 -360.293729138239 3.23315029115342
14.1990798090448 -20.7877406293928 91.0384167782463 -7.10726879238213 -362.405675722465 3.62336990976154
13.5427786865306 -23.2639248001324 95.1083476715591 -2.77424704294276 -364.378234552759 3.96068708833699
12.9626020859875 -25.2148424650338 97.7292543917913 0.62318871091842 -365.362985313911 4.21010740606089
35.0891461531263 23.0272542478373 138.559151141299 -46.585394053568 -387.258323421538 1.7023356231413
32.560949801483 17.5624298491568 130.984237035889 -43.0094463263036 -386.150428738067 1.87531273890104
29.0152513756733 10.0389396815193 120.072705452453 -38.1690595681238 -383.954973337973 2.09698656981755
25.1460903717853 1.66127872315532 109.392077312132 -32.2338548400571 -381.768448185288 2.39489452571839
21.6236333628357 -6.36471990493904 102.065912756872 -25.5506573977701 -380.588070578365 2.78011784474398
18.9242198734634 -13.1167276804209 99.9060316133737 -18.5894215042373 -380.988149117334 3.24045868664508
17.2478257613362 -18.0960959099953 103.074135801208 -11.8612992028704 -382.934026881857 3.74114795151214
16.4878645003263 -21.302110941379 110.056167466821 -5.83446441553027 -385.791969704721 4.23088072157885
16.2579595890405 -23.229561889576 117.954061797158 -0.864072582507593 -388.530793918708 4.65181122586221
16.0203224503885 -24.6883461154228 123.320785285918 2.85854411001854 -390.049735382006 4.95315357119747
42.6867506694636 35.0027693969932 174.134527910413 -50.7725483420735 -407.582753443133 1.94933608856518
39.267979195304 27.8104401710087 162.214294265697 -46.9960595213584 -405.904941168293 2.10397699946925
34.3734430631355 17.6194944544564 145.075577699592 -41.6322399140309 -402.932661969498 2.31482440683974
29.1179185722431 6.42385955341071 128.586315166611 -34.8480332596925 -400.034305631902 2.62832471912604
24.5261605868653 -3.89682652843875 117.678156557659 -27.0612447492053 -398.456410807334 3.0654680835368
21.2873209831667 -11.9991501633622 115.089052905694 -18.8696603487205 -398.912879539044 3.61237849078871
19.6651287007541 -17.226431688464 121.033245037474 -10.9387593909304 -401.355633769742 4.22292302071942
19.4554328235198 -19.7123627695578 133.164399904 -3.88817208837404 -404.99068557241 4.82747204683962
19.9983870136361 -20.4210592246756 146.839414687695 1.8007197290815 -408.53268653239 5.34564704003576
20.3661132332261 -20.8706961460119 156.330299389688 5.85940040328499 -410.62128877312 5.70511638981966
51.1145896072556 49.4106758499243 214.624646500032 -54.4662944622124 -423.643015444143 2.19848664464521
46.6147266498873 40.1193703166438 197.148852835902 -50.5709313578122 -421.43547110892 2.32031964503642
40.0781393821874 26.6772971321615 172.038109267133 -44.7561730703036 -417.748741654706 2.50330181370991
33.1846531262278 12.1579468837901 148.26466002483 -37.169581797229 -414.204634736581 2.8188838840169
27.3903575708404 -0.726861892307418 132.986356330743 -28.2945507442966 -412.270571561503 3.30045010935128
23.6193602275636 -10.1637219069743 129.976296755624 -18.8598660126827 -412.777460031799 3.93226682684714
22.202754958745 -15.3295192623612 139.504844709362 -9.69313262831028 -415.661172809893 4.65593246198869
22.8230460547844 -16.5261115255993 158.290312224306 -1.57709205165791 -419.986539448143 5.38223218520177
24.4751991669124 -15.3320721415278 179.529738840166 4.86026835990034 -424.243917987233 6.00522237642734
25.6991446860487 -14.2561410698544 194.409509191335 9.24508510326841 -426.839215284515 6.42564025132039
58.9409387049653 63.3451282826016 252.893940726922 -57.3196686302856 -435.249345782793 2.42452439932041
53.3552810407319 51.9313928366378 229.675380843408 -53.3873525301215 -432.676747148876 2.50801717636044
45.17469579269 35.2155633799119 196.344363142878 -47.2492364408898 -428.506926682692 2.65504631631262
36.6870029009507 17.4499845179148 165.219296523366 -39.021730978151 -424.538522715315 2.9633292084125
29.7672461966481 2.16714234470042 145.634036372703 -29.2381932439431 -422.378829614286 3.47812648018598
25.5460402576458 -8.40002608940915 142.26919025914 -18.739759912264 -422.925186442005 4.18141664133934
24.4142958780756 -13.2811343824098 155.445516846171 -8.49629774417507 -426.097568219466 5.00368204889201
25.9555075898852 -12.9314941439513 181.062822974077 0.563936784684529 -430.870648452399 5.83872086320352
28.8224048773904 -9.55610368599196 210.200846197922 7.67248343159211 -435.592963776067 6.55713222906412
30.9779842003272 -6.75695712627186 230.715864347493 12.3378790255706 -438.516866625295 7.0322022012683
63.9327850728951 72.2728963208563 277.516789485277 -59.0035328595102 -442.329316894396 2.57509457279816
57.6256902722298 59.4234533479787 250.433780382217 -55.0835133940926 -439.679112792191 2.63268991577821
48.3544177459161 40.4987064424185 211.577556601813 -48.787075287572 -435.428451607125 2.75521352274638
38.824356949321 20.5765769466073 175.573846729501 -40.1976563668613 -431.406636031079 3.05790492420691
31.1809005717594 3.7330496550262 153.165213439998 -29.871445656771 -429.233331573016 3.59307033482811
26.6818094397528 -7.53188286776963 149.581505084929 -18.7186266673324 -429.803418364258 4.34034422327182
25.7577339502167 -12.1501570263189 165.177129005994 -7.80163363057317 -433.025958398039 5.22279758486072
27.9346177009335 -10.6721937893498 195.360604370125 1.85621437821924 -437.861935908856 6.12401398135723
31.6412461439867 -5.72884916351379 229.838306991375 9.39357585057086 -442.646811644629 6.9006072195632
34.439016598178 -1.7019645755746 254.165574688156 14.2358975921818 -445.619761396854 7.40848875428348
21.4905733299816 24.5247216867867 95.9094643759915 -26.0094883693745 -233.669538096217 0.549134878954086
20.9608017189401 23.178797236475 95.594398076078 -23.4843102017634 -233.752065269521 0.645982325220221
20.2677065436018 21.4592611622669 94.7329389503734 -20.5696782909685 -233.737990792696 0.753101485709876
19.4831451604463 19.5141377609372 93.6850283912704 -17.3387782079749 -233.708164431184 0.870771850951308
18.6804802600546 17.4993848064317 92.7759167795236 -13.9005990085502 -233.732690348872 0.997631325048364
17.9184868509103 15.5468602077734 92.2075286724849 -10.3897270422378 -233.850285783976 1.13031428937341
17.229820988583 13.7401311618246 92.004282399904 -6.95022182841212 -234.05660048113 1.26361097139238
16.6172132836951 12.1047083995158 92.0102577547625 -3.71717495235519 -234.304864389645 1.39114305810184
16.0581108022599 10.6145761722467 91.9382423222438 -0.80042337430715 -234.518659553461 1.50639011973181
15.515869153934 9.21169735456421 91.4546943662576 1.7259098632315 -234.613137720586 1.60380330016146
24.0574931107382 22.4967318573177 104.078502564629 -29.2710255052005 -269.693335662262 0.895794230419894
23.2928808239863 20.6260952554221 103.23728408291 -26.628508437366 -269.744635101583 1.01639874228799
22.2812649820693 18.2422098908454 101.641660506121 -23.5203450655625 -269.482059046627 1.15181939066792
21.143115209673 15.5528569819268 99.8578133471621 -20.0368471239821 -269.164571659642 1.3045522312128
20.0007219207948 12.7810603570626 98.4007763501466 -16.3112724472145 -269.019753958039 1.47427054363857
18.9499062653926 10.1187560407145 97.5901972177982 -12.5052432720589 -269.177130734895 1.65670976224562
18.0410879567142 7.69339124327506 97.4651915409856 -8.78831883797143 -269.629841202887 1.84352331017559
17.2739052830109 5.55428180273642 97.780189933648 -5.31610987242877 -270.235662778485 2.02324523015941
16.6059281252709 3.68012434569458 98.0821857106824 -2.21159769812741 -270.757088840407 2.18322022552801
15.9725505869911 2.0041120990643 97.8484583974245 0.446608872143815 -270.92897611714 2.31208476566006
27.9039670352144 23.6007542078546 119.264136657936 -33.0420792408038 -304.206108657767 1.24223557222542
26.8102106435007 21.0293792667034 117.412005356949 -30.2064842276151 -304.097112781373 1.38291882730639
25.3371018983669 17.6976157929272 114.395903406664 -26.7720143604882 -303.451376260272 1.54403977853058
23.6951092240733 13.9539927215716 111.221608525624 -22.8516757847434 -302.734205067287 1.7319845923874
22.0953896647535 10.167882162448 108.805562942626 -18.61744998953 -302.357561113292 1.94850966901784
20.6974400664847 6.64599720135372 107.710018574706 -14.2789710894504 -302.557382799117 2.18846590606393
19.576343492373 3.57713796725836 107.994110009109 -10.0555990490177 -303.323401557946 2.43927909625311
18.7147874891535 1.01213220299484 109.207516044713 -6.14756593997571 -304.400918793201 2.68242092386384
18.0201601565308 -1.12028124156416 110.527002240345 -2.71105145276625 -305.363970925714 2.89672441450942
17.363031317259 -2.96486642157049 111.010419689481 0.158726022237849 -305.73949648388 3.06292889815873
33.303793503132 28.4884311652244 142.675583204468 -37.2370110807372 -336.407131310604 1.5856658452919
31.7387349581576 24.9621796334752 139.050176929754 -34.1480678351667 -335.946757843788 1.73927014947131
29.5863024621772 20.2674830452749 133.531259272996 -30.2622700743363 -334.7114739874 1.92004406165881
27.215012425583 15.022611930171 127.939711736316 -25.7192696254895 -333.41995906908 2.14121669074866
24.9890648763009 9.86667891975703 123.928473420593 -20.7452066563551 -332.712836974934 2.4085585777611
23.1727624002222 5.30295384727456 122.495148315893 -15.6214960352909 -332.957665940944 2.71626868169993
21.8752601252666 1.60523078794515 123.726324431506 -10.6456708819142 -334.139351611443 3.04597996375872
21.0386919770623 -1.21175748194482 126.787882008535 -6.09178379405725 -335.863350413586 3.36903540057692
20.4694163711444 -3.35869658432056 130.161317771399 -2.17462506880171 -337.470494153265 3.65187547134228
19.911016887474 -5.17183889470381 132.113459815474 0.978155806317239 -338.234154791795 3.86381553540093
40.5742933499337 37.8675858763895 175.835860507442 -41.7707940408327 -365.702320012408 1.92957283406699
38.3275707420459 33.0071906708418 169.26572169679 -38.3960230780426 -364.670376818689 2.08435710504248
35.1685997300875 26.3277235864205 159.55825260421 -33.9514101857998 -362.595415289044 2.2736921518713
31.7351224307297 18.9279740928886 149.959698515267 -28.6045980593665 -360.51408984622 2.52251368916351
28.644526294216 11.9090225999143 143.383552847129 -22.6521462529893 -359.354037578845 2.84378365736588
26.326253912459 6.08989753620317 141.550121443563 -16.4738161491678 -359.645889695562 3.23160127913176
24.9354656066178 1.85917850589943 144.583069557224 -10.4781375768117 -361.367556347133 3.65974213176203
24.3360729887542 -0.866853017832982 150.995119000052 -5.0489562514933 -363.94999771335 4.0850880258636
24.1512968301878 -2.58466118537096 158.062047460176 -0.493873492431383 -366.442187042175 4.45584697220767
23.8946905656595 -4.01121278082424 162.654581826393 3.00379238190233 -367.802140326303 4.72430837490209
49.9918629861023 52.3311771957524 220.160474759173 -46.5376096229119 -391.681091360805 2.2820187920927
46.77336780602 45.6021870592473 208.98525339136 -42.8839380526165 -389.869005155577 2.4210148770545
42.1471204001901 36.0541426388921 192.648041624332 -37.8032799107807 -386.70095691519 2.60151980290827
37.192402620792 25.5963562998007 176.763074701839 -31.4899504776269 -383.609160527659 2.867516694546
32.9233687565486 16.0699876953416 166.258675955405 -24.3274995294837 -381.87146646712 3.24373228924444
30.0130669012791 8.76557011815124 163.957977343601 -16.8212134370766 -382.211337941477 3.72502845526575
28.6758800142618 4.2192145617266 170.032649153155 -9.52494766676111 -384.596591748718 4.27492662445216
28.6453063308335 2.15858136375126 181.983317723246 -2.97387605790444 -388.24946505819 4.83046965051793
29.2412412710723 1.58284470847871 195.143355247661 2.38579797455068 -391.863910065893 5.31363413006123
29.5871697230369 1.09699341791379 204.052402793729 6.27891387215953 -394.009980670899 5.65128593908737
61.5489418530644 71.8818167234425 275.722483237048 -51.3628361641213 -414.000978451904 2.64900243923519
57.0129914500899 62.633342656513 257.918325124596 -47.4821747040493 -411.26438270467 2.75125855995295
50.3559364629207 49.1221388931424 231.896071605817 -41.7345248408274 -406.812398978397 2.90004249904694
43.3353463152258 34.5277311563787 206.926034737578 -34.3387199232628 -402.547338605821 3.16794186282189
37.5362619004784 21.773787295039 190.867287503024 -25.7806306469748 -400.143747363516 3.59677471641142
33.9557830932001 12.7842411985798 188.041455282537 -16.7128041901678 -400.53094987163 4.18303509645588
32.8784697671 8.26948942138917 198.677690345692 -7.86148646764347 -403.662868660268 4.87782577210433
33.8511877693334 7.66669893557037 218.888872445621 0.0475170291868562 -408.534522542806 5.59311928972018
35.7434756007061 9.19725819207289 241.1703298318 6.37404334822104 -413.438808425824 6.21541098270625
37.0706990953432 10.3780978971748 256.454262275394 10.6972708870312 -416.490662733311 6.63491489193195
74.451467720073 94.9453905707635 338.673603032041 -55.9224964210979 -432.191441510274 3.0200361909055
68.3084035554335 82.6176050598114 312.47665496501 -51.903211996379 -428.524835635839 3.06636261643805
59.1284108992007 64.1691313742496 274.00884896288 -45.5248934127046 -422.772486253699 3.1611499450321
49.5928471269852 44.5365542062851 237.522431611274 -37.0299433615894 -417.335561750062 3.41462928427354
42.0029827678332 28.0208736381583 214.571073371342 -27.0154140144923 -414.276649879536 3.88963136557187
37.7248886576422 17.2745796145515 211.201293866295 -16.2870286583156 -414.707668011295 4.58450965211257
37.116320167818 13.1890574709459 227.703075569407 -5.7493705348368 -418.565360919645 5.43703725354991
39.5037124807326 14.8426817795927 258.585103052495 3.66083237156301 -424.635991522338 6.33156514399715
43.1831522546569 19.441002894859 292.75736226527 11.0603315118079 -430.820771969843 7.1120082792995
45.8389914184291 22.9859083297073 316.233163534052 15.8190238468378 -434.758918347935 7.62073257962144
86.492079129013 117.12633976907 397.993792402649 -59.6679639403952 -445.50613486654 3.34972410956848
78.7493417557319 101.710893421385 363.257006073137 -55.6067762769731 -441.134635335212 3.33478139483325
67.0184403724853 78.2350832370168 311.954751803719 -48.728047407511 -434.389842117374 3.36774507580124
54.9857691405367 53.5739333547837 263.755666266758 -39.2930328223266 -428.078334911677 3.598233561037
45.6708776775536 33.4299310217213 233.923125304502 -27.999473081016 -424.543683166027 4.10916215673693
40.7751486518378 21.1269814363281 230.07312320057 -15.7857371809085 -425.01049498818 4.89984186389339
40.7202632222592 17.7137798414932 252.549597181394 -3.70962036751992 -429.398079125892 5.8960695217316
44.6313229833367 21.9298722053215 294.40163679684 7.09952464108028 -436.353438051547 6.95759734995908
50.226336623107 29.9345740414224 340.936502701613 15.5096045168867 -443.494054155481 7.88719288581633
54.2854168667923 36.0550419026127 372.818808469344 20.6499098750779 -448.080850883395 8.47698262969405
94.1400639743609 131.354044286566 435.860350610739 -61.8996813214309 -453.155036441222 3.55846450869283
85.3635378183195 113.904068152659 395.532098765134 -57.8632525458018 -448.571792472023 3.50352412069551
71.9547302119414 87.0605725336211 335.702796684555 -50.7235846837299 -441.538285070384 3.49625881209007
58.2872818909225 59.050694074297 279.758087475792 -40.738511954873 -434.993015383106 3.71219169823048
47.8540202117027 36.5226083852395 245.408363973269 -28.6612271267312 -431.34721536211 4.24626265621147
42.569345062227 23.2392861931685 241.256060653363 -15.5131028538458 -431.836098853733 5.09717818890583
42.8984086236383 20.3562158359168 267.68198618874 -2.45319805643505 -436.366815715782 6.18257606955747
47.8424219431665 26.3947778467567 316.822241666803 9.26007172039596 -443.557353255631 7.34702121680109
54.736355318091 36.7974065894085 371.605761999668 18.3245180868171 -450.956245606038 8.36776849538371
59.7350431309149 44.702548194995 409.020392348024 23.6994292012865 -455.712949543 9.00486638886874
25.9798895754022 34.8229388303898 125.749537983393 -25.5709751770567 -233.653296285942 0.733718527383461
25.4624221654776 33.5110930332097 125.527793532578 -23.0471407993612 -233.705502900308 0.823009344245086
24.7567759131544 31.7707536161857 124.612456124119 -20.127740106537 -233.652447439041 0.920439468307164
23.9502454696298 29.7818644296891 123.457189614989 -16.886036624601 -233.583636948072 1.02717917618059
23.1300558147797 27.7291439100991 122.470039339565 -13.4322957538424 -233.577219134891 1.14279075069273
22.363406952456 25.7621608880539 121.901500583065 -9.90344517446652 -233.676998685928 1.26467933448808
21.6836461897875 23.9663951714598 121.776325517494 -6.44672431672397 -233.87948436963 1.38810453904996
21.086445446614 22.3534099399467 121.890702221538 -3.20085600817657 -234.134446303004 1.50679204401931
20.5366393957844 20.8718393271592 121.875279599224 -0.279152284360778 -234.358797267723 1.61400447917499
19.9830442324938 19.4341629065941 121.303275912472 2.24167995130648 -234.460036886368 1.70379787773476
29.3496069346171 33.9915600697311 137.13452927289 -28.7648179683892 -270.000100139693 1.11403537740477
28.5760959184366 32.1201851471068 136.286938789579 -26.117094263307 -269.975378346956 1.22761645038405
27.517115436532 29.6585116244041 134.486233341977 -22.9920883631784 -269.610261631353 1.35395443628058
26.3207869023502 26.8640410085488 132.448462515963 -19.4811608910198 -269.193749434682 1.49703177992239
25.1344402325065 24.0050976839515 130.822256362083 -15.7203289178204 -268.980721289777 1.65793156680442
24.0691342808045 21.3017739500692 130.005730221271 -11.8752283829618 -269.117017829974 1.833351671138
23.1767207617703 18.8854078772475 130.038793636278 -8.12047909904908 -269.596835134344 2.01518730264428
22.4446041398428 16.7852571238581 130.599145082349 -4.61752581016315 -270.263627195464 2.19140610100834
21.8084441455244 14.9430306905801 131.10212407642 -1.49517946249201 -270.854249074042 2.34814265224907
21.1786014060308 13.2490805472073 130.87684662862 1.16343427940464 -271.074717481173 2.47259004184313
34.2913083171815 36.9173578756437 157.264398880699 -32.5364203848464 -305.033798869663 1.50456254048298
33.1434202530644 34.2656847180849 155.180836617449 -29.6830150411011 -304.775814498383 1.63744393901825
31.5532276978525 30.7323571612581 151.633548242218 -26.205459240738 -303.926729086582 1.78858624412494
29.7817442602648 26.7532889151154 147.893192465286 -22.2204139600293 -303.015828489754 1.96692267841886
28.0863626897115 22.7785324716802 145.114743829992 -17.9063372107686 -302.512693747159 2.17651504150579
26.6547431544096 19.1651389460561 144.000624064917 -13.4807939255475 -302.687003194803 2.41359808853844
25.5648580805746 16.1096230669265 144.611736464979 -9.1724407714555 -303.529828703241 2.66557337919613
24.7775020611016 13.629086136867 146.361568823364 -5.19236495844953 -304.755239974812 2.91233494584913
24.1607471669212 11.5896747516064 148.193005676118 -1.7080671937105 -305.881706291651 3.12993365063476
23.5406046744723 9.77474521857521 148.903188809075 1.17625852220979 -306.37363940884 3.29599585798041
41.1329305337387 44.3348895565745 187.5188625088 -36.8479603036158 -338.079300984322 1.90170954134873
39.4310852817913 40.5820316471809 183.24571927234 -33.720482731395 -337.348361858149 2.04493861970113
37.035509673889 35.4580217977376 176.59674495321 -29.7434495927746 -335.741364227541 2.21295701558072
34.4058992697471 29.7377959430186 169.86627553406 -25.0660045581464 -334.098731234401 2.42334448677105
31.9906974115865 24.2070143193276 165.137679748787 -19.9285463175512 -333.169594808782 2.68570337360674
30.1053996861157 19.4602302896129 163.661019857319 -14.6279045534116 -333.383815429983 2.99635940045467
28.8646897949561 15.7857988833726 165.526499667478 -9.47861749845848 -334.727977691741 3.33652389165203
28.1719298619128 13.1396443824026 169.655920060828 -4.77508198433927 -336.748329140727 3.67428315862928
27.7636436556608 11.201777142316 174.110519591707 -0.7543236618568 -338.679630983906 3.97061141042554
27.3048480616922 9.51164545782937 176.692811848919 2.43812979889392 -339.675193707161 4.18886896586205
50.2580138010198 57.0681522376109 229.627664222489 -41.6826161975861 -368.647940967586 2.30699201347028
47.7386196325136 51.7411256770588 221.718993004056 -38.2389384107478 -367.152450425073 2.44638242697871
44.1242512451452 44.2463158810192 209.868236479108 -33.6219167132128 -364.434601757201 2.61777636536384
40.2135980165167 35.9602088581758 198.154271895819 -28.0205761222198 -361.749182731526 2.85339328188644
36.774122589747 28.2468710490925 190.254001714266 -21.7607866522579 -360.21557100658 3.17247841657913
34.3257433802362 22.087801975759 188.332814004246 -15.250776189379 -360.471863002992 3.57244521473531
33.033572812556 17.8975314484019 192.52117692878 -8.92877989218587 -362.497989307606 4.02600718997228
32.6944174887272 15.4903870683483 200.90315282401 -3.21569478767573 -365.621048773055 4.48398808321499
32.810117315618 14.1805087162861 210.012020860277 1.53798867217825 -368.700888254891 4.8845308604763
32.7585437578852 13.0376727884886 215.904640964447 5.11405680404685 -370.479107940335 5.16912360308551
62.0027313143693 75.8263790241336 285.160352616972 -47.013978805668 -396.386545140681 2.72479230923173
58.3103995922726 68.2765701630115 271.611451277472 -43.2526780999725 -393.829840215187 2.84027003206088
52.8961015291695 57.3046039776118 251.538551251535 -37.8728584708213 -389.612458454521 2.9946996369432
47.1153015461391 45.3002496785678 231.979940727369 -31.1125578980169 -385.537034386841 3.24387953394388
42.2417970661942 34.5649255058186 219.179309651913 -23.411887774478 -383.201093373553 3.62252630198303
39.1027774930393 26.6688986869917 216.717569198346 -15.3256543783158 -383.501738953512 4.13058063292925
37.9293518853466 22.1915828605648 224.778168144104 -7.45650956462879 -386.409080066691 4.72951296947768
38.3425105498738 20.6879721081302 240.134029058006 -0.404395316942781 -390.975539601569 5.3458293265349
39.4571608316921 20.8364099560144 256.843816178954 5.30412676859105 -395.577664403318 5.88381888997538
40.1688787936541 20.88406797761 268.059526336265 9.32781188681895 -398.416395613294 6.25154607580837
76.355233015778 100.619711934475 354.036379575854 -52.7232657187821 -420.896623903919 3.15530906616297
71.0842186502451 90.0925993641319 332.492007149934 -48.6951614376878 -417.052270235463 3.22261982193678
63.1635009887029 74.2809828917031 300.451964820714 -42.4685200328897 -411.001875954717 3.33409961791833
54.8053535847757 57.1636169744366 269.522450541301 -34.3438704578205 -405.238640933263 3.5806605868166
48.0255589676901 42.438165501148 249.734794910964 -24.90891061943 -401.935639843068 4.01928986413758
44.0709713159126 32.4873278419211 246.63837437273 -14.8965811789634 -402.282483803661 4.65396761659658
43.2521054170607 28.0883585673156 260.48099020877 -5.10750256738912 -406.235508647413 5.43237335435597
44.9356018974163 28.3976072935723 286.198941616021 3.62530413686648 -412.532967307622 6.24933051289485
47.6586088211918 31.1125155847975 314.189410746444 10.5178630009793 -418.970285752209 6.96183118904056
49.5686683720827 33.1709872385917 333.114836360077 15.030096822004 -423.071694938386 7.42894041167139
92.3275938622924 129.528935999035 431.404026692429 -58.4386473697635 -441.423055974769 3.58021910118042
85.1688788896375 115.43452910455 399.964213326972 -54.245273744623 -436.255922846227 3.5780299501771
74.1333479678525 93.5844161249068 352.632096263995 -47.1669586746983 -428.273365755657 3.62225798677418
62.6022277748311 70.1592166281054 307.242966307563 -37.5827948915676 -420.742588422971 3.8497304365738
53.5454820195769 50.6785571019878 278.707936961526 -26.2569725261318 -416.439526200577 4.34484646464447
48.705825460161 38.4954190411266 274.925143938982 -14.1151958563506 -416.832237731786 5.11632037763708
48.4778234523667 34.5956699274644 296.211387728088 -2.16596230528164 -421.859790462599 6.09685659705627
51.9182531328002 37.6301155344015 335.303445074966 8.48934045831582 -429.95486959147 7.14507295457533
56.817198569476 43.9984931542902 377.8773565348 16.7289998405321 -438.304226920881 8.05917710097147
60.3020980997204 48.8205409674505 406.47271096505 21.7245632236508 -443.679345260512 8.63362085626908
107.167748856309 157.135499672233 503.705194424848 -63.3530235668468 -456.609789894055 3.94559316997843
98.1879831461654 139.572696482684 462.493711225789 -59.1179778875823 -450.425580098801 3.8697500034997
84.0212245142084 111.600144853628 399.528237829447 -51.3269988698013 -440.90542803864 3.84010121235015
69.3188900896404 81.8267276989173 339.408525370026 -40.4372426050743 -431.980470337366 4.04119516517919
58.0347036161597 57.679478376572 302.073542784095 -27.3866369462191 -426.903767533615 4.58386664271307
52.3835517294302 43.4485040036566 297.662544208553 -13.2750603649154 -427.336495737284 5.48048752426271
52.8349389520205 40.3049227643557 326.554662963603 0.706728250133387 -433.19998602696 6.65008714076781
58.1487430864727 46.3995601164231 379.387050136943 13.2009283043215 -442.705844447428 7.91764919970981
65.3456620674119 56.7676304700781 436.971814697764 22.7255730620969 -452.558419999746 9.02258564847659
70.4455233362462 64.5204746519727 475.199323987558 28.121171518295 -458.890306355953 9.69142729974043
116.484243543765 174.70552133634 549.236327424328 -66.3017158164262 -464.886375740893 4.16605273273916
106.3823355958 154.955702922451 501.889654473952 -62.1152729256637 -458.386409821916 4.043698055056
90.1953106012749 122.947292772459 428.734996602855 -53.9445828605381 -448.360810780614 3.96790093761856
73.4288055653604 88.9593052628142 358.947505201135 -42.2746119048164 -438.987216117548 4.15403389199262
60.6961011637947 61.7294912754561 315.840714922358 -28.1462580237531 -433.676004037926 4.72884921462534
54.5253109332129 46.1871482754447 311.027496099699 -12.773263636068 -434.134187835353 5.70556396870013
55.43944293282 43.6355594430026 344.931564529906 2.52741219734934 -440.270550047392 6.99348975725437
62.0067759861035 51.8894753938765 406.8148629248 16.2188336273387 -450.23128976523 8.39598142587984
70.7303375760174 65.0329080384969 474.223212145369 26.5678339022465 -460.56058466599 9.61521033931991
76.8736404692076 74.7613819184775 518.53939738497 32.1869969893879 -467.163844158284 10.3352942153469
29.8180219952601 43.6640685871012 151.421079183419 -25.1244657149828 -233.537824696376 0.891426299407067
29.3228447047602 42.4078841741897 151.340747963164 -22.6115518138709 -233.566383870276 0.97430526488835
28.6218952726128 40.6844216779614 150.460612056417 -19.7002184996002 -233.483208251576 1.06362768979854
27.8115362210323 38.6919711673897 149.288709648646 -16.4637851662461 -233.384099607565 1.16115583072956
26.9870594127947 36.6316025517399 148.280706246533 -13.0132178869383 -233.353126226556 1.26710036760868
26.2205277010423 34.6628781434707 147.714936765868 -9.48666712158946 -233.437895397013 1.37945167057762
25.5456390176528 32.8722879174529 147.616271114905 -6.03301590528308 -233.635628085289 1.4938813332363
24.9539201579424 31.2634461936368 147.753326530662 -2.79289655777926 -233.89362511763 1.6042893357662
24.4028455675174 29.7706047263037 147.70944851017 0.118504123922584 -234.123965413213 1.70388304490417
23.8327060592533 28.2893853076038 147.003749498805 2.62306334703705 -234.228605180517 1.78651552395702
33.7654167856639 43.683930406912 165.016727976518 -28.2518756540948 -269.966870118134 1.29541962737759
33.0042580985653 41.8533649527242 164.263220161725 -25.6098840358804 -269.885948092119 1.40320255621205
31.9317138647174 39.3810205573462 162.421716574271 -22.48367945081 -269.444960423599 1.5221417498819
30.7118737670665 36.5517258815452 160.292268056321 -18.9656597101638 -268.954680685419 1.65715835381274
29.506484456883 33.6585973814316 158.59811372472 -15.1938365990944 -268.689978555343 1.8102677999393
28.4353702091364 30.9371765324296 157.781218167622 -11.3363696897237 -268.808761319223 1.9788602808816
27.5512083908986 28.5210991911398 157.881883938159 -7.57081809255913 -269.306106797406 2.15508745777647
26.8344317311638 26.4290946225908 158.534894310432 -4.06192855199336 -270.015032977274 2.32665110261079
26.2082739350217 24.5834062711388 159.082167914262 -0.941810755871294 -270.653685753177 2.47898016337537
25.5688790501241 22.8516617236582 158.769957404173 1.7038653790961 -270.907141090431 2.59837840146858
39.4390302104173 47.7910144253912 188.275007082565 -32.0165883686448 -305.259817667967 1.71494127490195
38.2814309451956 45.1438811831347 186.179453840619 -29.1585903421223 -304.893297051669 1.84196065077924
36.6417332956624 41.5398273208241 182.4343271883 -25.659301387942 -303.895061707989 1.98569029825478
34.8087101794214 37.4595388223485 178.449847688151 -21.6389576402294 -302.841069456946 2.15656709591062
33.0653532218538 33.3948477627975 175.5075023222 -17.2812488758554 -302.243476918956 2.36007396983471
31.6150889907212 29.7293959247466 174.384723891606 -12.8093753644498 -302.39718150156 2.59336790017424
30.5377136240116 26.6646359924203 175.143453025684 -8.4579232322199 -303.294394892981 2.84393014519614
29.7823081112159 24.2019145738489 177.1246229679 -4.44448952283723 -304.626028814522 3.09075254025436
29.1959973462582 22.1777800521134 179.147705619527 -0.943169372186841 -305.869483127405 3.30819530906579
28.5811781251939 20.3415094000303 179.873215936077 1.93678909878593 -306.443352535296 3.47195511154773
47.1685581928781 56.7068580041646 222.500099413064 -36.4210796345268 -338.842549308782 2.14428462489481
45.4183684334751 52.8952003728224 218.031547444998 -33.2715367294945 -337.916169354388 2.2807920725282
42.9115603061156 47.5955873593675 210.91670102761 -29.234650828432 -336.03763143115 2.44069828418065
40.154485011218 41.6564335677931 203.68030284177 -24.4685706854351 -334.136322177524 2.64395668154066
37.6399768023823 35.9348626858349 198.621035324959 -19.2256872160308 -333.042309556467 2.90236261630839
35.7113216318797 31.0719921459224 197.118356899771 -13.8146161246273 -333.232751531075 3.21354452501921
34.4869441724064 27.3661207788513 199.264814674619 -8.56148399505935 -334.695731766881 3.55852454555082
33.8508880556734 24.7488787165667 203.858390546287 -3.77332798906414 -336.932806331128 3.90345315943457
33.5052134095034 22.8544552076257 208.752035183442 0.29983249522011 -339.099448696466 4.20599615577336
33.0770059414026 21.1710671412637 211.524336326312 3.50276783737499 -340.260647274606 4.42591784613903
57.3271378178737 71.226287754814 269.258179220756 -41.5014557993304 -370.296131836822 2.58117767361364
54.7030008724493 65.7505124107995 260.888562352296 -38.009791325851 -368.469991535027 2.71213662724743
50.8825442260085 57.919200045418 248.167685566285 -33.2688325625823 -365.285933146886 2.87420115522245
46.7394976343355 49.225289416073 235.540735239898 -27.4869356138806 -362.157064928772 3.10320562892366
43.1163989009964 41.1537769205425 227.044546666089 -21.0148640938802 -360.346950017441 3.42172539287177
40.5812176414634 34.7673071322146 225.065508087895 -14.2838535219767 -360.576923422437 3.82903981533535
39.3062885808142 30.4993761763102 229.738872588464 -7.75370790870371 -362.828907448364 4.29721062968644
39.0570486014295 28.1265319625351 238.939231305496 -1.86906257195802 -366.350013861807 4.77339995548364
39.2801248143462 26.8928328173929 248.854504339234 2.99480448236817 -369.85742323126 5.18976591811214
39.2952439221873 25.7943426167894 255.188183613237 6.60205692490044 -371.934303684197 5.48158283453462
70.2139975331692 91.9877944857805 329.805820965565 -47.2864669637078 -399.282538413619 3.02436547120355
66.3514786187766 84.1916049723522 315.489737549586 -43.4448108188501 -396.206705879366 3.1290120493152
60.6023891755468 72.6668501581176 294.014008939086 -37.8431375340561 -391.238980348177 3.27281341350585
54.4360810710151 59.977314358595 272.966373416245 -30.7563267838915 -386.446435345959 3.51678695039178
49.2502954255285 48.6258269507426 259.179114410635 -22.6721616344638 -383.669078789495 3.90056017092201
45.95407345504 40.3231471303877 256.606732495722 -14.1877298145218 -383.942387721244 4.42672402454399
44.7917886375558 35.6832446418994 265.441771989849 -5.94408346011658 -387.239145536072 5.05529314533027
45.3338123446241 34.2012278478156 282.10580399093 1.41563833669481 -392.477401540953 5.70626413483402
46.6086096775411 34.4494843206574 300.097030754766 7.3192338764058 -397.792078396624 6.27363118111011
47.4279705955754 34.5768690751848 312.041558809177 11.3956839071195 -401.117812490568 6.65540045022165
85.7315455796689 118.848239038369 403.529751096413 -53.685322194016 -425.321092716693 3.46732234773009
80.242832574964 108.021638517228 380.999254573462 -49.5468250448802 -420.73246512903 3.52129690019287
71.8402947100504 91.4150584632654 346.97836154234 -42.9655420978316 -413.563686218199 3.62158098339131
62.8955265248168 73.2451182591627 313.831645527318 -34.3044508484623 -406.718970611608 3.86610639034152
55.6233217899794 57.5379334479365 292.528936841176 -24.2354776099668 -402.754161679015 4.31886095753691
51.4075134880793 46.9165484480312 289.242841684538 -13.5646524129719 -403.074999926556 4.98752439125615
50.5817993948841 42.2182873243899 304.237415224546 -3.15791013661679 -407.641422056269 5.81698146580499
52.4313136745281 42.5016492919869 331.865958483821 6.07596266444596 -414.980420367628 6.69102988185533
55.3605555521108 45.303950228779 361.637592723274 13.2727573541403 -422.504081562107 7.44979909754286
57.4062021163208 47.4464940850341 381.49496759503 17.8470683409018 -427.320491860643 7.93729994662419
102.740031312762 149.619415945789 484.830661611723 -60.2698401390327 -447.417688213894 3.88678920946248
95.3772328115606 135.296306665991 452.47804603649 -55.9541846877055 -441.29254288567 3.86969456527281
83.7332677388014 112.452418145399 402.722453355172 -48.3695209046528 -431.792152673447 3.90389453973642
71.3878033037916 87.5531493646132 354.329799997739 -37.9871393623178 -422.766615303176 4.13484607967893
61.6158240180228 66.6317455736782 323.645536612139 -25.7061827774571 -417.549067116735 4.65652521631584
56.3800842964541 53.4366091092945 319.569842439162 -12.5693783712668 -417.919666461781 5.48265267150798
56.1131115547345 49.0515931872835 342.446542989556 0.31029846239299 -423.822207526757 6.54110762632936
59.7433497478587 51.9669545251943 384.077642923064 11.7062650481569 -433.383112679579 7.67295321743896
64.8635259778426 58.3413787300067 428.787250564886 20.3656243634494 -443.229208127931 8.65055551629576
68.4708115570563 63.1796306569527 458.239509997441 25.4007450349419 -449.539064428778 9.2480951370391
118.298541972702 178.548329248221 559.451457836092 -66.0306804161721 -463.799729486579 4.23117158548249
109.211913753466 160.984362328507 517.797549457787 -61.6908700154027 -456.521551826961 4.14066014051193
94.3778985232217 131.94106240749 452.292869603789 -53.2620272017782 -445.164264333516 4.10425046195185
78.6597835660452 100.311514130502 388.516436326976 -41.3160052471953 -434.390993025736 4.31602048181602
66.4380702151664 74.2562086809416 348.416806570618 -26.980163806715 -428.179273871198 4.89903456908911
60.2499997714471 58.6570333453461 343.60470148045 -11.5224608910164 -428.595160388962 5.87197270729387
60.6214438024594 54.8301846218853 374.499826658816 3.71417746616508 -435.565775371948 7.14645944910856
66.1257919733395 60.6820426134275 430.368217629032 17.1854336052344 -446.904582950566 8.5222162714253
73.5108443422481 70.9036139083535 490.130527164707 27.2188019689219 -458.586463505654 9.70302716435186
78.6650080315887 78.5213412598934 528.764165991405 32.5924561954959 -465.996538904231 10.3916814364995
127.897103399353 196.691857256387 605.572881739864 -69.4825851159233 -472.440557915886 4.42851640249958
117.810870707015 177.196299189035 558.368084033349 -65.2243278994866 -464.828796569975 4.29307712990988
100.976638614212 144.165534901379 482.871455253431 -56.3520763226953 -452.857227605291 4.21454585987895
83.092588483219 108.113208856378 409.140387818344 -43.4681698064827 -441.491828312292 4.41770803166739
69.2832471051878 78.6700844365157 362.904148011493 -27.8364736903671 -434.950747875273 5.04312338190374
62.4797772911225 61.5174116228379 357.616167371875 -10.8783249027777 -435.395955418372 6.11091918491668
63.2779350848587 58.1453314365785 393.752933762207 5.89583984621926 -442.742609512802 7.52064881792243
70.014736796 66.0553545091369 458.863191744618 20.7120031830781 -454.689194066616 9.04455065588438
78.8662274340253 78.9044875449408 528.218600615073 31.6049199850017 -466.965774952045 10.3429257212513
84.9811713728623 88.3451187623719 572.385187695334 37.1359186909482 -474.670320037957 11.0761767719183
</DataArray>
</CellData>
<Cells>
<DataArray type="UInt32" Name="connectivity" NumberOfComponents="1" format="ascii" >
181 1316 1883 794 0 12 272 87 
1316 1317 1884 1883 12 13 273 272 
1317 1318 1885 1884 13 14 274 273 
1318 1319 1886 1885 14 15 275 274 
1319 1320 1887 1886 15 16 276 275 
1320 1321 1888 1887 16 17 277 276 
1321 1322 1889 1888 17 18 278 277 
1322 1323 1890 1889 18 19 279 278 
1323 1324 1891 1890 19 20 280 279 
1324 191 1055 1891 20 1 21 280 
794 1883 1892 795 87 272 281 86 
1883 1884 1893 1892 272 273 282 281 
1884 1885 1894 1893 273 274 283 282 
1885 1886 1895 1894 274 275 284 283 
1886 1887 1896 1895 275 276 285 284 
1887 1888 1897 1896 276 277 286 285 
1888 1889 1898 1897 277 278 287 286 
1889 1890 1899 1898 278 279 288 287 
1890 1891 1900 1899 279 280 289 288 
1891 1055 1056 1900 280 21 22 289 
795 1892 1901 796 86 281 290 85 
1892 1893 1902 1901 281 282 291 290 
1893 1894 1903 1902 282 283 292 291 
1894 1895 1904 1903 283 284 293 292 
1895 1896 1905 1904 284 285 294 293 
1896 1897 1906 1905 285 286 295 294 
1897 1898 1907 1906 286 287 296 295 
1898 1899 1908 1907 287 288 297 296 
1899 1900 1909 1908 288 289 298 297 
1900 1056 1057 1909 289 22 23 298 
796 1901 1910 797 85 290 299 84 
1901 1902 1911 1910 290 291 300 299 
1902 1903 1912 1911 291 292 301 300 
1903 1904 1913 1912 292 293 302 301 
1904 1905 1914 1913 293 294 303 302 
1905 1906 1915 1914 294 295 304 303 
1906 1907 1916 1915 295 296 305 304 
1907 1908 1917 1916 296 297 306 305 
1908 1909 1918 1917 297 298 307 306 
1909 1057 1058 1918 298 23 24 307 
797 1910 1919 798 84 299 308 83 
1910 1911 1920 1919 299 300 309 308 
1911 1912 1921 1920 300 301 310 309 
1912 1913 1922 1921 301 302 311 310 
1913 1914 1923 1922 302 303 312 311 
1914 1915 1924 1923 303 304 313 312 
1915 1916 1925 1924 304 305 314 313 
1916 1917 1926 1925 305 306 315 314 
1917 1918 1927 1926 306 307 316 315 
1918 1058 1059 1927 307 24 25 316 
798 1919 1928 799 83 308 317 82 
1919 1920 1929 1928 308 309 318 317 
1920 1921 1930 1929 309 310 319 318 
1921 1922 1931 1930 310 311 320 319 
1922 1923 1932 1931 311 312 321 320 
1923 1924 1933 1932 312 313 322 321 
1924 1925 1934 1933 313 314 323 322 
1925 1926 1935 1934 314 315 324 323 
1926 1927 1936 1935 315 316 325 324 
1927 1059 1060 1936 316 25 26 325 
799 1928 1937 800 82 317 326 81 
1928 1929 1938 1937 317 318 327 326 
1929 1930 1939 1938 318 319 328 327 
1930 1931 1940 1939 319 320 329 328 
1931 1932 1941 1940 320 321 330 329 
1932 1933 1942 1941 321 322 331 330 
1933 1934 1943 1942 322 323 332 331 
1934 1935 1944 1943 323 324 333 332 
1935 1936 1945 1944 324 325 334 333 
1936 1060 1061 1945 325 26 27 334 
800 1937 1946 801 81 326 335 80 
1937 1938 1947 1946 326 327 336 335 
1938 1939 1948 1947 327 328 337 336 
1939 1940 1949 1948 328 329 338 337 
1940 1941 1950 1949 329 330 339 338 
1941 1942 1951 1950 330 331 340 339 
1942 1943 1952 1951 331 332 341 340 
1943 1944 1953 1952 332 333 342 341 
1944 1945 1954 1953 333 334 343 342 
1945 1061 1062 1954 334 27 28 343 
801 1946 1955 802 80 335 344 79 
1946 1947 1956 1955 335 336 345 344 
1947 1948 1957 1956 336 337 346 345 
1948 1949 1958 1957 337 338 347 346 
1949 1950 1959 1958 338 339 348 347 
1950 1951 1960 1959 339 340 349 348 
1951 1952 1961 1960 340 341 350 349 
1952 1953 1962 1961 341 342 351 350 
1953 1954 1963 1962 342 343 352 351 
1954 1062 1063 1963 343 28 29 352 
802 1955 1964 803 79 344 353 78 
1955 1956 1965 1964 344 345 354 353 
1956 1957 1966 1965 345 346 355 354 
1957 1958 1967 1966 346 347 356 355 
1958 1959 1968 1967 347 348 357 356 
1959 1960 1969 1968 348 349 358 357 
1960 1961 1970 1969 349 350 359 358 
1961 1962 1971 1970 350 351 360 359 
1962 1963 1972 1971 351 352 361 360 
1963 1063 1064 1972 352 29 30 361 
803 1964 1973 804 78 353 362 77 
1964 1965 1974 1973 353 354 363 362 
1965 1966 1975 1974 354 355 364 363 
1966 1967 1976 1975 355 356 365 364 
1967 1968 1977 1976 356 357 366 365 
1968 1969 1978 1977 357 358 367 366 
1969 1970 1979 1978 358 359 368 367 
1970 1971 1980 1979 359 360 369 368 
1971 1972 1981 1980 360 361 370 369 
1972 1064 1065 1981 361 30 31 370 
804 1973 1982 805 77 362 371 76 
1973 1974 1983 1982 362 363 372 371 
1974 1975 1984 1983 363 364 373 372 
1975 1976 1985 1984 364 365 374 373 
1976 1977 1986 1985 365 366 375 374 
1977 1978 1987 1986 366 367 376 375 
1978 1979 1988 1987 367 368 377 376 
1979 1980 1989 1988 368 369 378 377 
1980 1981 1990 1989 369 370 379 378 
1981 1065 1066 1990 370 31 32 379 
805 1982 1991 806 76 371 380 75 
1982 1983 1992 1991 371 372 381 380 
1983 1984 1993 1992 372 373 382 381 
1984 1985 1994 1993 373 374 383 382 
1985 1986 1995 1994 374 375 384 383 
1986 1987 1996 1995 375 376 385 384 
1987 1988 1997 1996 376 377 386 385 
1988 1989 1998 1997 377 378 387 386 
1989 1990 1999 1998 378 379 388 387 
1990 1066 1067 1999 379 32 33 388 
806 1991 2000 807 75 380 389 74 
1991 1992 2001 2000 380 381 390 389 
1992 1993 2002 2001 381 382 391 390 
1993 1994 2003 2002 382 383 392 391 
1994 1995 2004 2003 383 384 393 392 
1995 1996 2005 2004 384 385 394 393 
1996 1997 2006 2005 385 386 395 394 
1997 1998 2007 2006 386 387 396 395 
1998 1999 2008 2007 387 388 397 396 
1999 1067 1068 2008 388 33 34 397 
807 2000 2009 808 74 389 398 73 
2000 2001 2010 2009 389 390 399 398 
2001 2002 2011 2010 390 391 400 399 
2002 2003 2012 2011 391 392 401 400 
2003 2004 2013 2012 392 393 402 401 
2004 2005 2014 2013 393 394 403 402 
2005 2006 2015 2014 394 395 404 403 
2006 2007 2016 2015 395 396 405 404 
2007 2008 2017 2016 396 397 406 405 
2008 1068 1069 2017 397 34 35 406 
808 2009 2018 809 73 398 407 72 
2009 2010 2019 2018 398 399 408 407 
2010 2011 2020 2019 399 400 409 408 
2011 2012 2021 2020 400 401 410 409 
2012 2013 2022 2021 401 402 411 410 
2013 2014 2023 2022 402 403 412 411 
2014 2015 2024 2023 403 404 413 412 
2015 2016 2025 2024 404 405 414 413 
2016 2017 2026 2025 405 406 415 414 
2017 1069 1070 2026 406 35 36 415 
809 2018 2027 810 72 407 416 71 
2018 2019 2028 2027 407 408 417 416 
2019 2020 2029 2028 408 409 418 417 
2020 2021 2030 2029 409 410 419 418 
2021 2022 2031 2030 410 411 420 419 
2022 2023 2032 2031 411 412 421 420 
2023 2024 2033 2032 412 413 422 421 
2024 2025 2034 2033 413 414 423 422 
2025 2026 2035 2034 414 415 424 423 
2026 1070 1071 2035 415 36 37 424 
810 2027 2036 811 71 416 425 70 
2027 2028 2037 2036 416 417 426 425 
2028 2029 2038 2037 417 418 427 426 
2029 2030 2039 2038 418 419 428 427 
2030 2031 2040 2039 419 420 429 428 
2031 2032 2041 2040 420 421 430 429 
2032 2033 2042 2041 421 422 431 430 
2033 2034 2043 2042 422 423 432 431 
2034 2035 2044 2043 423 424 433 432 
2035 1071 1072 2044 424 37 38 433 
811 2036 2045 812 70 425 434 69 
2036 2037 2046 2045 425 426 435 434 
2037 2038 2047 2046 426 427 436 435 
2038 2039 2048 2047 427 428 437 436 
2039 2040 2049 2048 428 429 438 437 
2040 2041 2050 2049 429 430 439 438 
2041 2042 2051 2050 430 431 440 439 
2042 2043 2052 2051 431 432 441 440 
2043 2044 2053 2052 432 433 442 441 
2044 1072 1073 2053 433 38 39 442 
812 2045 2054 813 69 434 443 68 
2045 2046 2055 2054 434 435 444 443 
2046 2047 2056 2055 435 436 445 444 
2047 2048 2057 2056 436 437 446 445 
2048 2049 2058 2057 437 438 447 446 
2049 2050 2059 2058 438 439 448 447 
2050 2051 2060 2059 439 440 449 448 
2051 2052 2061 2060 440 441 450 449 
2052 2053 2062 2061 441 442 451 450 
2053 1073 1074 2062 442 39 40 451 
813 2054 2063 814 68 443 452 67 
2054 2055 2064 2063 443 444 453 452 
2055 2056 2065 2064 444 445 454 453 
2056 2057 2066 2065 445 446 455 454 
2057 2058 2067 2066 446 447 456 455 
2058 2059 2068 2067 447 448 457 456 
2059 2060 2069 2068 448 449 458 457 
2060 2061 2070 2069 449 450 459 458 
2061 2062 2071 2070 450 451 460 459 
2062 1074 1075 2071 451 40 41 460 
814 2063 2072 815 67 452 461 66 
2063 2064 2073 2072 452 453 462 461 
2064 2065 2074 2073 453 454 463 462 
2065 2066 2075 2074 454 455 464 463 
2066 2067 2076 2075 455 456 465 464 
2067 2068 2077 2076 456 457 466 465 
2068 2069 2078 2077 457 458 467 466 
2069 2070 2079 2078 458 459 468 467 
2070 2071 2080 2079 459 460 469 468 
2071 1075 1076 2080 460 41 42 469 
815 2072 2081 816 66 461 470 65 
2072 2073 2082 2081 461 462 471 470 
2073 2074 2083 2082 462 463 472 471 
2074 2075 2084 2083 463 464 473 472 
2075 2076 2085 2084 464 465 474 473 
2076 2077 2086 2085 465 466 475 474 
2077 2078 2087 2086 466 467 476 475 
2078 2079 2088 2087 467 468 477 476 
2079 2080 2089 2088 468 469 478 477 
2080 1076 1077 2089 469 42 43 478 
816 2081 2090 817 65 470 479 64 
2081 2082 2091 2090 470 471 480 479 
2082 2083 2092 2091 471 472 481 480 
2083 2084 2093 2092 472 473 482 481 
2084 2085 2094 2093 473 474 483 482 
2085 2086 2095 2094 474 475 484 483 
2086 2087 2096 2095 475 476 485 484 
2087 2088 2097 2096 476 477 486 485 
2088 2089 2098 2097 477 478 487 486 
2089 1077 1078 2098 478 43 44 487 
817 2090 2099 818 64 479 488 63 
2090 2091 2100 2099 479 480 489 488 
2091 2092 2101 2100 480 481 490 489 
2092 2093 2102 2101 481 482 491 490 
2093 2094 2103 2102 482 483 492 491 
2094 2095 2104 2103 483 484 493 492 
2095 2096 2105 2104 484 485 494 493 
2096 2097 2106 2105 485 486 495 494 
2097 2098 2107 2106 486 487 496 495 
2098 1078 1079 2107 487 44 45 496 
818 2099 2108 819 63 488 497 62 
2099 2100 2109 2108 488 489 498 497 
2100 2101 2110 2109 489 490 499 498 
2101 2102 2111 2110 490 491 500 499 
2102 2103 2112 2111 491 492 501 500 
2103 2104 2113 2112 492 493 502 501 
2104 2105 2114 2113 493 494 503 502 
2105 2106 2115 2114 494 495 504 503 
2106 2107 2116 2115 495 496 505 504 
2107 1079 1080 2116 496 45 46 505 
819 2108 2117 820 62 497 506 61 
2108 2109 2118 2117 497 498 507 506 
2109 2110 2119 2118 498 499 508 507 
2110 2111 2120 2119 499 500 509 508 
2111 2112 2121 2120 500 501 510 509 
2112 2113 2122 2121 501 502 511 510 
2113 2114 2123 2122 502 503 512 511 
2114 2115 2124 2123 503 504 513 512 
2115 2116 2125 2124 504 505 514 513 
2116 1080 1081 2125 505 46 47 514 
820 2117 2126 821 61 506 515 60 
2117 2118 2127 2126 506 507 516 515 
2118 2119 2128 2127 507 508 517 516 
2119 2120 2129 2128 508 509 518 517 
2120 2121 2130 2129 509 510 519 518 
2121 2122 2131 2130 510 511 520 519 
2122 2123 2132 2131 511 512 521 520 
2123 2124 2133 2132 512 513 522 521 
2124 2125 2134 2133 513 514 523 522 
2125 1081 1082 2134 514 47 48 523 
821 2126 2135 822 60 515 524 59 
2126 2127 2136 2135 515 516 525 524 
2127 2128 2137 2136 516 517 526 525 
2128 2129 2138 2137 517 518 527 526 
2129 2130 2139 2138 518 519 528 527 
2130 2131 2140 2139 519 520 529 528 
2131 2132 2141 2140 520 521 530 529 
2132 2133 2142 2141 521 522 531 530 
2133 2134 2143 2142 522 523 532 531 
2134 1082 1083 2143 523 48 49 532 
822 2135 1397 164 59 524 58 3 
2135 2136 1398 1397 524 525 57 58 
2136 2137 1399 1398 525 526 56 57 
2137 2138 1400 1399 526 527 55 56 
2138 2139 1401 1400 527 528 54 55 
2139 2140 1402 1401 528 529 53 54 
2140 2141 1403 1402 529 530 52 53 
2141 2142 1404 1403 530 531 51 52 
2142 2143 1405 1404 531 532 50 51 
2143 1083 190 1405 532 49 2 50 
180 1325 2144 823 181 1316 1883 794 
1325 1326 2145 2144 1316 1317 1884 1883 
1326 1327 2146 2145 1317 1318 1885 1884 
1327 1328 2147 2146 1318 1319 1886 1885 
1328 1329 2148 2147 1319 1320 1887 1886 
1329 1330 2149 2148 1320 1321 1888 1887 
1330 1331 2150 2149 1321 1322 1889 1888 
1331 1332 2151 2150 1322 1323 1890 1889 
1332 1333 2152 2151 1323 1324 1891 1890 
1333 192 1084 2152 1324 191 1055 1891 
823 2144 2153 824 794 1883 1892 795 
2144 2145 2154 2153 1883 1884 1893 1892 
2145 2146 2155 2154 1884 1885 1894 1893 
2146 2147 2156 2155 1885 1886 1895 1894 
2147 2148 2157 2156 1886 1887 1896 1895 
2148 2149 2158 2157 1887 1888 1897 1896 
2149 2150 2159 2158 1888 1889 1898 1897 
2150 2151 2160 2159 1889 1890 1899 1898 
2151 2152 2161 2160 1890 1891 1900 1899 
2152 1084 1085 2161 1891 1055 1056 1900 
824 2153 2162 825 795 1892 1901 796 
2153 2154 2163 2162 1892 1893 1902 1901 
2154 2155 2164 2163 1893 1894 1903 1902 
2155 2156 2165 2164 1894 1895 1904 1903 
2156 2157 2166 2165 1895 1896 1905 1904 
2157 2158 2167 2166 1896 1897 1906 1905 
2158 2159 2168 2167 1897 1898 1907 1906 
2159 2160 2169 2168 1898 1899 1908 1907 
2160 2161 2170 2169 1899 1900 1909 1908 
2161 1085 1086 2170 1900 1056 1057 1909 
825 2162 2171 826 796 1901 1910 797 
2162 2163 2172 2171 1901 1902 1911 1910 
2163 2164 2173 2172 1902 1903 1912 1911 
2164 2165 2174 2173 1903 1904 1913 1912 
2165 2166 2175 2174 1904 1905 1914 1913 
2166 2167 2176 2175 1905 1906 1915 1914 
2167 2168 2177 2176 1906 1907 1916 1915 
2168 2169 2178 2177 1907 1908 1917 1916 
2169 2170 2179 2178 1908 1909 1918 1917 
2170 1086 1087 2179 1909 1057 1058 1918 
826 2171 2180 827 797 1910 1919 798 
2171 2172 2181 2180 1910 1911 1920 1919 
2172 2173 2182 2181 1911 1912 1921 1920 
2173 2174 2183 2182 1912 1913 1922 1921 
2174 2175 2184 2183 1913 1914 1923 1922 
2175 2176 2185 2184 1914 1915 1924 1923 
2176 2177 2186 2185 1915 1916 1925 1924 
2177 2178 2187 2186 1916 1917 1926 1925 
2178 2179 2188 2187 1917 1918 1927 1926 
2179 1087 1088 2188 1918 1058 1059 1927 
827 2180 2189 828 798 1919 1928 799 
2180 2181 2190 2189 1919 1920 1929 1928 
2181 2182 2191 2190 1920 1921 1930 1929 
2182 2183 2192 2191 1921 1922 1931 1930 
2183 2184 2193 2192 1922 1923 1932 1931 
2184 2185 2194 2193 1923 1924 1933 1932 
2185 2186 2195 2194 1924 1925 1934 1933 
2186 2187 2196 2195 1925 1926 1935 1934 
2187 2188 2197 2196 1926 1927 1936 1935 
2188 1088 1089 2197 1927 1059 1060 1936 
828 2189 2198 829 799 1928 1937 800 
2189 2190 2199 2198 1928 1929 1938 1937 
2190 2191 2200 2199 1929 1930 1939 1938 
2191 2192 2201 2200 1930 1931 1940 1939 
2192 2193 2202 2201 1931 1932 1941 1940 
2193 2194 2203 2202 1932 1933 1942 1941 
2194 2195 2204 2203 1933 1934 1943 1942 
2195 2196 2205 2204 1934 1935 1944 1943 
2196 2197 2206 2205 1935 1936 1945 1944 
2197 1089 1090 2206 1936 1060 1061 1945 
829 2198 2207 830 800 1937 1946 801 
2198 2199 2208 2207 1937 1938 1947 1946 
2199 2200 2209 2208 1938 1939 1948 1947 
2200 2201 2210 2209 1939 1940 1949 1948 
2201 2202 2211 2210 1940 1941 1950 1949 
2202 2203 2212 2211 1941 1942 1951 1950 
2203 2204 2213 2212 1942 1943 1952 1951 
2204 2205 2214 2213 1943 1944 1953 1952 
2205 2206 2215 2214 1944 1945 1954 1953 
2206 1090 1091 2215 1945 1061 1062 1954 
830 2207 2216 831 801 1946 1955 802 
2207 2208 2217 2216 1946 1947 1956 1955 
2208 2209 2218 2217 1947 1948 1957 1956 
2209 2210 2219 2218 1948 1949 1958 1957 
2210 2211 2220 2219 1949 1950 1959 1958 
2211 2212 2221 2220 1950 1951 1960 1959 
2212 2213 2222 2221 1951 1952 1961 1960 
2213 2214 2223 2222 1952 1953 1962 1961 
2214 2215 2224 2223 1953 1954 1963 1962 
2215 1091 1092 2224 1954 1062 1063 1963 
831 2216 2225 832 802 1955 1964 803 
2216 2217 2226 2225 1955 1956 1965 1964 
2217 2218 2227 2226 1956 1957 1966 1965 
2218 2219 2228 2227 1957 1958 1967 1966 
2219 2220 2229 2228 1958 1959 1968 1967 
2220 2221 2230 2229 1959 1960 1969 1968 
2221 2222 2231 2230 1960 1961 1970 1969 
2222 2223 2232 2231 1961 1962 1971 1970 
2223 2224 2233 2232 1962 1963 1972 1971 
2224 1092 1093 2233 1963 1063 1064 1972 
832 2225 2234 833 803 1964 1973 804 
2225 2226 2235 2234 1964 1965 1974 1973 
2226 2227 2236 2235 1965 1966 1975 1974 
2227 2228 2237 2236 1966 1967 1976 1975 
2228 2229 2238 2237 1967 1968 1977 1976 
2229 2230 2239 2238 1968 1969 1978 1977 
2230 2231 2240 2239 1969 1970 1979 1978 
2231 2232 2241 2240 1970 1971 1980 1979 
2232 2233 2242 2241 1971 1972 1981 1980 
2233 1093 1094 2242 1972 1064 1065 1981 
833 2234 2243 834 804 1973 1982 805 
2234 2235 2244 2243 1973 1974 1983 1982 
2235 2236 2245 2244 1974 1975 1984 1983 
2236 2237 2246 2245 1975 1976 1985 1984 
2237 2238 2247 2246 1976 1977 1986 1985 
2238 2239 2248 2247 1977 1978 1987 1986 
2239 2240 2249 2248 1978 1979 1988 1987 
2240 2241 2250 2249 1979 1980 1989 1988 
2241 2242 2251 2250 1980 1981 1990 1989 
2242 1094 1095 2251 1981 1065 1066 1990 
834 2243 2252 835 805 1982 1991 806 
2243 2244 2253 2252 1982 1983 1992 1991 
2244 2245 2254 2253 1983 1984 1993 1992 
2245 2246 2255 2254 1984 1985 1994 1993 
2246 2247 2256 2255 1985 1986 1995 1994 
2247 2248 2257 2256 1986 1987 1996 1995 
2248 2249 2258 2257 1987 1988 1997 1996 
2249 2250 2259 2258 1988 1989 1998 1997 
2250 2251 2260 2259 1989 1990 1999 1998 
2251 1095 1096 2260 1990 1066 1067 1999 
835 2252 2261 836 806 1991 2000 807 
2252 2253 2262 2261 1991 1992 2001 2000 
2253 2254 2263 2262 1992 1993 2002 2001 
2254 2255 2264 2263 1993 1994 2003 2002 
2255 2256 2265 2264 1994 1995 2004 2003 
2256 2257 2266 2265 1995 1996 2005 2004 
2257 2258 2267 2266 1996 1997 2006 2005 
2258 2259 2268 2267 1997 1998 2007 2006 
2259 2260 2269 2268 1998 1999 2008 2007 
2260 1096 1097 2269 1999 1067 1068 2008 
836 2261 2270 837 807 2000 2009 808 
2261 2262 2271 2270 2000 2001 2010 2009 
2262 2263 2272 2271 2001 2002 2011 2010 
2263 2264 2273 2272 2002 2003 2012 2011 
2264 2265 2274 2273 2003 2004 2013 2012 
2265 2266 2275 2274 2004 2005 2014 2013 
2266 2267 2276 2275 2005 2006 2015 2014 
2267 2268 2277 2276 2006 2007 2016 2015 
2268 2269 2278 2277 2007 2008 2017 2016 
2269 1097 1098 2278 2008 1068 1069 2017 
837 2270 2279 838 808 2009 2018 809 
2270 2271 2280 2279 2009 2010 2019 2018 
2271 2272 2281 2280 2010 2011 2020 2019 
2272 2273 2282 2281 2011 2012 2021 2020 
2273 2274 2283 2282 2012 2013 2022 2021 
2274 2275 2284 2283 2013 2014 2023 2022 
2275 2276 2285 2284 2014 2015 2024 2023 
2276 2277 2286 2285 2015 2016 2025 2024 
2277 2278 2287 2286 2016 2017 2026 2025 
2278 1098 1099 2287 2017 1069 1070 2026 
838 2279 2288 839 809 2018 2027 810 
2279 2280 2289 2288 2018 2019 2028 2027 
2280 2281 2290 2289 2019 2020 2029 2028 
2281 2282 2291 2290 2020 2021 2030 2029 
2282 2283 2292 2291 2021 2022 2031 2030 
2283 2284 2293 2292 2022 2023 2032 2031 
2284 2285 2294 2293 2023 2024 2033 2032 
2285 2286 2295 2294 2024 2025 2034 2033 
2286 2287 2296 2295 2025 2026 2035 2034 
2287 1099 1100 2296 2026 1070 1071 2035 
839 2288 2297 840 810 2027 2036 811 
2288 2289 2298 2297 2027 2028 2037 2036 
2289 2290 2299 2298 2028 2029 2038 2037 
2290 2291 2300 2299 2029 2030 2039 2038 
2291 2292 2301 2300 2030 2031 2040 2039 
2292 2293 2302 2301 2031 2032 2041 2040 
2293 2294 2303 2302 2032 2033 2042 2041 
2294 2295 2304 2303 2033 2034 2043 2042 
2295 2296 2305 2304 2034 2035 2044 2043 
2296 1100 1101 2305 2035 1071 1072 2044 
840 2297 2306 841 811 2036 2045 812 
2297 2298 2307 2306 2036 2037 2046 2045 
2298 2299 2308 2307 2037 2038 2047 2046 
2299 2300 2309 2308 2038 2039 2048 2047 
2300 2301 2310 2309 2039 2040 2049 2048 
2301 2302 2311 2310 2040 2041 2050 2049 
2302 2303 2312 2311 2041 2042 2051 2050 
2303 2304 2313 2312 2042 2043 2052 2051 
2304 2305 2314 2313 2043 2044 2053 2052 
2305 1101 1102 2314 2044 1072 1073 2053 
841 2306 2315 842 812 2045 2054 813 
2306 2307 2316 2315 2045 2046 2055 2054 
2307 2308 2317 2316 2046 2047 2056 2055 
2308 2309 2318 2317 2047 2048 2057 2056 
2309 2310 2319 2318 2048 2049 2058 2057 
2310 2311 2320 2319 2049 2050 2059 2058 
2311 2312 2321 2320 2050 2051 2060 2059 
2312 2313 2322 2321 2051 2052 2061 2060 
2313 2314 2323 2322 2052 2053 2062 2061 
2314 1102 1103 2323 2053 1073 1074 2062 
842 2315 2324 843 813 2054 2063 814 
2315 2316 2325 2324 2054 2055 2064 2063 
2316 2317 2326 2325 2055 2056 2065 2064 
2317 2318 2327 2326 2056 2057 2066 2065 
2318 2319 2328 2327 2057 2058 2067 2066 
2319 2320 2329 2328 2058 2059 2068 2067 
2320 2321 2330 2329 2059 2060 2069 2068 
2321 2322 2331 2330 2060 2061 2070 2069 
2322 2323 2332 2331 2061 2062 2071 2070 
2323 1103 1104 2332 2062 1074 1075 2071 
843 2324 2333 844 814 2063 2072 815 
2324 2325 2334 2333 2063 2064 2073 2072 
2325 2326 2335 2334 2064 2065 2074 2073 
2326 2327 2336 2335 2065 2066 2075 2074 
2327 2328 2337 2336 2066 2067 2076 2075 
2328 2329 2338 2337 2067 2068 2077 2076 
2329 2330 2339 2338 2068 2069 2078 2077 
2330 2331 2340 2339 2069 2070 2079 2078 
2331 2332 2341 2340 2070 2071 2080 2079 
2332 1104 1105 2341 2071 1075 1076 2080 
844 2333 2342 845 815 2072 2081 816 
2333 2334 2343 2342 2072 2073 2082 2081 
2334 2335 2344 2343 2073 2074 2083 2082 
2335 2336 2345 2344 2074 2075 2084 2083 
2336 2337 2346 2345 2075 2076 2085 2084 
2337 2338 2347 2346 2076 2077 2086 2085 
2338 2339 2348 2347 2077 2078 2087 2086 
2339 2340 2349 2348 2078 2079 2088 2087 
2340 2341 2350 2349 2079 2080 2089 2088 
2341 1105 1106 2350 2080 1076 1077 2089 
845 2342 2351 846 816 2081 2090 817 
2342 2343 2352 2351 2081 2082 2091 2090 
2343 2344 2353 2352 2082 2083 2092 2091 
2344 2345 2354 2353 2083 2084 2093 2092 
2345 2346 2355 2354 2084 2085 2094 2093 
2346 2347 2356 2355 2085 2086 2095 2094 
2347 2348 2357 2356 2086 2087 2096 2095 
2348 2349 2358 2357 2087 2088 2097 2096 
2349 2350 2359 2358 2088 2089 2098 2097 
2350 1106 1107 2359 2089 1077 1078 2098 
846 2351 2360 847 817 2090 2099 818 
2351 2352 2361 2360 2090 2091 2100 2099 
2352 2353 2362 2361 2091 2092 2101 2100 
2353 2354 2363 2362 2092 2093 2102 2101 
2354 2355 2364 2363 2093 2094 2103 2102 
2355 2356 2365 2364 2094 2095 2104 2103 
2356 2357 2366 2365 2095 2096 2105 2104 
2357 2358 2367 2366 2096 2097 2106 2105 
2358 2359 2368 2367 2097 2098 2107 2106 
2359 1107 1108 2368 2098 1078 1079 2107 
847 2360 2369 848 818 2099 2108 819 
2360 2361 2370 2369 2099 2100 2109 2108 
2361 2362 2371 2370 2100 2101 2110 2109 
2362 2363 2372 2371 2101 2102 2111 2110 
2363 2364 2373 2372 2102 2103 2112 2111 
2364 2365 2374 2373 2103 2104 2113 2112 
2365 2366 2375 2374 2104 2105 2114 2113 
2366 2367 2376 2375 2105 2106 2115 2114 
2367 2368 2377 2376 2106 2107 2116 2115 
2368 1108 1109 2377 2107 1079 1080 2116 
848 2369 2378 849 819 2108 2117 820 
2369 2370 2379 2378 2108 2109 2118 2117 
2370 2371 2380 2379 2109 2110 2119 2118 
2371 2372 2381 2380 2110 2111 2120 2119 
2372 2373 2382 2381 2111 2112 2121 2120 
2373 2374 2383 2382 2112 2113 2122 2121 
2374 2375 2384 2383 2113 2114 2123 2122 
2375 2376 2385 2384 2114 2115 2124 2123 
2376 2377 2386 2385 2115 2116 2125 2124 
2377 1109 1110 2386 2116 1080 1081 2125 
849 2378 2387 850 820 2117 2126 821 
2378 2379 2388 2387 2117 2118 2127 2126 
2379 2380 2389 2388 2118 2119 2128 2127 
2380 2381 2390 2389 2119 2120 2129 2128 
2381 2382 2391 2390 2120 2121 2130 2129 
2382 2383 2392 2391 2121 2122 2131 2130 
2383 2384 2393 2392 2122 2123 2132 2131 
2384 2385 2394 2393 2123 2124 2133 2132 
2385 2386 2395 2394 2124 2125 2134 2133 
2386 1110 1111 2395 2125 1081 1082 2134 
850 2387 2396 851 821 2126 2135 822 
2387 2388 2397 2396 2126 2127 2136 2135 
2388 2389 2398 2397 2127 2128 2137 2136 
2389 2390 2399 2398 2128 2129 2138 2137 
2390 2391 2400 2399 2129 2130 2139 2138 
2391 2392 2401 2400 2130 2131 2140 2139 
2392 2393 2402 2401 2131 2132 2141 2140 
2393 2394 2403 2402 2132 2133 2142 2141 
2394 2395 2404 2403 2133 2134 2143 2142 
2395 1111 1112 2404 2134 1082 1083 2143 
851 2396 1406 165 822 2135 1397 164 
2396 2397 1407 1406 2135 2136 1398 1397 
2397 2398 1408 1407 2136 2137 1399 1398 
2398 2399 1409 1408 2137 2138 1400 1399 
2399 2400 1410 1409 2138 2139 1401 1400 
2400 2401 1411 1410 2139 2140 1402 1401 
2401 2402 1412 1411 2140 2141 1403 1402 
2402 2403 1413 1412 2141 2142 1404 1403 
2403 2404 1414 1413 2142 2143 1405 1404 
2404 1112 189 1414 2143 1083 190 1405 
179 1334 2405 852 180 1325 2144 823 
1334 1335 2406 2405 1325 1326 2145 2144 
1335 1336 2407 2406 1326 1327 2146 2145 
1336 1337 2408 2407 1327 1328 2147 2146 
1337 1338 2409 2408 1328 1329 2148 2147 
1338 1339 2410 2409 1329 1330 2149 2148 
1339 1340 2411 2410 1330 1331 2150 2149 
1340 1341 2412 2411 1331 1332 2151 2150 
1341 1342 2413 2412 1332 1333 2152 2151 
1342 193 1113 2413 1333 192 1084 2152 
852 2405 2414 853 823 2144 2153 824 
2405 2406 2415 2414 2144 2145 2154 2153 
2406 2407 2416 2415 2145 2146 2155 2154 
2407 2408 2417 2416 2146 2147 2156 2155 
2408 2409 2418 2417 2147 2148 2157 2156 
2409 2410 2419 2418 2148 2149 2158 2157 
2410 2411 2420 2419 2149 2150 2159 2158 
2411 2412 2421 2420 2150 2151 2160 2159 
2412 2413 2422 2421 2151 2152 2161 2160 
2413 1113 1114 2422 2152 1084 1085 2161 
853 2414 2423 854 824 2153 2162 825 
2414 2415 2424 2423 2153 2154 2163 2162 
2415 2416 2425 2424 2154 2155 2164 2163 
2416 2417 2426 2425 2155 2156 2165 2164 
2417 2418 2427 2426 2156 2157 2166 2165 
2418 2419 2428 2427 2157 2158 2167 2166 
2419 2420 2429 2428 2158 2159 2168 2167 
2420 2421 2430 2429 2159 2160 2169 2168 
2421 2422 2431 2430 2160 2161 2170 2169 
2422 1114 1115 2431 2161 1085 1086 2170 
854 2423 2432 855 825 2162 2171 826 
2423 2424 2433 2432 2162 2163 2172 2171 
2424 2425 2434 2433 2163 2164 2173 2172 
2425 2426 2435 2434 2164 2165 2174 2173 
2426 2427 2436 2435 2165 2166 2175 2174 
2427 2428 2437 2436 2166 2167 2176 2175 
2428 2429 2438 2437 2167 2168 2177 2176 
2429 2430 2439 2438 2168 2169 2178 2177 
2430 2431 2440 2439 2169 2170 2179 2178 
2431 1115 1116 2440 2170 1086 1087 2179 
855 2432 2441 856 826 2171 2180 827 
2432 2433 2442 2441 2171 2172 2181 2180 
2433 2434 2443 2442 2172 2173 2182 2181 
2434 2435 2444 2443 2173 2174 2183 2182 
2435 2436 2445 2444 2174 2175 2184 2183 
2436 2437 2446 2445 2175 2176 2185 2184 
2437 2438 2447 2446 2176 2177 2186 2185 
2438 2439 2448 2447 2177 2178 2187 2186 
2439 2440 2449 2448 2178 2179 2188 2187 
2440 1116 1117 2449 2179 1087 1088 2188 
856 2441 2450 857 827 2180 2189 828 
2441 2442 2451 2450 2180 2181 2190 2189 
2442 2443 2452 2451 2181 2182 2191 2190 
2443 2444 2453 2452 2182 2183 2192 2191 
2444 2445 2454 2453 2183 2184 2193 2192 
2445 2446 2455 2454 2184 2185 2194 2193 
2446 2447 2456 2455 2185 2186 2195 2194 
2447 2448 2457 2456 2186 2187 2196 2195 
2448 2449 2458 2457 2187 2188 2197 2196 
2449 1117 1118 2458 2188 1088 1089 2197 
857 2450 2459 858 828 2189 2198 829 
2450 2451 2460 2459 2189 2190 2199 2198 
2451 2452 2461 2460 2190 2191 2200 2199 
2452 2453 2462 2461 2191 2192 2201 2200 
2453 2454 2463 2462 2192 2193 2202 2201 
2454 2455 2464 2463 2193 2194 2203 2202 
2455 2456 2465 2464 2194 2195 2204 2203 
2456 2457 2466 2465 2195 2196 2205 2204 
2457 2458 2467 2466 2196 2197 2206 2205 
2458 1118 1119 2467 2197 1089 1090 2206 
858 2459 2468 859 829 2198 2207 830 
2459 2460 2469 2468 2198 2199 2208 2207 
2460 2461 2470 2469 2199 2200 2209 2208 
2461 2462 2471 2470 2200 2201 2210 2209 
2462 2463 2472 2471 2201 2202 2211 2210 
2463 2464 2473 2472 2202 2203 2212 2211 
2464 2465 2474 2473 2203 2204 2213 2212 
2465 2466 2475 2474 2204 2205 2214 2213 
2466 2467 2476 2475 2205 2206 2215 2214 
2467 1119 1120 2476 2206 1090 1091 2215 
859 2468 2477 860 830 2207 2216 831 
2468 2469 2478 2477 2207 2208 2217 2216 
2469 2470 2479 2478 2208 2209 2218 2217 
2470 2471 2480 2479 2209 2210 2219 2218 
2471 2472 2481 2480 2210 2211 2220 2219 
2472 2473 2482 2481 2211 2212 2221 2220 
2473 2474 2483 2482 2212 2213 2222 2221 
2474 2475 2484 2483 2213 2214 2223 2222 
2475 2476 2485 2484 2214 2215 2224 2223 
2476 1120 1121 2485 2215 1091 1092 2224 
860 2477 2486 861 831 2216 2225 832 
2477 2478 2487 2486 2216 2217 2226 2225 
2478 2479 2488 2487 2217 2218 2227 2226 
2479 2480 2489 2488 2218 2219 2228 2227 
2480 2481 2490 2489 2219 2220 2229 2228 
2481 2482 2491 2490 2220 2221 2230 2229 
2482 2483 2492 2491 2221 2222 2231 2230 
2483 2484 2493 2492 2222 2223 2232 2231 
2484 2485 2494 2493 2223 2224 2233 2232 
2485 1121 1122 2494 2224 1092 1093 2233 
861 2486 2495 862 832 2225 2234 833 
2486 2487 2496 2495 2225 2226 2235 2234 
2487 2488 2497 2496 2226 2227 2236 2235 
2488 2489 2498 2497 2227 2228 2237 2236 
2489 2490 2499 2498 2228 2229 2238 2237 
2490 2491 2500 2499 2229 2230 2239 2238 
2491 2492 2501 2500 2230 2231 2240 2239 
2492 2493 2502 2501 2231 2232 2241 2240 
2493 2494 2503 2502 2232 2233 2242 2241 
2494 1122 1123 2503 2233 1093 1094 2242 
862 2495 2504 863 833 2234 2243 834 
2495 2496 2505 2504 2234 2235 2244 2243 
2496 2497 2506 2505 2235 2236 2245 2244 
2497 2498 2507 2506 2236 2237 2246 2245 
2498 2499 2508 2507 2237 2238 2247 2246 
2499 2500 2509 2508 2238 2239 2248 2247 
2500 2501 2510 2509 2239 2240 2249 2248 
2501 2502 2511 2510 2240 2241 2250 2249 
2502 2503 2512 2511 2241 2242 2251 2250 
2503 1123 1124 2512 2242 1094 1095 2251 
863 2504 2513 864 834 2243 2252 835 
2504 2505 2514 2513 2243 2244 2253 2252 
2505 2506 2515 2514 2244 2245 2254 2253 
2506 2507 2516 2515 2245 2246 2255 2254 
2507 2508 2517 2516 2246 2247 2256 2255 
2508 2509 2518 2517 2247 2248 2257 2256 
2509 2510 2519 2518 2248 2249 2258 2257 
2510 2511 2520 2519 2249 2250 2259 2258 
2511 2512 2521 2520 2250 2251 2260 2259 
2512 1124 1125 2521 2251 1095 1096 2260 
864 2513 2522 865 835 2252 2261 836 
2513 2514 2523 2522 2252 2253 2262 2261 
2514 2515 2524 2523 2253 2254 2263 2262 
2515 2516 2525 2524 2254 2255 2264 2263 
2516 2517 2526 2525 2255 2256 2265 2264 
2517 2518 2527 2526 2256 2257 2266 2265 
2518 2519 2528 2527 2257 2258 2267 2266 
2519 2520 2529 2528 2258 2259 2268 2267 
2520 2521 2530 2529 2259 2260 2269 2268 
2521 1125 1126 2530 2260 1096 1097 2269 
865 2522 2531 866 836 2261 2270 837 
2522 2523 2532 2531 2261 2262 2271 2270 
2523 2524 2533 2532 2262 2263 2272 2271 
2524 2525 2534 2533 2263 2264 2273 2272 
2525 2526 2535 2534 2264 2265 2274 2273 
2526 2527 2536 2535 2265 2266 2275 2274 
2527 2528 2537 2536 2266 2267 2276 2275 
2528 2529 2538 2537 2267 2268 2277 2276 
2529 2530 2539 2538 2268 2269 2278 2277 
2530 1126 1127 2539 2269 1097 1098 2278 
866 2531 2540 867 837 2270 2279 838 
2531 2532 2541 2540 2270 2271 2280 2279 
2532 2533 2542 2541 2271 2272 2281 2280 
2533 2534 2543 2542 2272 2273 2282 2281 
2534 2535 2544 2543 2273 2274 2283 2282 
2535 2536 2545 2544 2274 2275 2284 2283 
2536 2537 2546 2545 2275 2276 2285 2284 
2537 2538 2547 2546 2276 2277 2286 2285 
2538 2539 2548 2547 2277 2278 2287 2286 
2539 1127 1128 2548 2278 1098 1099 2287 
867 2540 2549 868 838 2279 2288 839 
2540 2541 2550 2549 2279 2280 2289 2288 
2541 2542 2551 2550 2280 2281 2290 2289 
2542 2543 2552 2551 2281 2282 2291 2290 
2543 2544 2553 2552 2282 2283 2292 2291 
2544 2545 2554 2553 2283 2284 2293 2292 
2545 2546 2555 2554 2284 2285 2294 2293 
2546 2547 2556 2555 2285 2286 2295 2294 
2547 2548 2557 2556 2286 2287 2296 2295 
2548 1128 1129 2557 2287 1099 1100 2296 
868 2549 2558 869 839 2288 2297 840 
2549 2550 2559 2558 2288 2289 2298 2297 
2550 2551 2560 2559 2289 2290 2299 2298 
2551 2552 2561 2560 2290 2291 2300 2299 
2552 2553 2562 2561 2291 2292 2301 2300 
2553 2554 2563 2562 2292 2293 2302 2301 
2554 2555 2564 2563 2293 2294 2303 2302 
2555 2556 2565 2564 2294 2295 2304 2303 
2556 2557 2566 2565 2295 2296 2305 2304 
2557 1129 1130 2566 2296 1100 1101 2305 
869 2558 2567 870 840 2297 2306 841 
2558 2559 2568 2567 2297 2298 2307 2306 
2559 2560 2569 2568 2298 2299 2308 2307 
2560 2561 2570 2569 2299 2300 2309 2308 
2561 2562 2571 2570 2300 2301 2310 2309 
2562 2563 2572 2571 2301 2302 2311 2310 
2563 2564 2573 2572 2302 2303 2312 2311 
2564 2565 2574 2573 2303 2304 2313 2312 
2565 2566 2575 2574 2304 2305 2314 2313 
2566 1130 1131 2575 2305 1101 1102 2314 
870 2567 2576 871 841 2306 2315 842 
2567 2568 2577 2576 2306 2307 2316 2315 
2568 2569 2578 2577 2307 2308 2317 2316 
2569 2570 2579 2578 2308 2309 2318 2317 
2570 2571 2580 2579 2309 2310 2319 2318 
2571 2572 2581 2580 2310 2311 2320 2319 
2572 2573 2582 2581 2311 2312 2321 2320 
2573 2574 2583 2582 2312 2313 2322 2321 
2574 2575 2584 2583 2313 2314 2323 2322 
2575 1131 1132 2584 2314 1102 1103 2323 
871 2576 2585 872 842 2315 2324 843 
2576 2577 2586 2585 2315 2316 2325 2324 
2577 2578 2587 2586 2316 2317 2326 2325 
2578 2579 2588 2587 2317 2318 2327 2326 
2579 2580 2589 2588 2318 2319 2328 2327 
2580 2581 2590 2589 2319 2320 2329 2328 
2581 2582 2591 2590 2320 2321 2330 2329 
2582 2583 2592 2591 2321 2322 2331 2330 
2583 2584 2593 2592 2322 2323 2332 2331 
2584 1132 1133 2593 2323 1103 1104 2332 
872 2585 2594 873 843 2324 2333 844 
2585 2586 2595 2594 2324 2325 2334 2333 
2586 2587 2596 2595 2325 2326 2335 2334 
2587 2588 2597 2596 2326 2327 2336 2335 
2588 2589 2598 2597 2327 2328 2337 2336 
2589 2590 2599 2598 2328 2329 2338 2337 
2590 2591 2600 2599 2329 2330 2339 2338 
2591 2592 2601 2600 2330 2331 2340 2339 
2592 2593 2602 2601 2331 2332 2341 2340 
2593 1133 1134 2602 2332 1104 1105 2341 
873 2594 2603 874 844 2333 2342 845 
2594 2595 2604 2603 2333 2334 2343 2342 
2595 2596 2605 2604 2334 2335 2344 2343 
2596 2597 2606 2605 2335 2336 2345 2344 
2597 2598 2607 2606 2336 2337 2346 2345 
2598 2599 2608 2607 2337 2338 2347 2346 
2599 2600 2609 2608 2338 2339 2348 2347 
2600 2601 2610 2609 2339 2340 2349 2348 
2601 2602 2611 2610 2340 2341 2350 2349 
2602 1134 1135 2611 2341 1105 1106 2350 
874 2603 2612 875 845 2342 2351 846 
2603 2604 2613 2612 2342 2343 2352 2351 
2604 2605 2614 2613 2343 2344 2353 2352 
2605 2606 2615 2614 2344 2345 2354 2353 
2606 2607 2616 2615 2345 2346 2355 2354 
2607 2608 2617 2616 2346 2347 2356 2355 
2608 2609 2618 2617 2347 2348 2357 2356 
2609 2610 2619 2618 2348 2349 2358 2357 
2610 2611 2620 2619 2349 2350 2359 2358 
2611 1135 1136 2620 2350 1106 1107 2359 
875 2612 2621 876 846 2351 2360 847 
2612 2613 2622 2621 2351 2352 2361 2360 
2613 2614 2623 2622 2352 2353 2362 2361 
2614 2615 2624 2623 2353 2354 2363 2362 
2615 2616 2625 2624 2354 2355 2364 2363 
2616 2617 2626 2625 2355 2356 2365 2364 
2617 2618 2627 2626 2356 2357 2366 2365 
2618 2619 2628 2627 2357 2358 2367 2366 
2619 2620 2629 2628 2358 2359 2368 2367 
2620 1136 1137 2629 2359 1107 1108 2368 
876 2621 2630 877 847 2360 2369 848 
2621 2622 2631 2630 2360 2361 2370 2369 
2622 2623 2632 2631 2361 2362 2371 2370 
2623 2624 2633 2632 2362 2363 2372 2371 
2624 2625 2634 2633 2363 2364 2373 2372 
2625 2626 2635 2634 2364 2365 2374 2373 
2626 2627 2636 2635 2365 2366 2375 2374 
2627 2628 2637 2636 2366 2367 2376 2375 
2628 2629 2638 2637 2367 2368 2377 2376 
2629 1137 1138 2638 2368 1108 1109 2377 
877 2630 2639 878 848 2369 2378 849 
2630 2631 2640 2639 2369 2370 2379 2378 
2631 2632 2641 2640 2370 2371 2380 2379 
2632 2633 2642 2641 2371 2372 2381 2380 
2633 2634 2643 2642 2372 2373 2382 2381 
2634 2635 2644 2643 2373 2374 2383 2382 
2635 2636 2645 2644 2374 2375 2384 2383 
2636 2637 2646 2645 2375 2376 2385 2384 
2637 2638 2647 2646 2376 2377 2386 2385 
2638 1138 1139 2647 2377 1109 1110 2386 
878 2639 2648 879 849 2378 2387 850 
2639 2640 2649 2648 2378 2379 2388 2387 
2640 2641 2650 2649 2379 2380 2389 2388 
2641 2642 2651 2650 2380 2381 2390 2389 
2642 2643 2652 2651 2381 2382 2391 2390 
2643 2644 2653 2652 2382 2383 2392 2391 
2644 2645 2654 2653 2383 2384 2393 2392 
2645 2646 2655 2654 2384 2385 2394 2393 
2646 2647 2656 2655 2385 2386 2395 2394 
2647 1139 1140 2656 2386 1110 1111 2395 
879 2648 2657 880 850 2387 2396 851 
2648 2649 2658 2657 2387 2388 2397 2396 
2649 2650 2659 2658 2388 2389 2398 2397 
2650 2651 2660 2659 2389 2390 2399 2398 
2651 2652 2661 2660 2390 2391 2400 2399 
2652 2653 2662 2661 2391 2392 2401 2400 
2653 2654 2663 2662 2392 2393 2402 2401 
2654 2655 2664 2663 2393 2394 2403 2402 
2655 2656 2665 2664 2394 2395 2404 2403 
2656 1140 1141 2665 2395 1111 1112 2404 
880 2657 1415 166 851 2396 1406 165 
2657 2658 1416 1415 2396 2397 1407 1406 
2658 2659 1417 1416 2397 2398 1408 1407 
2659 2660 1418 1417 2398 2399 1409 1408 
2660 2661 1419 1418 2399 2400 1410 1409 
2661 2662 1420 1419 2400 2401 1411 1410 
2662 2663 1421 1420 2401 2402 1412 1411 
2663 2664 1422 1421 2402 2403 1413 1412 
2664 2665 1423 1422 2403 2404 1414 1413 
2665 1141 188 1423 2404 1112 189 1414 
178 1343 2666 881 179 1334 2405 852 
1343 1344 2667 2666 1334 1335 2406 2405 
1344 1345 2668 2667 1335 1336 2407 2406 
1345 1346 2669 2668 1336 1337 2408 2407 
1346 1347 2670 2669 1337 1338 2409 2408 
1347 1348 2671 2670 1338 1339 2410 2409 
1348 1349 2672 2671 1339 1340 2411 2410 
1349 1350 2673 2672 1340 1341 2412 2411 
1350 1351 2674 2673 1341 1342 2413 2412 
1351 194 1142 2674 1342 193 1113 2413 
881 2666 2675 882 852 2405 2414 853 
2666 2667 2676 2675 2405 2406 2415 2414 
2667 2668 2677 2676 2406 2407 2416 2415 
2668 2669 2678 2677 2407 2408 2417 2416 
2669 2670 2679 2678 2408 2409 2418 2417 
2670 2671 2680 2679 2409 2410 2419 2418 
2671 2672 2681 2680 2410 2411 2420 2419 
2672 2673 2682 2681 2411 2412 2421 2420 
2673 2674 2683 2682 2412 2413 2422 2421 
2674 1142 1143 2683 2413 1113 1114 2422 
882 2675 2684 883 853 2414 2423 854 
2675 2676 2685 2684 2414 2415 2424 2423 
2676 2677 2686 2685 2415 2416 2425 2424 
2677 2678 2687 2686 2416 2417 2426 2425 
2678 2679 2688 2687 2417 2418 2427 2426 
2679 2680 2689 2688 2418 2419 2428 2427 
2680 2681 2690 2689 2419 2420 2429 2428 
2681 2682 2691 2690 2420 2421 2430 2429 
2682 2683 2692 2691 2421 2422 2431 2430 
2683 1143 1144 2692 2422 1114 1115 2431 
883 2684 2693 884 854 2423 2432 855 
2684 2685 2694 2693 2423 2424 2433 2432 
2685 2686 2695 2694 2424 2425 2434 2433 
2686 2687 2696 2695 2425 2426 2435 2434 
2687 2688 2697 2696 2426 2427 2436 2435 
2688 2689 2698 2697 2427 2428 2437 2436 
2689 2690 2699 2698 2428 2429 2438 2437 
2690 2691 2700 2699 2429 2430 2439 2438 
2691 2692 2701 2700 2430 2431 2440 2439 
2692 1144 1145 2701 2431 1115 1116 2440 
884 2693 2702 885 855 2432 2441 856 
2693 2694 2703 2702 2432 2433 2442 2441 
2694 2695 2704 2703 2433 2434 2443 2442 
2695 2696 2705 2704 2434 2435 2444 2443 
2696 2697 2706 2705 2435 2436 2445 2444 
2697 2698 2707 2706 2436 2437 2446 2445 
2698 2699 2708 2707 2437 2438 2447 2446 
2699 2700 2709 2708 2438 2439 2448 2447 
2700 2701 2710 2709 2439 2440 2449 2448 
2701 1145 1146 2710 2440 1116 1117 2449 
885 2702 2711 886 856 2441 2450 857 
2702 2703 2712 2711 2441 2442 2451 2450 
2703 2704 2713 2712 2442 2443 2452 2451 
2704 2705 2714 2713 2443 2444 2453 2452 
2705 2706 2715 2714 2444 2445 2454 2453 
2706 2707 2716 2715 2445 2446 2455 2454 
2707 2708 2717 2716 2446 2447 2456 2455 
2708 2709 2718 2717 2447 2448 2457 2456 
2709 2710 2719 2718 2448 2449 2458 2457 
2710 1146 1147 2719 2449 1117 1118 2458 
886 2711 2720 887 857 2450 2459 858 
2711 2712 2721 2720 2450 2451 2460 2459 
2712 2713 2722 2721 2451 2452 2461 2460 
2713 2714 2723 2722 2452 2453 2462 2461 
2714 2715 2724 2723 2453 2454 2463 2462 
2715 2716 2725 2724 2454 2455 2464 2463 
2716 2717 2726 2725 2455 2456 2465 2464 
2717 2718 2727 2726 2456 2457 2466 2465 
2718 2719 2728 2727 2457 2458 2467 2466 
2719 1147 1148 2728 2458 1118 1119 2467 
887 2720 2729 888 858 2459 2468 859 
2720 2721 2730 2729 2459 2460 2469 2468 
2721 2722 2731 2730 2460 2461 2470 2469 
2722 2723 2732 2731 2461 2462 2471 2470 
2723 2724 2733 2732 2462 2463 2472 2471 
2724 2725 2734 2733 2463 2464 2473 2472 
2725 2726 2735 2734 2464 2465 2474 2473 
2726 2727 2736 2735 2465 2466 2475 2474 
2727 2728 2737 2736 2466 2467 2476 2475 
2728 1148 1149 2737 2467 1119 1120 2476 
888 2729 2738 889 859 2468 2477 860 
2729 2730 2739 2738 2468 2469 2478 2477 
2730 2731 2740 2739 2469 2470 2479 2478 
2731 2732 2741 2740 2470 2471 2480 2479 
2732 2733 2742 2741 2471 2472 2481 2480 
2733 2734 2743 2742 2472 2473 2482 2481 
2734 2735 2744 2743 2473 2474 2483 2482 
2735 2736 2745 2744 2474 2475 2484 2483 
2736 2737 2746 2745 2475 2476 2485 2484 
2737 1149 1150 2746 2476 1120 1121 2485 
889 2738 2747 890 860 2477 2486 861 
2738 2739 2748 2747 2477 2478 2487 2486 
2739 2740 2749 2748 2478 2479 2488 2487 
2740 2741 2750 2749 2479 2480 2489 2488 
2741 2742 2751 2750 2480 2481 2490 2489 
2742 2743 2752 2751 2481 2482 2491 2490 
2743 2744 2753 2752 2482 2483 2492 2491 
2744 2745 2754 2753 2483 2484 2493 2492 
2745 2746 2755 2754 2484 2485 2494 2493 
2746 1150 1151 2755 2485 1121 1122 2494 
890 2747 2756 891 861 2486 2495 862 
2747 2748 2757 2756 2486 2487 2496 2495 
2748 2749 2758 2757 2487 2488 2497 2496 
2749 2750 2759 2758 2488 2489 2498 2497 
2750 2751 2760 2759 2489 2490 2499 2498 
2751 2752 2761 2760 2490 2491 2500 2499 
2752 2753 2762 2761 2491 2492 2501 2500 
2753 2754 2763 2762 2492 2493 2502 2501 
2754 2755 2764 2763 2493 2494 2503 2502 
2755 1151 1152 2764 2494 1122 1123 2503 
891 2756 2765 892 862 2495 2504 863 
2756 2757 2766 2765 2495 2496 2505 2504 
2757 2758 2767 2766 2496 2497 2506 2505 
2758 2759 2768 2767 2497 2498 2507 2506 
2759 2760 2769 2768 2498 2499 2508 2507 
2760 2761 2770 2769 2499 2500 2509 2508 
2761 2762 2771 2770 2500 2501 2510 2509 
2762 2763 2772 2771 2501 2502 2511 2510 
2763 2764 2773 2772 2502 2503 2512 2511 
2764 1152 1153 2773 2503 1123 1124 2512 
892 2765 2774 893 863 2504 2513 864 
2765 2766 2775 2774 2504 2505 2514 2513 
2766 2767 2776 2775 2505 2506 2515 2514 
2767 2768 2777 2776 2506 2507 2516 2515 
2768 2769 2778 2777 2507 2508 2517 2516 
2769 2770 2779 2778 2508 2509 2518 2517 
2770 2771 2780 2779 2509 2510 2519 2518 
2771 2772 2781 2780 2510 2511 2520 2519 
2772 2773 2782 2781 2511 2512 2521 2520 
2773 1153 1154 2782 2512 1124 1125 2521 
893 2774 2783 894 864 2513 2522 865 
2774 2775 2784 2783 2513 2514 2523 2522 
2775 2776 2785 2784 2514 2515 2524 2523 
2776 2777 2786 2785 2515 2516 2525 2524 
2777 2778 2787 2786 2516 2517 2526 2525 
2778 2779 2788 2787 2517 2518 2527 2526 
2779 2780 2789 2788 2518 2519 2528 2527 
2780 2781 2790 2789 2519 2520 2529 2528 
2781 2782 2791 2790 2520 2521 2530 2529 
2782 1154 1155 2791 2521 1125 1126 2530 
894 2783 2792 895 865 2522 2531 866 
2783 2784 2793 2792 2522 2523 2532 2531 
2784 2785 2794 2793 2523 2524 2533 2532 
2785 2786 2795 2794 2524 2525 2534 2533 
2786 2787 2796 2795 2525 2526 2535 2534 
2787 2788 2797 2796 2526 2527 2536 2535 
2788 2789 2798 2797 2527 2528 2537 2536 
2789 2790 2799 2798 2528 2529 2538 2537 
2790 2791 2800 2799 2529 2530 2539 2538 
2791 1155 1156 2800 2530 1126 1127 2539 
895 2792 2801 896 866 2531 2540 867 
2792 2793 2802 2801 2531 2532 2541 2540 
2793 2794 2803 2802 2532 2533 2542 2541 
2794 2795 2804 2803 2533 2534 2543 2542 
2795 2796 2805 2804 2534 2535 2544 2543 
2796 2797 2806 2805 2535 2536 2545 2544 
2797 2798 2807 2806 2536 2537 2546 2545 
2798 2799 2808 2807 2537 2538 2547 2546 
2799 2800 2809 2808 2538 2539 2548 2547 
2800 1156 1157 2809 2539 1127 1128 2548 
896 2801 2810 897 867 2540 2549 868 
2801 2802 2811 2810 2540 2541 2550 2549 
2802 2803 2812 2811 2541 2542 2551 2550 
2803 2804 2813 2812 2542 2543 2552 2551 
2804 2805 2814 2813 2543 2544 2553 2552 
2805 2806 2815 2814 2544 2545 2554 2553 
2806 2807 2816 2815 2545 2546 2555 2554 
2807 2808 2817 2816 2546 2547 2556 2555 
2808 2809 2818 2817 2547 2548 2557 2556 
2809 1157 1158 2818 2548 1128 1129 2557 
897 2810 2819 898 868 2549 2558 869 
2810 2811 2820 2819 2549 2550 2559 2558 
2811 2812 2821 2820 2550 2551 2560 2559 
2812 2813 2822 2821 2551 2552 2561 2560 
2813 2814 2823 2822 2552 2553 2562 2561 
2814 2815 2824 2823 2553 2554 2563 2562 
2815 2816 2825 2824 2554 2555 2564 2563 
2816 2817 2826 2825 2555 2556 2565 2564 
2817 2818 2827 2826 2556 2557 2566 2565 
2818 1158 1159 2827 2557 1129 1130 2566 
898 2819 2828 899 869 2558 2567 870 
2819 2820 2829 2828 2558 2559 2568 2567 
2820 2821 2830 2829 2559 2560 2569 2568 
2821 2822 2831 2830 2560 2561 2570 2569 
2822 2823 2832 2831 2561 2562 2571 2570 
2823 2824 2833 2832 2562 2563 2572 2571 
2824 2825 2834 2833 2563 2564 2573 2572 
2825 2826 2835 2834 2564 2565 2574 2573 
2826 2827 2836 2835 2565 2566 2575 2574 
2827 1159 1160 2836 2566 1130 1131 2575 
899 2828 2837 900 870 2567 2576 871 
2828 2829 2838 2837 2567 2568 2577 2576 
2829 2830 2839 2838 2568 2569 2578 2577 
2830 2831 2840 2839 2569 2570 2579 2578 
2831 2832 2841 2840 2570 2571 2580 2579 
2832 2833 2842 2841 2571 2572 2581 2580 
2833 2834 2843 2842 2572 2573 2582 2581 
2834 2835 2844 2843 2573 2574 2583 2582 
2835 2836 2845 2844 2574 2575 2584 2583 
2836 1160 1161 2845 2575 1131 1132 2584 
900 2837 2846 901 871 2576 2585 872 
2837 2838 2847 2846 2576 2577 2586 2585 
2838 2839 2848 2847 2577 2578 2587 2586 
2839 2840 2849 2848 2578 2579 2588 2587 
2840 2841 2850 2849 2579 2580 2589 2588 
2841 2842 2851 2850 2580 2581 2590 2589 
2842 2843 2852 2851 2581 2582 2591 2590 
2843 2844 2853 2852 2582 2583 2592 2591 
2844 2845 2854 2853 2583 2584 2593 2592 
2845 1161 1162 2854 2584 1132 1133 2593 
901 2846 2855 902 872 2585 2594 873 
2846 2847 2856 2855 2585 2586 2595 2594 
2847 2848 2857 2856 2586 2587 2596 2595 
2848 2849 2858 2857 2587 2588 2597 2596 
2849 2850 2859 2858 2588 2589 2598 2597 
2850 2851 2860 2859 2589 2590 2599 2598 
2851 2852 2861 2860 2590 2591 2600 2599 
2852 2853 2862 2861 2591 2592 2601 2600 
2853 2854 2863 2862 2592 2593 2602 2601 
2854 1162 1163 2863 2593 1133 1134 2602 
902 2855 2864 903 873 2594 2603 874 
2855 2856 2865 2864 2594 2595 2604 2603 
2856 2857 2866 2865 2595 2596 2605 2604 
2857 2858 2867 2866 2596 2597 2606 2605 
2858 2859 2868 2867 2597 2598 2607 2606 
2859 2860 2869 2868 2598 2599 2608 2607 
2860 2861 2870 2869 2599 2600 2609 2608 
2861 2862 2871 2870 2600 2601 2610 2609 
2862 2863 2872 2871 2601 2602 2611 2610 
2863 1163 1164 2872 2602 1134 1135 2611 
903 2864 2873 904 874 2603 2612 875 
2864 2865 2874 2873 2603 2604 2613 2612 
2865 2866 2875 2874 2604 2605 2614 2613 
2866 2867 2876 2875 2605 2606 2615 2614 
2867 2868 2877 2876 2606 2607 2616 2615 
2868 2869 2878 2877 2607 2608 2617 2616 
2869 2870 2879 2878 2608 2609 2618 2617 
2870 2871 2880 2879 2609 2610 2619 2618 
2871 2872 2881 2880 2610 2611 2620 2619 
2872 1164 1165 2881 2611 1135 1136 2620 
904 2873 2882 905 875 2612 2621 876 
2873 2874 2883 2882 2612 2613 2622 2621 
2874 2875 2884 2883 2613 2614 2623 2622 
2875 2876 2885 2884 2614 2615 2624 2623 
2876 2877 2886 2885 2615 2616 2625 2624 
2877 2878 2887 2886 2616 2617 2626 2625 
2878 2879 2888 2887 2617 2618 2627 2626 
2879 2880 2889 2888 2618 2619 2628 2627 
2880 2881 2890 2889 2619 2620 2629 2628 
2881 1165 1166 2890 2620 1136 1137 2629 
905 2882 2891 906 876 2621 2630 877 
2882 2883 2892 2891 2621 2622 2631 2630 
2883 2884 2893 2892 2622 2623 2632 2631 
2884 2885 2894 2893 2623 2624 2633 2632 
2885 2886 2895 2894 2624 2625 2634 2633 
2886 2887 2896 2895 2625 2626 2635 2634 
2887 2888 2897 2896 2626 2627 2636 2635 
2888 2889 2898 2897 2627 2628 2637 2636 
2889 2890 2899 2898 2628 2629 2638 2637 
2890 1166 1167 2899 2629 1137 1138 2638 
906 2891 2900 907 877 2630 2639 878 
2891 2892 2901 2900 2630 2631 2640 2639 
2892 2893 2902 2901 2631 2632 2641 2640 
2893 2894 2903 2902 2632 2633 2642 2641 
2894 2895 2904 2903 2633 2634 2643 2642 
2895 2896 2905 2904 2634 2635 2644 2643 
2896 2897 2906 2905 2635 2636 2645 2644 
2897 2898 2907 2906 2636 2637 2646 2645 
2898 2899 2908 2907 2637 2638 2647 2646 
2899 1167 1168 2908 2638 1138 1139 2647 
907 2900 2909 908 878 2639 2648 879 
2900 2901 2910 2909 2639 2640 2649 2648 
2901 2902 2911 2910 2640 2641 2650 2649 
2902 2903 2912 2911 2641 2642 2651 2650 
2903 2904 2913 2912 2642 2643 2652 2651 
2904 2905 2914 2913 2643 2644 2653 2652 
2905 2906 2915 2914 2644 2645 2654 2653 
2906 2907 2916 2915 2645 2646 2655 2654 
2907 2908 2917 2916 2646 2647 2656 2655 
2908 1168 1169 2917 2647 1139 1140 2656 
908 2909 2918 909 879 2648 2657 880 
2909 2910 2919 2918 2648 2649 2658 2657 
2910 2911 2920 2919 2649 2650 2659 2658 
2911 2912 2921 2920 2650 2651 2660 2659 
2912 2913 2922 2921 2651 2652 2661 2660 
2913 2914 2923 2922 2652 2653 2662 2661 
2914 2915 2924 2923 2653 2654 2663 2662 
2915 2916 2925 2924 2654 2655 2664 2663 
2916 2917 2926 2925 2655 2656 2665 2664 
2917 1169 1170 2926 2656 1140 1141 2665 
909 2918 1424 167 880 2657 1415 166 
2918 2919 1425 1424 2657 2658 1416 1415 
2919 2920 1426 1425 2658 2659 1417 1416 
2920 2921 1427 1426 2659 2660 1418 1417 
2921 2922 1428 1427 2660 2661 1419 1418 
2922 2923 1429 1428 2661 2662 1420 1419 
2923 2924 1430 1429 2662 2663 1421 1420 
2924 2925 1431 1430 2663 2664 1422 1421 
2925 2926 1432 1431 2664 2665 1423 1422 
2926 1170 187 1432 2665 1141 188 1423 
177 1352 2927 910 178 1343 2666 881 
1352 1353 2928 2927 1343 1344 2667 2666 
1353 1354 2929 2928 1344 1345 2668 2667 
1354 1355 2930 2929 1345 1346 2669 2668 
1355 1356 2931 2930 1346 1347 2670 2669 
1356 1357 2932 2931 1347 1348 2671 2670 
1357 1358 2933 2932 1348 1349 2672 2671 
1358 1359 2934 2933 1349 1350 2673 2672 
1359 1360 2935 2934 1350 1351 2674 2673 
1360 195 1171 2935 1351 194 1142 2674 
910 2927 2936 911 881 2666 2675 882 
2927 2928 2937 2936 2666 2667 2676 2675 
2928 2929 2938 2937 2667 2668 2677 2676 
2929 2930 2939 2938 2668 2669 2678 2677 
2930 2931 2940 2939 2669 2670 2679 2678 
2931 2932 2941 2940 2670 2671 2680 2679 
2932 2933 2942 2941 2671 2672 2681 2680 
2933 2934 2943 2942 2672 2673 2682 2681 
2934 2935 2944 2943 2673 2674 2683 2682 
2935 1171 1172 2944 2674 1142 1143 2683 
911 2936 2945 912 882 2675 2684 883 
2936 2937 2946 2945 2675 2676 2685 2684 
2937 2938 2947 2946 2676 2677 2686 2685 
2938 2939 2948 2947 2677 2678 2687 2686 
2939 2940 2949 2948 2678 2679 2688 2687 
2940 2941 2950 2949 2679 2680 2689 2688 
2941 2942 2951 2950 2680 2681 2690 2689 
2942 2943 2952 2951 2681 2682 2691 2690 
2943 2944 2953 2952 2682 2683 2692 2691 
2944 1172 1173 2953 2683 1143 1144 2692 
912 2945 2954 913 883 2684 2693 884 
2945 2946 2955 2954 2684 2685 2694 2693 
2946 2947 2956 2955 2685 2686 2695 2694 
2947 2948 2957 2956 2686 2687 2696 2695 
2948 2949 2958 2957 2687 2688 2697 2696 
2949 2950 2959 2958 2688 2689 2698 2697 
2950 2951 2960 2959 2689 2690 2699 2698 
2951 2952 2961 2960 2690 2691 2700 2699 
2952 2953 2962 2961 2691 2692 2701 2700 
2953 1173 1174 2962 2692 1144 1145 2701 
913 2954 2963 914 884 2693 2702 885 
2954 2955 2964 2963 2693 2694 2703 2702 
2955 2956 2965 2964 2694 2695 2704 2703 
2956 2957 2966 2965 2695 2696 2705 2704 
2957 2958 2967 2966 2696 2697 2706 2705 
2958 2959 2968 2967 2697 2698 2707 2706 
2959 2960 2969 2968 2698 2699 2708 2707 
2960 2961 2970 2969 2699 2700 2709 2708 
2961 2962 2971 2970 2700 2701 2710 2709 
2962 1174 1175 2971 2701 1145 1146 2710 
914 2963 2972 915 885 2702 2711 886 
2963 2964 2973 2972 2702 2703 2712 2711 
2964 2965 2974 2973 2703 2704 2713 2712 
2965 2966 2975 2974 2704 2705 2714 2713 
2966 2967 2976 2975 2705 2706 2715 2714 
2967 2968 2977 2976 2706 2707 2716 2715 
2968 2969 2978 2977 2707 2708 2717 2716 
2969 2970 2979 2978 2708 2709 2718 2717 
2970 2971 2980 2979 2709 2710 2719 2718 
2971 1175 1176 2980 2710 1146 1147 2719 
915 2972 2981 916 886 2711 2720 887 
2972 2973 2982 2981 2711 2712 2721 2720 
2973 2974 2983 2982 2712 2713 2722 2721 
2974 2975 2984 2983 2713 2714 2723 2722 
2975 2976 2985 2984 2714 2715 2724 2723 
2976 2977 2986 2985 2715 2716 2725 2724 
2977 2978 2987 2986 2716 2717 2726 2725 
2978 2979 2988 2987 2717 2718 2727 2726 
2979 2980 2989 2988 2718 2719 2728 2727 
2980 1176 1177 2989 2719 1147 1148 2728 
916 2981 2990 917 887 2720 2729 888 
2981 2982 2991 2990 2720 2721 2730 2729 
2982 2983 2992 2991 2721 2722 2731 2730 
2983 2984 2993 2992 2722 2723 2732 2731 
2984 2985 2994 2993 2723 2724 2733 2732 
2985 2986 2995 2994 2724 2725 2734 2733 
2986 2987 2996 2995 2725 2726 2735 2734 
2987 2988 2997 2996 2726 2727 2736 2735 
2988 2989 2998 2997 2727 2728 2737 2736 
2989 1177 1178 2998 2728 1148 1149 2737 
917 2990 2999 918 888 2729 2738 889 
2990 2991 3000 2999 2729 2730 2739 2738 
2991 2992 3001 3000 2730 2731 2740 2739 
2992 2993 3002 3001 2731 2732 2741 2740 
2993 2994 3003 3002 2732 2733 2742 2741 
2994 2995 3004 3003 2733 2734 2743 2742 
2995 2996 3005 3004 2734 2735 2744 2743 
2996 2997 3006 3005 2735 2736 2745 2744 
2997 2998 3007 3006 2736 2737 2746 2745 
2998 1178 1179 3007 2737 1149 1150 2746 
918 2999 3008 919 889 2738 2747 890 
2999 3000 3009 3008 2738 2739 2748 2747 
3000 3001 3010 3009 2739 2740 2749 2748 
3001 3002 3011 3010 2740 2741 2750 2749 
3002 3003 3012 3011 2741 2742 2751 2750 
3003 3004 3013 3012 2742 2743 2752 2751 
3004 3005 3014 3013 2743 2744 2753 2752 
3005 3006 3015 3014 2744 2745 2754 2753 
3006 3007 3016 3015 2745 2746 2755 2754 
3007 1179 1180 3016 2746 1150 1151 2755 
919 3008 3017 920 890 2747 2756 891 
3008 3009 3018 3017 2747 2748 2757 2756 
3009 3010 3019 3018 2748 2749 2758 2757 
3010 3011 3020 3019 2749 2750 2759 2758 
3011 3012 3021 3020 2750 2751 2760 2759 
3012 3013 3022 3021 2751 2752 2761 2760 
3013 3014 3023 3022 2752 2753 2762 2761 
3014 3015 3024 3023 2753 2754 2763 2762 
3015 3016 3025 3024 2754 2755 2764 2763 
3016 1180 1181 3025 2755 1151 1152 2764 
920 3017 3026 921 891 2756 2765 892 
3017 3018 3027 3026 2756 2757 2766 2765 
3018 3019 3028 3027 2757 2758 2767 2766 
3019 3020 3029 3028 2758 2759 2768 2767 
3020 3021 3030 3029 2759 2760 2769 2768 
3021 3022 3031 3030 2760 2761 2770 2769 
3022 3023 3032 3031 2761 2762 2771 2770 
3023 3024 3033 3032 2762 2763 2772 2771 
3024 3025 3034 3033 2763 2764 2773 2772 
3025 1181 1182 3034 2764 1152 1153 2773 
921 3026 3035 922 892 2765 2774 893 
3026 3027 3036 3035 2765 2766 2775 2774 
3027 3028 3037 3036 2766 2767 2776 2775 
3028 3029 3038 3037 2767 2768 2777 2776 
3029 3030 3039 3038 2768 2769 2778 2777 
3030 3031 3040 3039 2769 2770 2779 2778 
3031 3032 3041 3040 2770 2771 2780 2779 
3032 3033 3042 3041 2771 2772 2781 2780 
3033 3034 3043 3042 2772 2773 2782 2781 
3034 1182 1183 3043 2773 1153 1154 2782 
922 3035 3044 923 893 2774 2783 894 
3035 3036 3045 3044 2774 2775 2784 2783 
3036 3037 3046 3045 2775 2776 2785 2784 
3037 3038 3047 3046 2776 2777 2786 2785 
3038 3039 3048 3047 2777 2778 2787 2786 
3039 3040 3049 3048 2778 2779 2788 2787 
3040 3041 3050 3049 2779 2780 2789 2788 
3041 3042 3051 3050 2780 2781 2790 2789 
3042 3043 3052 3051 2781 2782 2791 2790 
3043 1183 1184 3052 2782 1154 1155 2791 
923 3044 3053 924 894 2783 2792 895 
3044 3045 3054 3053 2783 2784 2793 2792 
3045 3046 3055 3054 2784 2785 2794 2793 
3046 3047 3056 3055 2785 2786 2795 2794 
3047 3048 3057 3056 2786 2787 2796 2795 
3048 3049 3058 3057 2787 2788 2797 2796 
3049 3050 3059 3058 2788 2789 2798 2797 
3050 3051 3060 3059 2789 2790 2799 2798 
3051 3052 3061 3060 2790 2791 2800 2799 
3052 1184 1185 3061 2791 1155 1156 2800 
924 3053 3062 925 895 2792 2801 896 
3053 3054 3063 3062 2792 2793 2802 2801 
3054 3055 3064 3063 2793 2794 2803 2802 
3055 3056 3065 3064 2794 2795 2804 2803 
3056 3057 3066 3065 2795 2796 2805 2804 
3057 3058 3067 3066 2796 2797 2806 2805 
3058 3059 3068 3067 2797 2798 2807 2806 
3059 3060 3069 3068 2798 2799 2808 2807 
3060 3061 3070 3069 2799 2800 2809 2808 
3061 1185 1186 3070 2800 1156 1157 2809 
925 3062 3071 926 896 2801 2810 897 
3062 3063 3072 3071 2801 2802 2811 2810 
3063 3064 3073 3072 2802 2803 2812 2811 
3064 3065 3074 3073 2803 2804 2813 2812 
3065 3066 3075 3074 2804 2805 2814 2813 
3066 3067 3076 3075 2805 2806 2815 2814 
3067 3068 3077 3076 2806 2807 2816 2815 
3068 3069 3078 3077 2807 2808 2817 2816 
3069 3070 3079 3078 2808 2809 2818 2817 
3070 1186 1187 3079 2809 1157 1158 2818 
926 3071 3080 927 897 2810 2819 898 
3071 3072 3081 3080 2810 2811 2820 2819 
3072 3073 3082 3081 2811 2812 2821 2820 
3073 3074 3083 3082 2812 2813 2822 2821 
3074 3075 3084 3083 2813 2814 2823 2822 
3075 3076 3085 3084 2814 2815 2824 2823 
3076 3077 3086 3085 2815 2816 2825 2824 
3077 3078 3087 3086 2816 2817 2826 2825 
3078 3079 3088 3087 2817 2818 2827 2826 
3079 1187 1188 3088 2818 1158 1159 2827 
927 3080 3089 928 898 2819 2828 899 
3080 3081 3090 3089 2819 2820 2829 2828 
3081 3082 3091 3090 2820 2821 2830 2829 
3082 3083 3092 3091 2821 2822 2831 2830 
3083 3084 3093 3092 2822 2823 2832 2831 
3084 3085 3094 3093 2823 2824 2833 2832 
3085 3086 3095 3094 2824 2825 2834 2833 
3086 3087 3096 3095 2825 2826 2835 2834 
3087 3088 3097 3096 2826 2827 2836 2835 
3088 1188 1189 3097 2827 1159 1160 2836 
928 3089 3098 929 899 2828 2837 900 
3089 3090 3099 3098 2828 2829 2838 2837 
3090 3091 3100 3099 2829 2830 2839 2838 
3091 3092 3101 3100 2830 2831 2840 2839 
3092 3093 3102 3101 2831 2832 2841 2840 
3093 3094 3103 3102 2832 2833 2842 2841 
3094 3095 3104 3103 2833 2834 2843 2842 
3095 3096 3105 3104 2834 2835 2844 2843 
3096 3097 3106 3105 2835 2836 2845 2844 
3097 1189 1190 3106 2836 1160 1161 2845 
929 3098 3107 930 900 2837 2846 901 
3098 3099 3108 3107 2837 2838 2847 2846 
3099 3100 3109 3108 2838 2839 2848 2847 
3100 3101 3110 3109 2839 2840 2849 2848 
3101 3102 3111 3110 2840 2841 2850 2849 
3102 3103 3112 3111 2841 2842 2851 2850 
3103 3104 3113 3112 2842 2843 2852 2851 
3104 3105 3114 3113 2843 2844 2853 2852 
3105 3106 3115 3114 2844 2845 2854 2853 
3106 1190 1191 3115 2845 1161 1162 2854 
930 3107 3116 931 901 2846 2855 902 
3107 3108 3117 3116 2846 2847 2856 2855 
3108 3109 3118 3117 2847 2848 2857 2856 
3109 3110 3119 3118 2848 2849 2858 2857 
3110 3111 3120 3119 2849 2850 2859 2858 
3111 3112 3121 3120 2850 2851 2860 2859 
3112 3113 3122 3121 2851 2852 2861 2860 
3113 3114 3123 3122 2852 2853 2862 2861 
3114 3115 3124 3123 2853 2854 2863 2862 
3115 1191 1192 3124 2854 1162 1163 2863 
931 3116 3125 932 902 2855 2864 903 
3116 3117 3126 3125 2855 2856 2865 2864 
3117 3118 3127 3126 2856 2857 2866 2865 
3118 3119 3128 3127 2857 2858 2867 2866 
3119 3120 3129 3128 2858 2859 2868 2867 
3120 3121 3130 3129 2859 2860 2869 2868 
3121 3122 3131 3130 2860 2861 2870 2869 
3122 3123 3132 3131 2861 2862 2871 2870 
3123 3124 3133 3132 2862 2863 2872 2871 
3124 1192 1193 3133 2863 1163 1164 2872 
932 3125 3134 933 903 2864 2873 904 
3125 3126 3135 3134 2864 2865 2874 2873 
3126 3127 3136 3135 2865 2866 2875 2874 
3127 3128 3137 3136 2866 2867 2876 2875 
3128 3129 3138 3137 2867 2868 2877 2876 
3129 3130 3139 3138 2868 2869 2878 2877 
3130 3131 3140 3139 2869 2870 2879 2878 
3131 3132 3141 3140 2870 2871 2880 2879 
3132 3133 3142 3141 2871 2872 2881 2880 
3133 1193 1194 3142 2872 1164 1165 2881 
933 3134 3143 934 904 2873 2882 905 
3134 3135 3144 3143 2873 2874 2883 2882 
3135 3136 3145 3144 2874 2875 2884 2883 
3136 3137 3146 3145 2875 2876 2885 2884 
3137 3138 3147 3146 2876 2877 2886 2885 
3138 3139 3148 3147 2877 2878 2887 2886 
3139 3140 3149 3148 2878 2879 2888 2887 
3140 3141 3150 3149 2879 2880 2889 2888 
3141 3142 3151 3150 2880 2881 2890 2889 
3142 1194 1195 3151 2881 1165 1166 2890 
934 3143 3152 935 905 2882 2891 906 
3143 3144 3153 3152 2882 2883 2892 2891 
3144 3145 3154 3153 2883 2884 2893 2892 
3145 3146 3155 3154 2884 2885 2894 2893 
3146 3147 3156 3155 2885 2886 2895 2894 
3147 3148 3157 3156 2886 2887 2896 2895 
3148 3149 3158 3157 2887 2888 2897 2896 
3149 3150 3159 3158 2888 2889 2898 2897 
3150 3151 3160 3159 2889 2890 2899 2898 
3151 1195 1196 3160 2890 1166 1167 2899 
935 3152 3161 936 906 2891 2900 907 
3152 3153 3162 3161 2891 2892 2901 2900 
3153 3154 3163 3162 2892 2893 2902 2901 
3154 3155 3164 3163 2893 2894 2903 2902 
3155 3156 3165 3164 2894 2895 2904 2903 
3156 3157 3166 3165 2895 2896 2905 2904 
3157 3158 3167 3166 2896 2897 2906 2905 
3158 3159 3168 3167 2897 2898 2907 2906 
3159 3160 3169 3168 2898 2899 2908 2907 
3160 1196 1197 3169 2899 1167 1168 2908 
936 3161 3170 937 907 2900 2909 908 
3161 3162 3171 3170 2900 2901 2910 2909 
3162 3163 3172 3171 2901 2902 2911 2910 
3163 3164 3173 3172 2902 2903 2912 2911 
3164 3165 3174 3173 2903 2904 2913 2912 
3165 3166 3175 3174 2904 2905 2914 2913 
3166 3167 3176 3175 2905 2906 2915 2914 
3167 3168 3177 3176 2906 2907 2916 2915 
3168 3169 3178 3177 2907 2908 2917 2916 
3169 1197 1198 3178 2908 1168 1169 2917 
937 3170 3179 938 908 2909 2918 909 
3170 3171 3180 3179 2909 2910 2919 2918 
3171 3172 3181 3180 2910 2911 2920 2919 
3172 3173 3182 3181 2911 2912 2921 2920 
3173 3174 3183 3182 2912 2913 2922 2921 
3174 3175 3184 3183 2913 2914 2923 2922 
3175 3176 3185 3184 2914 2915 2924 2923 
3176 3177 3186 3185 2915 2916 2925 2924 
3177 3178 3187 3186 2916 2917 2926 2925 
3178 1198 1199 3187 2917 1169 1170 2926 
938 3179 1433 168 909 2918 1424 167 
3179 3180 1434 1433 2918 2919 1425 1424 
3180 3181 1435 1434 2919 2920 1426 1425 
3181 3182 1436 1435 2920 2921 1427 1426 
3182 3183 1437 1436 2921 2922 1428 1427 
3183 3184 1438 1437 2922 2923 1429 1428 
3184 3185 1439 1438 2923 2924 1430 1429 
3185 3186 1440 1439 2924 2925 1431 1430 
3186 3187 1441 1440 2925 2926 1432 1431 
3187 1199 186 1441 2926 1170 187 1432 
176 1361 3188 939 177 1352 2927 910 
1361 1362 3189 3188 1352 1353 2928 2927 
1362 1363 3190 3189 1353 1354 2929 2928 
1363 1364 3191 3190 1354 1355 2930 2929 
1364 1365 3192 3191 1355 1356 2931 2930 
1365 1366 3193 3192 1356 1357 2932 2931 
1366 1367 3194 3193 1357 1358 2933 2932 
1367 1368 3195 3194 1358 1359 2934 2933 
1368 1369 3196 3195 1359 1360 2935 2934 
1369 196 1200 3196 1360 195 1171 2935 
939 3188 3197 940 910 2927 2936 911 
3188 3189 3198 3197 2927 2928 2937 2936 
3189 3190 3199 3198 2928 2929 2938 2937 
3190 3191 3200 3199 2929 2930 2939 2938 
3191 3192 3201 3200 2930 2931 2940 2939 
3192 3193 3202 3201 2931 2932 2941 2940 
3193 3194 3203 3202 2932 2933 2942 2941 
3194 3195 3204 3203 2933 2934 2943 2942 
3195 3196 3205 3204 2934 2935 2944 2943 
3196 1200 1201 3205 2935 1171 1172 2944 
940 3197 3206 941 911 2936 2945 912 
3197 3198 3207 3206 2936 2937 2946 2945 
3198 3199 3208 3207 2937 2938 2947 2946 
3199 3200 3209 3208 2938 2939 2948 2947 
3200 3201 3210 3209 2939 2940 2949 2948 
3201 3202 3211 3210 2940 2941 2950 2949 
3202 3203 3212 3211 2941 2942 2951 2950 
3203 3204 3213 3212 2942 2943 2952 2951 
3204 3205 3214 3213 2943 2944 2953 2952 
3205 1201 1202 3214 2944 1172 1173 2953 
941 3206 3215 942 912 2945 2954 913 
3206 3207 3216 3215 2945 2946 2955 2954 
3207 3208 3217 3216 2946 2947 2956 2955 
3208 3209 3218 3217 2947 2948 2957 2956 
3209 3210 3219 3218 2948 2949 2958 2957 
3210 3211 3220 3219 2949 2950 2959 2958 
3211 3212 3221 3220 2950 2951 2960 2959 
3212 3213 3222 3221 2951 2952 2961 2960 
3213 3214 3223 3222 2952 2953 2962 2961 
3214 1202 1203 3223 2953 1173 1174 2962 
942 3215 3224 943 913 2954 2963 914 
3215 3216 3225 3224 2954 2955 2964 2963 
3216 3217 3226 3225 2955 2956 2965 2964 
3217 3218 3227 3226 2956 2957 2966 2965 
3218 3219 3228 3227 2957 2958 2967 2966 
3219 3220 3229 3228 2958 2959 2968 2967 
3220 3221 3230 3229 2959 2960 2969 2968 
3221 3222 3231 3230 2960 2961 2970 2969 
3222 3223 3232 3231 2961 2962 2971 2970 
3223 1203 1204 3232 2962 1174 1175 2971 
943 3224 3233 944 914 2963 2972 915 
3224 3225 3234 3233 2963 2964 2973 2972 
3225 3226 3235 3234 2964 2965 2974 2973 
3226 3227 3236 3235 2965 2966 2975 2974 
3227 3228 3237 3236 2966 2967 2976 2975 
3228 3229 3238 3237 2967 2968 2977 2976 
3229 3230 3239 3238 2968 2969 2978 2977 
3230 3231 3240 3239 2969 2970 2979 2978 
3231 3232 3241 3240 2970 2971 2980 2979 
3232 1204 1205 3241 2971 1175 1176 2980 
944 3233 3242 945 915 2972 2981 916 
3233 3234 3243 3242 2972 2973 2982 2981 
3234 3235 3244 3243 2973 2974 2983 2982 
3235 3236 3245 3244 2974 2975 2984 2983 
3236 3237 3246 3245 2975 2976 2985 2984 
3237 3238 3247 3246 2976 2977 2986 2985 
3238 3239 3248 3247 2977 2978 2987 2986 
3239 3240 3249 3248 2978 2979 2988 2987 
3240 3241 3250 3249 2979 2980 2989 2988 
3241 1205 1206 3250 2980 1176 1177 2989 
945 3242 3251 946 916 2981 2990 917 
3242 3243 3252 3251 2981 2982 2991 2990 
3243 3244 3253 3252 2982 2983 2992 2991 
3244 3245 3254 3253 2983 2984 2993 2992 
3245 3246 3255 3254 2984 2985 2994 2993 
3246 3247 3256 3255 2985 2986 2995 2994 
3247 3248 3257 3256 2986 2987 2996 2995 
3248 3249 3258 3257 2987 2988 2997 2996 
3249 3250 3259 3258 2988 2989 2998 2997 
3250 1206 1207 3259 2989 1177 1178 2998 
946 3251 3260 947 917 2990 2999 918 
3251 3252 3261 3260 2990 2991 3000 2999 
3252 3253 3262 3261 2991 2992 3001 3000 
3253 3254 3263 3262 2992 2993 3002 3001 
3254 3255 3264 3263 2993 2994 3003 3002 
3255 3256 3265 3264 2994 2995 3004 3003 
3256 3257 3266 3265 2995 2996 3005 3004 
3257 3258 3267 3266 2996 2997 3006 3005 
3258 3259 3268 3267 2997 2998 3007 3006 
3259 1207 1208 3268 2998 1178 1179 3007 
947 3260 3269 948 918 2999 3008 919 
3260 3261 3270 3269 2999 3000 3009 3008 
3261 3262 3271 3270 3000 3001 3010 3009 
3262 3263 3272 3271 3001 3002 3011 3010 
3263 3264 3273 3272 3002 3003 3012 3011 
3264 3265 3274 3273 3003 3004 3013 3012 
3265 3266 3275 3274 3004 3005 3014 3013 
3266 3267 3276 3275 3005 3006 3015 3014 
3267 3268 3277 3276 3006 3007 3016 3015 
3268 1208 1209 3277 3007 1179 1180 3016 
948 3269 3278 949 919 3008 3017 920 
3269 3270 3279 3278 3008 3009 3018 3017 
3270 3271 3280 3279 3009 3010 3019 3018 
3271 3272 3281 3280 3010 3011 3020 3019 
3272 3273 3282 3281 3011 3012 3021 3020 
3273 3274 3283 3282 3012 3013 3022 3021 
3274 3275 3284 3283 3013 3014 3023 3022 
3275 3276 3285 3284 3014 3015 3024 3023 
3276 3277 3286 3285 3015 3016 3025 3024 
3277 1209 1210 3286 3016 1180 1181 3025 
949 3278 3287 950 920 3017 3026 921 
3278 3279 3288 3287 3017 3018 3027 3026 
3279 3280 3289 3288 3018 3019 3028 3027 
3280 3281 3290 3289 3019 3020 3029 3028 
3281 3282 3291 3290 3020 3021 3030 3029 
3282 3283 3292 3291 3021 3022 3031 3030 
3283 3284 3293 3292 3022 3023 3032 3031 
3284 3285 3294 3293 3023 3024 3033 3032 
3285 3286 3295 3294 3024 3025 3034 3033 
3286 1210 1211 3295 3025 1181 1182 3034 
950 3287 3296 951 921 3026 3035 922 
3287 3288 3297 3296 3026 3027 3036 3035 
3288 3289 3298 3297 3027 3028 3037 3036 
3289 3290 3299 3298 3028 3029 3038 3037 
3290 3291 3300 3299 3029 3030 3039 3038 
3291 3292 3301 3300 3030 3031 3040 3039 
3292 3293 3302 3301 3031 3032 3041 3040 
3293 3294 3303 3302 3032 3033 3042 3041 
3294 3295 3304 3303 3033 3034 3043 3042 
3295 1211 1212 3304 3034 1182 1183 3043 
951 3296 3305 952 922 3035 3044 923 
3296 3297 3306 3305 3035 3036 3045 3044 
3297 3298 3307 3306 3036 3037 3046 3045 
3298 3299 3308 3307 3037 3038 3047 3046 
3299 3300 3309 3308 3038 3039 3048 3047 
3300 3301 3310 3309 3039 3040 3049 3048 
3301 3302 3311 3310 3040 3041 3050 3049 
3302 3303 3312 3311 3041 3042 3051 3050 
3303 3304 3313 3312 3042 3043 3052 3051 
3304 1212 1213 3313 3043 1183 1184 3052 
952 3305 3314 953 923 3044 3053 924 
3305 3306 3315 3314 3044 3045 3054 3053 
3306 3307 3316 3315 3045 3046 3055 3054 
3307 3308 3317 3316 3046 3047 3056 3055 
3308 3309 3318 3317 3047 3048 3057 3056 
3309 3310 3319 3318 3048 3049 3058 3057 
3310 3311 3320 3319 3049 3050 3059 3058 
3311 3312 3321 3320 3050 3051 3060 3059 
3312 3313 3322 3321 3051 3052 3061 3060 
3313 1213 1214 3322 3052 1184 1185 3061 
953 3314 3323 954 924 3053 3062 925 
3314 3315 3324 3323 3053 3054 3063 3062 
3315 3316 3325 3324 3054 3055 3064 3063 
3316 3317 3326 3325 3055 3056 3065 3064 
3317 3318 3327 3326 3056 3057 3066 3065 
3318 3319 3328 3327 3057 3058 3067 3066 
3319 3320 3329 3328 3058 3059 3068 3067 
3320 3321 3330 3329 3059 3060 3069 3068 
3321 3322 3331 3330 3060 3061 3070 3069 
3322 1214 1215 3331 3061 1185 1186 3070 
954 3323 3332 955 925 3062 3071 926 
3323 3324 3333 3332 3062 3063 3072 3071 
3324 3325 3334 3333 3063 3064 3073 3072 
3325 3326 3335 3334 3064 3065 3074 3073 
3326 3327 3336 3335 3065 3066 3075 3074 
3327 3328 3337 3336 3066 3067 3076 3075 
3328 3329 3338 3337 3067 3068 3077 3076 
3329 3330 3339 3338 3068 3069 3078 3077 
3330 3331 3340 3339 3069 3070 3079 3078 
3331 1215 1216 3340 3070 1186 1187 3079 
955 3332 3341 956 926 3071 3080 927 
3332 3333 3342 3341 3071 3072 3081 3080 
3333 3334 3343 3342 3072 3073 3082 3081 
3334 3335 3344 3343 3073 3074 3083 3082 
3335 3336 3345 3344 3074 3075 3084 3083 
3336 3337 3346 3345 3075 3076 3085 3084 
3337 3338 3347 3346 3076 3077 3086 3085 
3338 3339 3348 3347 3077 3078 3087 3086 
3339 3340 3349 3348 3078 3079 3088 3087 
3340 1216 1217 3349 3079 1187 1188 3088 
956 3341 3350 957 927 3080 3089 928 
3341 3342 3351 3350 3080 3081 3090 3089 
3342 3343 3352 3351 3081 3082 3091 3090 
3343 3344 3353 3352 3082 3083 3092 3091 
3344 3345 3354 3353 3083 3084 3093 3092 
3345 3346 3355 3354 3084 3085 3094 3093 
3346 3347 3356 3355 3085 3086 3095 3094 
3347 3348 3357 3356 3086 3087 3096 3095 
3348 3349 3358 3357 3087 3088 3097 3096 
3349 1217 1218 3358 3088 1188 1189 3097 
957 3350 3359 958 928 3089 3098 929 
3350 3351 3360 3359 3089 3090 3099 3098 
3351 3352 3361 3360 3090 3091 3100 3099 
3352 3353 3362 3361 3091 3092 3101 3100 
3353 3354 3363 3362 3092 3093 3102 3101 
3354 3355 3364 3363 3093 3094 3103 3102 
3355 3356 3365 3364 3094 3095 3104 3103 
3356 3357 3366 3365 3095 3096 3105 3104 
3357 3358 3367 3366 3096 3097 3106 3105 
3358 1218 1219 3367 3097 1189 1190 3106 
958 3359 3368 959 929 3098 3107 930 
3359 3360 3369 3368 3098 3099 3108 3107 
3360 3361 3370 3369 3099 3100 3109 3108 
3361 3362 3371 3370 3100 3101 3110 3109 
3362 3363 3372 3371 3101 3102 3111 3110 
3363 3364 3373 3372 3102 3103 3112 3111 
3364 3365 3374 3373 3103 3104 3113 3112 
3365 3366 3375 3374 3104 3105 3114 3113 
3366 3367 3376 3375 3105 3106 3115 3114 
3367 1219 1220 3376 3106 1190 1191 3115 
959 3368 3377 960 930 3107 3116 931 
3368 3369 3378 3377 3107 3108 3117 3116 
3369 3370 3379 3378 3108 3109 3118 3117 
3370 3371 3380 3379 3109 3110 3119 3118 
3371 3372 3381 3380 3110 3111 3120 3119 
3372 3373 3382 3381 3111 3112 3121 3120 
3373 3374 3383 3382 3112 3113 3122 3121 
3374 3375 3384 3383 3113 3114 3123 3122 
3375 3376 3385 3384 3114 3115 3124 3123 
3376 1220 1221 3385 3115 1191 1192 3124 
960 3377 3386 961 931 3116 3125 932 
3377 3378 3387 3386 3116 3117 3126 3125 
3378 3379 3388 3387 3117 3118 3127 3126 
3379 3380 3389 3388 3118 3119 3128 3127 
3380 3381 3390 3389 3119 3120 3129 3128 
3381 3382 3391 3390 3120 3121 3130 3129 
3382 3383 3392 3391 3121 3122 3131 3130 
3383 3384 3393 3392 3122 3123 3132 3131 
3384 3385 3394 3393 3123 3124 3133 3132 
3385 1221 1222 3394 3124 1192 1193 3133 
961 3386 3395 962 932 3125 3134 933 
3386 3387 3396 3395 3125 3126 3135 3134 
3387 3388 3397 3396 3126 3127 3136 3135 
3388 3389 3398 3397 3127 3128 3137 3136 
3389 3390 3399 3398 3128 3129 3138 3137 
3390 3391 3400 3399 3129 3130 3139 3138 
3391 3392 3401 3400 3130 3131 3140 3139 
3392 3393 3402 3401 3131 3132 3141 3140 
3393 3394 3403 3402 3132 3133 3142 3141 
3394 1222 1223 3403 3133 1193 1194 3142 
962 3395 3404 963 933 3134 3143 934 
3395 3396 3405 3404 3134 3135 3144 3143 
3396 3397 3406 3405 3135 3136 3145 3144 
3397 3398 3407 3406 3136 3137 3146 3145 
3398 3399 3408 3407 3137 3138 3147 3146 
3399 3400 3409 3408 3138 3139 3148 3147 
3400 3401 3410 3409 3139 3140 3149 3148 
3401 3402 3411 3410 3140 3141 3150 3149 
3402 3403 3412 3411 3141 3142 3151 3150 
3403 1223 1224 3412 3142 1194 1195 3151 
963 3404 3413 964 934 3143 3152 935 
3404 3405 3414 3413 3143 3144 3153 3152 
3405 3406 3415 3414 3144 3145 3154 3153 
3406 3407 3416 3415 3145 3146 3155 3154 
3407 3408 3417 3416 3146 3147 3156 3155 
3408 3409 3418 3417 3147 3148 3157 3156 
3409 3410 3419 3418 3148 3149 3158 3157 
3410 3411 3420 3419 3149 3150 3159 3158 
3411 3412 3421 3420 3150 3151 3160 3159 
3412 1224 1225 3421 3151 1195 1196 3160 
964 3413 3422 965 935 3152 3161 936 
3413 3414 3423 3422 3152 3153 3162 3161 
3414 3415 3424 3423 3153 3154 3163 3162 
3415 3416 3425 3424 3154 3155 3164 3163 
3416 3417 3426 3425 3155 3156 3165 3164 
3417 3418 3427 3426 3156 3157 3166 3165 
3418 3419 3428 3427 3157 3158 3167 3166 
3419 3420 3429 3428 3158 3159 3168 3167 
3420 3421 3430 3429 3159 3160 3169 3168 
3421 1225 1226 3430 3160 1196 1197 3169 
965 3422 3431 966 936 3161 3170 937 
3422 3423 3432 3431 3161 3162 3171 3170 
3423 3424 3433 3432 3162 3163 3172 3171 
3424 3425 3434 3433 3163 3164 3173 3172 
3425 3426 3435 3434 3164 3165 3174 3173 
3426 3427 3436 3435 3165 3166 3175 3174 
3427 3428 3437 3436 3166 3167 3176 3175 
3428 3429 3438 3437 3167 3168 3177 3176 
3429 3430 3439 3438 3168 3169 3178 3177 
3430 1226 1227 3439 3169 1197 1198 3178 
966 3431 3440 967 937 3170 3179 938 
3431 3432 3441 3440 3170 3171 3180 3179 
3432 3433 3442 3441 3171 3172 3181 3180 
3433 3434 3443 3442 3172 3173 3182 3181 
3434 3435 3444 3443 3173 3174 3183 3182 
3435 3436 3445 3444 3174 3175 3184 3183 
3436 3437 3446 3445 3175 3176 3185 3184 
3437 3438 3447 3446 3176 3177 3186 3185 
3438 3439 3448 3447 3177 3178 3187 3186 
3439 1227 1228 3448 3178 1198 1199 3187 
967 3440 1442 169 938 3179 1433 168 
3440 3441 1443 1442 3179 3180 1434 1433 
3441 3442 1444 1443 3180 3181 1435 1434 
3442 3443 1445 1444 3181 3182 1436 1435 
3443 3444 1446 1445 3182 3183 1437 1436 
3444 3445 1447 1446 3183 3184 1438 1437 
3445 3446 1448 1447 3184 3185 1439 1438 
3446 3447 1449 1448 3185 3186 1440 1439 
3447 3448 1450 1449 3186 3187 1441 1440 
3448 1228 185 1450 3187 1199 186 1441 
175 1370 3449 968 176 1361 3188 939 
1370 1371 3450 3449 1361 1362 3189 3188 
1371 1372 3451 3450 1362 1363 3190 3189 
1372 1373 3452 3451 1363 1364 3191 3190 
1373 1374 3453 3452 1364 1365 3192 3191 
1374 1375 3454 3453 1365 1366 3193 3192 
1375 1376 3455 3454 1366 1367 3194 3193 
1376 1377 3456 3455 1367 1368 3195 3194 
1377 1378 3457 3456 1368 1369 3196 3195 
1378 197 1229 3457 1369 196 1200 3196 
968 3449 3458 969 939 3188 3197 940 
3449 3450 3459 3458 3188 3189 3198 3197 
3450 3451 3460 3459 3189 3190 3199 3198 
3451 3452 3461 3460 3190 3191 3200 3199 
3452 3453 3462 3461 3191 3192 3201 3200 
3453 3454 3463 3462 3192 3193 3202 3201 
3454 3455 3464 3463 3193 3194 3203 3202 
3455 3456 3465 3464 3194 3195 3204 3203 
3456 3457 3466 3465 3195 3196 3205 3204 
3457 1229 1230 3466 3196 1200 1201 3205 
969 3458 3467 970 940 3197 3206 941 
3458 3459 3468 3467 3197 3198 3207 3206 
3459 3460 3469 3468 3198 3199 3208 3207 
3460 3461 3470 3469 3199 3200 3209 3208 
3461 3462 3471 3470 3200 3201 3210 3209 
3462 3463 3472 3471 3201 3202 3211 3210 
3463 3464 3473 3472 3202 3203 3212 3211 
3464 3465 3474 3473 3203 3204 3213 3212 
3465 3466 3475 3474 3204 3205 3214 3213 
3466 1230 1231 3475 3205 1201 1202 3214 
970 3467 3476 971 941 3206 3215 942 
3467 3468 3477 3476 3206 3207 3216 3215 
3468 3469 3478 3477 3207 3208 3217 3216 
3469 3470 3479 3478 3208 3209 3218 3217 
3470 3471 3480 3479 3209 3210 3219 3218 
3471 3472 3481 3480 3210 3211 3220 3219 
3472 3473 3482 3481 3211 3212 3221 3220 
3473 3474 3483 3482 3212 3213 3222 3221 
3474 3475 3484 3483 3213 3214 3223 3222 
3475 1231 1232 3484 3214 1202 1203 3223 
971 3476 3485 972 942 3215 3224 943 
3476 3477 3486 3485 3215 3216 3225 3224 
3477 3478 3487 3486 3216 3217 3226 3225 
3478 3479 3488 3487 3217 3218 3227 3226 
3479 3480 3489 3488 3218 3219 3228 3227 
3480 3481 3490 3489 3219 3220 3229 3228 
3481 3482 3491 3490 3220 3221 3230 3229 
3482 3483 3492 3491 3221 3222 3231 3230 
3483 3484 3493 3492 3222 3223 3232 3231 
3484 1232 1233 3493 3223 1203 1204 3232 
972 3485 3494 973 943 3224 3233 944 
3485 3486 3495 3494 3224 3225 3234 3233 
3486 3487 3496 3495 3225 3226 3235 3234 
3487 3488 3497 3496 3226 3227 3236 3235 
3488 3489 3498 3497 3227 3228 3237 3236 
3489 3490 3499 3498 3228 3229 3238 3237 
3490 3491 3500 3499 3229 3230 3239 3238 
3491 3492 3501 3500 3230 3231 3240 3239 
3492 3493 3502 3501 3231 3232 3241 3240 
3493 1233 1234 3502 3232 1204 1205 3241 
973 3494 3503 974 944 3233 3242 945 
3494 3495 3504 3503 3233 3234 3243 3242 
3495 3496 3505 3504 3234 3235 3244 3243 
3496 3497 3506 3505 3235 3236 3245 3244 
3497 3498 3507 3506 3236 3237 3246 3245 
3498 3499 3508 3507 3237 3238 3247 3246 
3499 3500 3509 3508 3238 3239 3248 3247 
3500 3501 3510 3509 3239 3240 3249 3248 
3501 3502 3511 3510 3240 3241 3250 3249 
3502 1234 1235 3511 3241 1205 1206 3250 
974 3503 3512 975 945 3242 3251 946 
3503 3504 3513 3512 3242 3243 3252 3251 
3504 3505 3514 3513 3243 3244 3253 3252 
3505 3506 3515 3514 3244 3245 3254 3253 
3506 3507 3516 3515 3245 3246 3255 3254 
3507 3508 3517 3516 3246 3247 3256 3255 
3508 3509 3518 3517 3247 3248 3257 3256 
3509 3510 3519 3518 3248 3249 3258 3257 
3510 3511 3520 3519 3249 3250 3259 3258 
3511 1235 1236 3520 3250 1206 1207 3259 
975 3512 3521 976 946 3251 3260 947 
3512 3513 3522 3521 3251 3252 3261 3260 
3513 3514 3523 3522 3252 3253 3262 3261 
3514 3515 3524 3523 3253 3254 3263 3262 
3515 3516 3525 3524 3254 3255 3264 3263 
3516 3517 3526 3525 3255 3256 3265 3264 
3517 3518 3527 3526 3256 3257 3266 3265 
3518 3519 3528 3527 3257 3258 3267 3266 
3519 3520 3529 3528 3258 3259 3268 3267 
3520 1236 1237 3529 3259 1207 1208 3268 
976 3521 3530 977 947 3260 3269 948 
3521 3522 3531 3530 3260 3261 3270 3269 
3522 3523 3532 3531 3261 3262 3271 3270 
3523 3524 3533 3532 3262 3263 3272 3271 
3524 3525 3534 3533 3263 3264 3273 3272 
3525 3526 3535 3534 3264 3265 3274 3273 
3526 3527 3536 3535 3265 3266 3275 3274 
3527 3528 3537 3536 3266 3267 3276 3275 
3528 3529 3538 3537 3267 3268 3277 3276 
3529 1237 1238 3538 3268 1208 1209 3277 
977 3530 3539 978 948 3269 3278 949 
3530 3531 3540 3539 3269 3270 3279 3278 
3531 3532 3541 3540 3270 3271 3280 3279 
3532 3533 3542 3541 3271 3272 3281 3280 
3533 3534 3543 3542 3272 3273 3282 3281 
3534 3535 3544 3543 3273 3274 3283 3282 
3535 3536 3545 3544 3274 3275 3284 3283 
3536 3537 3546 3545 3275 3276 3285 3284 
3537 3538 3547 3546 3276 3277 3286 3285 
3538 1238 1239 3547 3277 1209 1210 3286 
978 3539 3548 979 949 3278 3287 950 
3539 3540 3549 3548 3278 3279 3288 3287 
3540 3541 3550 3549 3279 3280 3289 3288 
3541 3542 3551 3550 3280 3281 3290 3289 
3542 3543 3552 3551 3281 3282 3291 3290 
3543 3544 3553 3552 3282 3283 3292 3291 
3544 3545 3554 3553 3283 3284 3293 3292 
3545 3546 3555 3554 3284 3285 3294 3293 
3546 3547 3556 3555 3285 3286 3295 3294 
3547 1239 1240 3556 3286 1210 1211 3295 
979 3548 3557 980 950 3287 3296 951 
3548 3549 3558 3557 3287 3288 3297 3296 
3549 3550 3559 3558 3288 3289 3298 3297 
3550 3551 3560 3559 3289 3290 3299 3298 
3551 3552 3561 3560 3290 3291 3300 3299 
3552 3553 3562 3561 3291 3292 3301 3300 
3553 3554 3563 3562 3292 3293 3302 3301 
3554 3555 3564 3563 3293 3294 3303 3302 
3555 3556 3565 3564 3294 3295 3304 3303 
3556 1240 1241 3565 3295 1211 1212 3304 
980 3557 3566 981 951 3296 3305 952 
3557 3558 3567 3566 3296 3297 3306 3305 
3558 3559 3568 3567 3297 3298 3307 3306 
3559 3560 3569 3568 3298 3299 3308 3307 
3560 3561 3570 3569 3299 3300 3309 3308 
3561 3562 3571 3570 3300 3301 3310 3309 
3562 3563 3572 3571 3301 3302 3311 3310 
3563 3564 3573 3572 3302 3303 3312 3311 
3564 3565 3574 3573 3303 3304 3313 3312 
3565 1241 1242 3574 3304 1212 1213 3313 
981 3566 3575 982 952 3305 3314 953 
3566 3567 3576 3575 3305 3306 3315 3314 
3567 3568 3577 3576 3306 3307 3316 3315 
3568 3569 3578 3577 3307 3308 3317 3316 
3569 3570 3579 3578 3308 3309 3318 3317 
3570 3571 3580 3579 3309 3310 3319 3318 
3571 3572 3581 3580 3310 3311 3320 3319 
3572 3573 3582 3581 3311 3312 3321 3320 
3573 3574 3583 3582 3312 3313 3322 3321 
3574 1242 1243 3583 3313 1213 1214 3322 
982 3575 3584 983 953 3314 3323 954 
3575 3576 3585 3584 3314 3315 3324 3323 
3576 3577 3586 3585 3315 3316 3325 3324 
3577 3578 3587 3586 3316 3317 3326 3325 
3578 3579 3588 3587 3317 3318 3327 3326 
3579 3580 3589 3588 3318 3319 3328 3327 
3580 3581 3590 3589 3319 3320 3329 3328 
3581 3582 3591 3590 3320 3321 3330 3329 
3582 3583 3592 3591 3321 3322 3331 3330 
3583 1243 1244 3592 3322 1214 1215 3331 
983 3584 3593 984 954 3323 3332 955 
3584 3585 3594 3593 3323 3324 3333 3332 
3585 3586 3595 3594 3324 3325 3334 3333 
3586 3587 3596 3595 3325 3326 3335 3334 
3587 3588 3597 3596 3326 3327 3336 3335 
3588 3589 3598 3597 3327 3328 3337 3336 
3589 3590 3599 3598 3328 3329 3338 3337 
3590 3591 3600 3599 3329 3330 3339 3338 
3591 3592 3601 3600 3330 3331 3340 3339 
3592 1244 1245 3601 3331 1215 1216 3340 
984 3593 3602 985 955 3332 3341 956 
3593 3594 3603 3602 3332 3333 3342 3341 
3594 3595 3604 3603 3333 3334 3343 3342 
3595 3596 3605 3604 3334 3335 3344 3343 
3596 3597 3606 3605 3335 3336 3345 3344 
3597 3598 3607 3606 3336 3337 3346 3345 
3598 3599 3608 3607 3337 3338 3347 3346 
3599 3600 3609 3608 3338 3339 3348 3347 
3600 3601 3610 3609 3339 3340 3349 3348 
3601 1245 1246 3610 3340 1216 1217 3349 
985 3602 3611 986 956 3341 3350 957 
3602 3603 3612 3611 3341 3342 3351 3350 
3603 3604 3613 3612 3342 3343 3352 3351 
3604 3605 3614 3613 3343 3344 3353 3352 
3605 3606 3615 3614 3344 3345 3354 3353 
3606 3607 3616 3615 3345 3346 3355 3354 
3607 3608 3617 3616 3346 3347 3356 3355 
3608 3609 3618 3617 3347 3348 3357 3356 
3609 3610 3619 3618 3348 3349 3358 3357 
3610 1246 1247 3619 3349 1217 1218 3358 
986 3611 3620 987 957 3350 3359 958 
3611 3612 3621 3620 3350 3351 3360 3359 
3612 3613 3622 3621 3351 3352 3361 3360 
3613 3614 3623 3622 3352 3353 3362 3361 
3614 3615 3624 3623 3353 3354 3363 3362 
3615 3616 3625 3624 3354 3355 3364 3363 
3616 3617 3626 3625 3355 3356 3365 3364 
3617 3618 3627 3626 3356 3357 3366 3365 
3618 3619 3628 3627 3357 3358 3367 3366 
3619 1247 1248 3628 3358 1218 1219 3367 
987 3620 3629 988 958 3359 3368 959 
3620 3621 3630 3629 3359 3360 3369 3368 
3621 3622 3631 3630 3360 3361 3370 3369 
3622 3623 3632 3631 3361 3362 3371 3370 
3623 3624 3633 3632 3362 3363 3372 3371 
3624 3625 3634 3633 3363 3364 3373 3372 
3625 3626 3635 3634 3364 3365 3374 3373 
3626 3627 3636 3635 3365 3366 3375 3374 
3627 3628 3637 3636 3366 3367 3376 3375 
3628 1248 1249 3637 3367 1219 1220 3376 
988 3629 3638 989 959 3368 3377 960 
3629 3630 3639 3638 3368 3369 3378 3377 
3630 3631 3640 3639 3369 3370 3379 3378 
3631 3632 3641 3640 3370 3371 3380 3379 
3632 3633 3642 3641 3371 3372 3381 3380 
3633 3634 3643 3642 3372 3373 3382 3381 
3634 3635 3644 3643 3373 3374 3383 3382 
3635 3636 3645 3644 3374 3375 3384 3383 
3636 3637 3646 3645 3375 3376 3385 3384 
3637 1249 1250 3646 3376 1220 1221 3385 
989 3638 3647 990 960 3377 3386 961 
3638 3639 3648 3647 3377 3378 3387 3386 
3639 3640 3649 3648 3378 3379 3388 3387 
3640 3641 3650 3649 3379 3380 3389 3388 
3641 3642 3651 3650 3380 3381 3390 3389 
3642 3643 3652 3651 3381 3382 3391 3390 
3643 3644 3653 3652 3382 3383 3392 3391 
3644 3645 3654 3653 3383 3384 3393 3392 
3645 3646 3655 3654 3384 3385 3394 3393 
3646 1250 1251 3655 3385 1221 1222 3394 
990 3647 3656 991 961 3386 3395 962 
3647 3648 3657 3656 3386 3387 3396 3395 
3648 3649 3658 3657 3387 3388 3397 3396 
3649 3650 3659 3658 3388 3389 3398 3397 
3650 3651 3660 3659 3389 3390 3399 3398 
3651 3652 3661 3660 3390 3391 3400 3399 
3652 3653 3662 3661 3391 3392 3401 3400 
3653 3654 3663 3662 3392 3393 3402 3401 
3654 3655 3664 3663 3393 3394 3403 3402 
3655 1251 1252 3664 3394 1222 1223 3403 
991 3656 3665 992 962 3395 3404 963 
3656 3657 3666 3665 3395 3396 3405 3404 
3657 3658 3667 3666 3396 3397 3406 3405 
3658 3659 3668 3667 3397 3398 3407 3406 
3659 3660 3669 3668 3398 3399 3408 3407 
3660 3661 3670 3669 3399 3400 3409 3408 
3661 3662 3671 3670 3400 3401 3410 3409 
3662 3663 3672 3671 3401 3402 3411 3410 
3663 3664 3673 3672 3402 3403 3412 3411 
3664 1252 1253 3673 3403 1223 1224 3412 
992 3665 3674 993 963 3404 3413 964 
3665 3666 3675 3674 3404 3405 3414 3413 
3666 3667 3676 3675 3405 3406 3415 3414 
3667 3668 3677 3676 3406 3407 3416 3415 
3668 3669 3678 3677 3407 3408 3417 3416 
3669 3670 3679 3678 3408 3409 3418 3417 
3670 3671 3680 3679 3409 3410 3419 3418 
3671 3672 3681 3680 3410 3411 3420 3419 
3672 3673 3682 3681 3411 3412 3421 3420 
3673 1253 1254 3682 3412 1224 1225 3421 
993 3674 3683 994 964 3413 3422 965 
3674 3675 3684 3683 3413 3414 3423 3422 
3675 3676 3685 3684 3414 3415 3424 3423 
3676 3677 3686 3685 3415 3416 3425 3424 
3677 3678 3687 3686 3416 3417 3426 3425 
3678 3679 3688 3687 3417 3418 3427 3426 
3679 3680 3689 3688 3418 3419 3428 3427 
3680 3681 3690 3689 3419 3420 3429 3428 
3681 3682 3691 3690 3420 3421 3430 3429 
3682 1254 1255 3691 3421 1225 1226 3430 
994 3683 3692 995 965 3422 3431 966 
3683 3684 3693 3692 3422 3423 3432 3431 
3684 3685 3694 3693 3423 3424 3433 3432 
3685 3686 3695 3694 3424 3425 3434 3433 
3686 3687 3696 3695 3425 3426 3435 3434 
3687 3688 3697 3696 3426 3427 3436 3435 
3688 3689 3698 3697 3427 3428 3437 3436 
3689 3690 3699 3698 3428 3429 3438 3437 
3690 3691 3700 3699 3429 3430 3439 3438 
3691 1255 1256 3700 3430 1226 1227 3439 
995 3692 3701 996 966 3431 3440 967 
3692 3693 3702 3701 3431 3432 3441 3440 
3693 3694 3703 3702 3432 3433 3442 3441 
3694 3695 3704 3703 3433 3434 3443 3442 
3695 3696 3705 3704 3434 3435 3444 3443 
3696 3697 3706 3705 3435 3436 3445 3444 
3697 3698 3707 3706 3436 3437 3446 3445 
3698 3699 3708 3707 3437 3438 3447 3446 
3699 3700 3709 3708 3438 3439 3448 3447 
3700 1256 1257 3709 3439 1227 1228 3448 
996 3701 1451 170 967 3440 1442 169 
3701 3702 1452 1451 3440 3441 1443 1442 
3702 3703 1453 1452 3441 3442 1444 1443 
3703 3704 1454 1453 3442 3443 1445 1444 
3704 3705 1455 1454 3443 3444 1446 1445 
3705 3706 1456 1455 3444 3445 1447 1446 
3706 3707 1457 1456 3445 3446 1448 1447 
3707 3708 1458 1457 3446 3447 1449 1448 
3708 3709 1459 1458 3447 3448 1450 1449 
3709 1257 184 1459 3448 1228 185 1450 
174 1379 3710 997 175 1370 3449 968 
1379 1380 3711 3710 1370 1371 3450 3449 
1380 1381 3712 3711 1371 1372 3451 3450 
1381 1382 3713 3712 1372 1373 3452 3451 
1382 1383 3714 3713 1373 1374 3453 3452 
1383 1384 3715 3714 1374 1375 3454 3453 
1384 1385 3716 3715 1375 1376 3455 3454 
1385 1386 3717 3716 1376 1377 3456 3455 
1386 1387 3718 3717 1377 1378 3457 3456 
1387 198 1258 3718 1378 197 1229 3457 
997 3710 3719 998 968 3449 3458 969 
3710 3711 3720 3719 3449 3450 3459 3458 
3711 3712 3721 3720 3450 3451 3460 3459 
3712 3713 3722 3721 3451 3452 3461 3460 
3713 3714 3723 3722 3452 3453 3462 3461 
3714 3715 3724 3723 3453 3454 3463 3462 
3715 3716 3725 3724 3454 3455 3464 3463 
3716 3717 3726 3725 3455 3456 3465 3464 
3717 3718 3727 3726 3456 3457 3466 3465 
3718 1258 1259 3727 3457 1229 1230 3466 
998 3719 3728 999 969 3458 3467 970 
3719 3720 3729 3728 3458 3459 3468 3467 
3720 3721 3730 3729 3459 3460 3469 3468 
3721 3722 3731 3730 3460 3461 3470 3469 
3722 3723 3732 3731 3461 3462 3471 3470 
3723 3724 3733 3732 3462 3463 3472 3471 
3724 3725 3734 3733 3463 3464 3473 3472 
3725 3726 3735 3734 3464 3465 3474 3473 
3726 3727 3736 3735 3465 3466 3475 3474 
3727 1259 1260 3736 3466 1230 1231 3475 
999 3728 3737 1000 970 3467 3476 971 
3728 3729 3738 3737 3467 3468 3477 3476 
3729 3730 3739 3738 3468 3469 3478 3477 
3730 3731 3740 3739 3469 3470 3479 3478 
3731 3732 3741 3740 3470 3471 3480 3479 
3732 3733 3742 3741 3471 3472 3481 3480 
3733 3734 3743 3742 3472 3473 3482 3481 
3734 3735 3744 3743 3473 3474 3483 3482 
3735 3736 3745 3744 3474 3475 3484 3483 
3736 1260 1261 3745 3475 1231 1232 3484 
1000 3737 3746 1001 971 3476 3485 972 
3737 3738 3747 3746 3476 3477 3486 3485 
3738 3739 3748 3747 3477 3478 3487 3486 
3739 3740 3749 3748 3478 3479 3488 3487 
3740 3741 3750 3749 3479 3480 3489 3488 
3741 3742 3751 3750 3480 3481 3490 3489 
3742 3743 3752 3751 3481 3482 3491 3490 
3743 3744 3753 3752 3482 3483 3492 3491 
3744 3745 3754 3753 3483 3484 3493 3492 
3745 1261 1262 3754 3484 1232 1233 3493 
1001 3746 3755 1002 972 3485 3494 973 
3746 3747 3756 3755 3485 3486 3495 3494 
3747 3748 3757 3756 3486 3487 3496 3495 
3748 3749 3758 3757 3487 3488 3497 3496 
3749 3750 3759 3758 3488 3489 3498 3497 
3750 3751 3760 3759 3489 3490 3499 3498 
3751 3752 3761 3760 3490 3491 3500 3499 
3752 3753 3762 3761 3491 3492 3501 3500 
3753 3754 3763 3762 3492 3493 3502 3501 
3754 1262 1263 3763 3493 1233 1234 3502 
1002 3755 3764 1003 973 3494 3503 974 
3755 3756 3765 3764 3494 3495 3504 3503 
3756 3757 3766 3765 3495 3496 3505 3504 
3757 3758 3767 3766 3496 3497 3506 3505 
3758 3759 3768 3767 3497 3498 3507 3506 
3759 3760 3769 3768 3498 3499 3508 3507 
3760 3761 3770 3769 3499 3500 3509 3508 
3761 3762 3771 3770 3500 3501 3510 3509 
3762 3763 3772 3771 3501 3502 3511 3510 
3763 1263 1264 3772 3502 1234 1235 3511 
1003 3764 3773 1004 974 3503 3512 975 
3764 3765 3774 3773 3503 3504 3513 3512 
3765 3766 3775 3774 3504 3505 3514 3513 
3766 3767 3776 3775 3505 3506 3515 3514 
3767 3768 3777 3776 3506 3507 3516 3515 
3768 3769 3778 3777 3507 3508 3517 3516 
3769 3770 3779 3778 3508 3509 3518 3517 
3770 3771 3780 3779 3509 3510 3519 3518 
3771 3772 3781 3780 3510 3511 3520 3519 
3772 1264 1265 3781 3511 1235 1236 3520 
1004 3773 3782 1005 975 3512 3521 976 
3773 3774 3783 3782 3512 3513 3522 3521 
3774 3775 3784 3783 3513 3514 3523 3522 
3775 3776 3785 3784 3514 3515 3524 3523 
3776 3777 3786 3785 3515 3516 3525 3524 
3777 3778 3787 3786 3516 3517 3526 3525 
3778 3779 3788 3787 3517 3518 3527 3526 
3779 3780 3789 3788 3518 3519 3528 3527 
3780 3781 3790 3789 3519 3520 3529 3528 
3781 1265 1266 3790 3520 1236 1237 3529 
1005 3782 3791 1006 976 3521 3530 977 
3782 3783 3792 3791 3521 3522 3531 3530 
3783 3784 3793 3792 3522 3523 3532 3531 
3784 3785 3794 3793 3523 3524 3533 3532 
3785 3786 3795 3794 3524 3525 3534 3533 
3786 3787 3796 3795 3525 3526 3535 3534 
3787 3788 3797 3796 3526 3527 3536 3535 
3788 3789 3798 3797 3527 3528 3537 3536 
3789 3790 3799 3798 3528 3529 3538 3537 
3790 1266 1267 3799 3529 1237 1238 3538 
1006 3791 3800 1007 977 3530 3539 978 
3791 3792 3801 3800 3530 3531 3540 3539 
3792 3793 3802 3801 3531 3532 3541 3540 
3793 3794 3803 3802 3532 3533 3542 3541 
3794 3795 3804 3803 3533 3534 3543 3542 
3795 3796 3805 3804 3534 3535 3544 3543 
3796 3797 3806 3805 3535 3536 3545 3544 
3797 3798 3807 3806 3536 3537 3546 3545 
3798 3799 3808 3807 3537 3538 3547 3546 
3799 1267 1268 3808 3538 1238 1239 3547 
1007 3800 3809 1008 978 3539 3548 979 
3800 3801 3810 3809 3539 3540 3549 3548 
3801 3802 3811 3810 3540 3541 3550 3549 
3802 3803 3812 3811 3541 3542 3551 3550 
3803 3804 3813 3812 3542 3543 3552 3551 
3804 3805 3814 3813 3543 3544 3553 3552 
3805 3806 3815 3814 3544 3545 3554 3553 
3806 3807 3816 3815 3545 3546 3555 3554 
3807 3808 3817 3816 3546 3547 3556 3555 
3808 1268 1269 3817 3547 1239 1240 3556 
1008 3809 3818 1009 979 3548 3557 980 
3809 3810 3819 3818 3548 3549 3558 3557 
3810 3811 3820 3819 3549 3550 3559 3558 
3811 3812 3821 3820 3550 3551 3560 3559 
3812 3813 3822 3821 3551 3552 3561 3560 
3813 3814 3823 3822 3552 3553 3562 3561 
3814 3815 3824 3823 3553 3554 3563 3562 
3815 3816 3825 3824 3554 3555 3564 3563 
3816 3817 3826 3825 3555 3556 3565 3564 
3817 1269 1270 3826 3556 1240 1241 3565 
1009 3818 3827 1010 980 3557 3566 981 
3818 3819 3828 3827 3557 3558 3567 3566 
3819 3820 3829 3828 3558 3559 3568 3567 
3820 3821 3830 3829 3559 3560 3569 3568 
3821 3822 3831 3830 3560 3561 3570 3569 
3822 3823 3832 3831 3561 3562 3571 3570 
3823 3824 3833 3832 3562 3563 3572 3571 
3824 3825 3834 3833 3563 3564 3573 3572 
3825 3826 3835 3834 3564 3565 3574 3573 
3826 1270 1271 3835 3565 1241 1242 3574 
1010 3827 3836 1011 981 3566 3575 982 
3827 3828 3837 3836 3566 3567 3576 3575 
3828 3829 3838 3837 3567 3568 3577 3576 
3829 3830 3839 3838 3568 3569 3578 3577 
3830 3831 3840 3839 3569 3570 3579 3578 
3831 3832 3841 3840 3570 3571 3580 3579 
3832 3833 3842 3841 3571 3572 3581 3580 
3833 3834 3843 3842 3572 3573 3582 3581 
3834 3835 3844 3843 3573 3574 3583 3582 
3835 1271 1272 3844 3574 1242 1243 3583 
1011 3836 3845 1012 982 3575 3584 983 
3836 3837 3846 3845 3575 3576 3585 3584 
3837 3838 3847 3846 3576 3577 3586 3585 
3838 3839 3848 3847 3577 3578 3587 3586 
3839 3840 3849 3848 3578 3579 3588 3587 
3840 3841 3850 3849 3579 3580 3589 3588 
3841 3842 3851 3850 3580 3581 3590 3589 
3842 3843 3852 3851 3581 3582 3591 3590 
3843 3844 3853 3852 3582 3583 3592 3591 
3844 1272 1273 3853 3583 1243 1244 3592 
1012 3845 3854 1013 983 3584 3593 984 
3845 3846 3855 3854 3584 3585 3594 3593 
3846 3847 3856 3855 3585 3586 3595 3594 
3847 3848 3857 3856 3586 3587 3596 3595 
3848 3849 3858 3857 3587 3588 3597 3596 
3849 3850 3859 3858 3588 3589 3598 3597 
3850 3851 3860 3859 3589 3590 3599 3598 
3851 3852 3861 3860 3590 3591 3600 3599 
3852 3853 3862 3861 3591 3592 3601 3600 
3853 1273 1274 3862 3592 1244 1245 3601 
1013 3854 3863 1014 984 3593 3602 985 
3854 3855 3864 3863 3593 3594 3603 3602 
3855 3856 3865 3864 3594 3595 3604 3603 
3856 3857 3866 3865 3595 3596 3605 3604 
3857 3858 3867 3866 3596 3597 3606 3605 
3858 3859 3868 3867 3597 3598 3607 3606 
3859 3860 3869 3868 3598 3599 3608 3607 
3860 3861 3870 3869 3599 3600 3609 3608 
3861 3862 3871 3870 3600 3601 3610 3609 
3862 1274 1275 3871 3601 1245 1246 3610 
1014 3863 3872 1015 985 3602 3611 986 
3863 3864 3873 3872 3602 3603 3612 3611 
3864 3865 3874 3873 3603 3604 3613 3612 
3865 3866 3875 3874 3604 3605 3614 3613 
3866 3867 3876 3875 3605 3606 3615 3614 
3867 3868 3877 3876 3606 3607 3616 3615 
3868 3869 3878 3877 3607 3608 3617 3616 
3869 3870 3879 3878 3608 3609 3618 3617 
3870 3871 3880 3879 3609 3610 3619 3618 
3871 1275 1276 3880 3610 1246 1247 3619 
1015 3872 3881 1016 986 3611 3620 987 
3872 3873 3882 3881 3611 3612 3621 3620 
3873 3874 3883 3882 3612 3613 3622 3621 
3874 3875 3884 3883 3613 3614 3623 3622 
3875 3876 3885 3884 3614 3615 3624 3623 
3876 3877 3886 3885 3615 3616 3625 3624 
3877 3878 3887 3886 3616 3617 3626 3625 
3878 3879 3888 3887 3617 3618 3627 3626 
3879 3880 3889 3888 3618 3619 3628 3627 
3880 1276 1277 3889 3619 1247 1248 3628 
1016 3881 3890 1017 987 3620 3629 988 
3881 3882 3891 3890 3620 3621 3630 3629 
3882 3883 3892 3891 3621 3622 3631 3630 
3883 3884 3893 3892 3622 3623 3632 3631 
3884 3885 3894 3893 3623 3624 3633 3632 
3885 3886 3895 3894 3624 3625 3634 3633 
3886 3887 3896 3895 3625 3626 3635 3634 
3887 3888 3897 3896 3626 3627 3636 3635 
3888 3889 3898 3897 3627 3628 3637 3636 
3889 1277 1278 3898 3628 1248 1249 3637 
1017 3890 3899 1018 988 3629 3638 989 
3890 3891 3900 3899 3629 3630 3639 3638 
3891 3892 3901 3900 3630 3631 3640 3639 
3892 3893 3902 3901 3631 3632 3641 3640 
3893 3894 3903 3902 3632 3633 3642 3641 
3894 3895 3904 3903 3633 3634 3643 3642 
3895 3896 3905 3904 3634 3635 3644 3643 
3896 3897 3906 3905 3635 3636 3645 3644 
3897 3898 3907 3906 3636 3637 3646 3645 
3898 1278 1279 3907 3637 1249 1250 3646 
1018 3899 3908 1019 989 3638 3647 990 
3899 3900 3909 3908 3638 3639 3648 3647 
3900 3901 3910 3909 3639 3640 3649 3648 
3901 3902 3911 3910 3640 3641 3650 3649 
3902 3903 3912 3911 3641 3642 3651 3650 
3903 3904 3913 3912 3642 3643 3652 3651 
3904 3905 3914 3913 3643 3644 3653 3652 
3905 3906 3915 3914 3644 3645 3654 3653 
3906 3907 3916 3915 3645 3646 3655 3654 
3907 1279 1280 3916 3646 1250 1251 3655 
1019 3908 3917 1020 990 3647 3656 991 
3908 3909 3918 3917 3647 3648 3657 3656 
3909 3910 3919 3918 3648 3649 3658 3657 
3910 3911 3920 3919 3649 3650 3659 3658 
3911 3912 3921 3920 3650 3651 3660 3659 
3912 3913 3922 3921 3651 3652 3661 3660 
3913 3914 3923 3922 3652 3653 3662 3661 
3914 3915 3924 3923 3653 3654 3663 3662 
3915 3916 3925 3924 3654 3655 3664 3663 
3916 1280 1281 3925 3655 1251 1252 3664 
1020 3917 3926 1021 991 3656 3665 992 
3917 3918 3927 3926 3656 3657 3666 3665 
3918 3919 3928 3927 3657 3658 3667 3666 
3919 3920 3929 3928 3658 3659 3668 3667 
3920 3921 3930 3929 3659 3660 3669 3668 
3921 3922 3931 3930 3660 3661 3670 3669 
3922 3923 3932 3931 3661 3662 3671 3670 
3923 3924 3933 3932 3662 3663 3672 3671 
3924 3925 3934 3933 3663 3664 3673 3672 
3925 1281 1282 3934 3664 1252 1253 3673 
1021 3926 3935 1022 992 3665 3674 993 
3926 3927 3936 3935 3665 3666 3675 3674 
3927 3928 3937 3936 3666 3667 3676 3675 
3928 3929 3938 3937 3667 3668 3677 3676 
3929 3930 3939 3938 3668 3669 3678 3677 
3930 3931 3940 3939 3669 3670 3679 3678 
3931 3932 3941 3940 3670 3671 3680 3679 
3932 3933 3942 3941 3671 3672 3681 3680 
3933 3934 3943 3942 3672 3673 3682 3681 
3934 1282 1283 3943 3673 1253 1254 3682 
1022 3935 3944 1023 993 3674 3683 994 
3935 3936 3945 3944 3674 3675 3684 3683 
3936 3937 3946 3945 3675 3676 3685 3684 
3937 3938 3947 3946 3676 3677 3686 3685 
3938 3939 3948 3947 3677 3678 3687 3686 
3939 3940 3949 3948 3678 3679 3688 3687 
3940 3941 3950 3949 3679 3680 3689 3688 
3941 3942 3951 3950 3680 3681 3690 3689 
3942 3943 3952 3951 3681 3682 3691 3690 
3943 1283 1284 3952 3682 1254 1255 3691 
1023 3944 3953 1024 994 3683 3692 995 
3944 3945 3954 3953 3683 3684 3693 3692 
3945 3946 3955 3954 3684 3685 3694 3693 
3946 3947 3956 3955 3685 3686 3695 3694 
3947 3948 3957 3956 3686 3687 3696 3695 
3948 3949 3958 3957 3687 3688 3697 3696 
3949 3950 3959 3958 3688 3689 3698 3697 
3950 3951 3960 3959 3689 3690 3699 3698 
3951 3952 3961 3960 3690 3691 3700 3699 
3952 1284 1285 3961 3691 1255 1256 3700 
1024 3953 3962 1025 995 3692 3701 996 
3953 3954 3963 3962 3692 3693 3702 3701 
3954 3955 3964 3963 3693 3694 3703 3702 
3955 3956 3965 3964 3694 3695 3704 3703 
3956 3957 3966 3965 3695 3696 3705 3704 
3957 3958 3967 3966 3696 3697 3706 3705 
3958 3959 3968 3967 3697 3698 3707 3706 
3959 3960 3969 3968 3698 3699 3708 3707 
3960 3961 3970 3969 3699 3700 3709 3708 
3961 1285 1286 3970 3700 1256 1257 3709 
1025 3962 1460 171 996 3701 1451 170 
3962 3963 1461 1460 3701 3702 1452 1451 
3963 3964 1462 1461 3702 3703 1453 1452 
3964 3965 1463 1462 3703 3704 1454 1453 
3965 3966 1464 1463 3704 3705 1455 1454 
3966 3967 1465 1464 3705 3706 1456 1455 
3967 3968 1466 1465 3706 3707 1457 1456 
3968 3969 1467 1466 3707 3708 1458 1457 
3969 3970 1468 1467 3708 3709 1459 1458 
3970 1286 183 1468 3709 1257 184 1459 
173 1388 3971 1026 174 1379 3710 997 
1388 1389 3972 3971 1379 1380 3711 3710 
1389 1390 3973 3972 1380 1381 3712 3711 
1390 1391 3974 3973 1381 1382 3713 3712 
1391 1392 3975 3974 1382 1383 3714 3713 
1392 1393 3976 3975 1383 1384 3715 3714 
1393 1394 3977 3976 1384 1385 3716 3715 
1394 1395 3978 3977 1385 1386 3717 3716 
1395 1396 3979 3978 1386 1387 3718 3717 
1396 199 1287 3979 1387 198 1258 3718 
1026 3971 3980 1027 997 3710 3719 998 
3971 3972 3981 3980 3710 3711 3720 3719 
3972 3973 3982 3981 3711 3712 3721 3720 
3973 3974 3983 3982 3712 3713 3722 3721 
3974 3975 3984 3983 3713 3714 3723 3722 
3975 3976 3985 3984 3714 3715 3724 3723 
3976 3977 3986 3985 3715 3716 3725 3724 
3977 3978 3987 3986 3716 3717 3726 3725 
3978 3979 3988 3987 3717 3718 3727 3726 
3979 1287 1288 3988 3718 1258 1259 3727 
1027 3980 3989 1028 998 3719 3728 999 
3980 3981 3990 3989 3719 3720 3729 3728 
3981 3982 3991 3990 3720 3721 3730 3729 
3982 3983 3992 3991 3721 3722 3731 3730 
3983 3984 3993 3992 3722 3723 3732 3731 
3984 3985 3994 3993 3723 3724 3733 3732 
3985 3986 3995 3994 3724 3725 3734 3733 
3986 3987 3996 3995 3725 3726 3735 3734 
3987 3988 3997 3996 3726 3727 3736 3735 
3988 1288 1289 3997 3727 1259 1260 3736 
1028 3989 3998 1029 999 3728 3737 1000 
3989 3990 3999 3998 3728 3729 3738 3737 
3990 3991 4000 3999 3729 3730 3739 3738 
3991 3992 4001 4000 3730 3731 3740 3739 
3992 3993 4002 4001 3731 3732 3741 3740 
3993 3994 4003 4002 3732 3733 3742 3741 
3994 3995 4004 4003 3733 3734 3743 3742 
3995 3996 4005 4004 3734 3735 3744 3743 
3996 3997 4006 4005 3735 3736 3745 3744 
3997 1289 1290 4006 3736 1260 1261 3745 
1029 3998 4007 1030 1000 3737 3746 1001 
3998 3999 4008 4007 3737 3738 3747 3746 
3999 4000 4009 4008 3738 3739 3748 3747 
4000 4001 4010 4009 3739 3740 3749 3748 
4001 4002 4011 4010 3740 3741 3750 3749 
4002 4003 4012 4011 3741 3742 3751 3750 
4003 4004 4013 4012 3742 3743 3752 3751 
4004 4005 4014 4013 3743 3744 3753 3752 
4005 4006 4015 4014 3744 3745 3754 3753 
4006 1290 1291 4015 3745 1261 1262 3754 
1030 4007 4016 1031 1001 3746 3755 1002 
4007 4008 4017 4016 3746 3747 3756 3755 
4008 4009 4018 4017 3747 3748 3757 3756 
4009 4010 4019 4018 3748 3749 3758 3757 
4010 4011 4020 4019 3749 3750 3759 3758 
4011 4012 4021 4020 3750 3751 3760 3759 
4012 4013 4022 4021 3751 3752 3761 3760 
4013 4014 4023 4022 3752 3753 3762 3761 
4014 4015 4024 4023 3753 3754 3763 3762 
4015 1291 1292 4024 3754 1262 1263 3763 
1031 4016 4025 1032 1002 3755 3764 1003 
4016 4017 4026 4025 3755 3756 3765 3764 
4017 4018 4027 4026 3756 3757 3766 3765 
4018 4019 4028 4027 3757 3758 3767 3766 
4019 4020 4029 4028 3758 3759 3768 3767 
4020 4021 4030 4029 3759 3760 3769 3768 
4021 4022 4031 4030 3760 3761 3770 3769 
4022 4023 4032 4031 3761 3762 3771 3770 
4023 4024 4033 4032 3762 3763 3772 3771 
4024 1292 1293 4033 3763 1263 1264 3772 
1032 4025 4034 1033 1003 3764 3773 1004 
4025 4026 4035 4034 3764 3765 3774 3773 
4026 4027 4036 4035 3765 3766 3775 3774 
4027 4028 4037 4036 3766 3767 3776 3775 
4028 4029 4038 4037 3767 3768 3777 3776 
4029 4030 4039 4038 3768 3769 3778 3777 
4030 4031 4040 4039 3769 3770 3779 3778 
4031 4032 4041 4040 3770 3771 3780 3779 
4032 4033 4042 4041 3771 3772 3781 3780 
4033 1293 1294 4042 3772 1264 1265 3781 
1033 4034 4043 1034 1004 3773 3782 1005 
4034 4035 4044 4043 3773 3774 3783 3782 
4035 4036 4045 4044 3774 3775 3784 3783 
4036 4037 4046 4045 3775 3776 3785 3784 
4037 4038 4047 4046 3776 3777 3786 3785 
4038 4039 4048 4047 3777 3778 3787 3786 
4039 4040 4049 4048 3778 3779 3788 3787 
4040 4041 4050 4049 3779 3780 3789 3788 
4041 4042 4051 4050 3780 3781 3790 3789 
4042 1294 1295 4051 3781 1265 1266 3790 
1034 4043 4052 1035 1005 3782 3791 1006 
4043 4044 4053 4052 3782 3783 3792 3791 
4044 4045 4054 4053 3783 3784 3793 3792 
4045 4046 4055 4054 3784 3785 3794 3793 
4046 4047 4056 4055 3785 3786 3795 3794 
4047 4048 4057 4056 3786 3787 3796 3795 
4048 4049 4058 4057 3787 3788 3797 3796 
4049 4050 4059 4058 3788 3789 3798 3797 
4050 4051 4060 4059 3789 3790 3799 3798 
4051 1295 1296 4060 3790 1266 1267 3799 
1035 4052 4061 1036 1006 3791 3800 1007 
4052 4053 4062 4061 3791 3792 3801 3800 
4053 4054 4063 4062 3792 3793 3802 3801 
4054 4055 4064 4063 3793 3794 3803 3802 
4055 4056 4065 4064 3794 3795 3804 3803 
4056 4057 4066 4065 3795 3796 3805 3804 
4057 4058 4067 4066 3796 3797 3806 3805 
4058 4059 4068 4067 3797 3798 3807 3806 
4059 4060 4069 4068 3798 3799 3808 3807 
4060 1296 1297 4069 3799 1267 1268 3808 
1036 4061 4070 1037 1007 3800 3809 1008 
4061 4062 4071 4070 3800 3801 3810 3809 
4062 4063 4072 4071 3801 3802 3811 3810 
4063 4064 4073 4072 3802 3803 3812 3811 
4064 4065 4074 4073 3803 3804 3813 3812 
4065 4066 4075 4074 3804 3805 3814 3813 
4066 4067 4076 4075 3805 3806 3815 3814 
4067 4068 4077 4076 3806 3807 3816 3815 
4068 4069 4078 4077 3807 3808 3817 3816 
4069 1297 1298 4078 3808 1268 1269 3817 
1037 4070 4079 1038 1008 3809 3818 1009 
4070 4071 4080 4079 3809 3810 3819 3818 
4071 4072 4081 4080 3810 3811 3820 3819 
4072 4073 4082 4081 3811 3812 3821 3820 
4073 4074 4083 4082 3812 3813 3822 3821 
4074 4075 4084 4083 3813 3814 3823 3822 
4075 4076 4085 4084 3814 3815 3824 3823 
4076 4077 4086 4085 3815 3816 3825 3824 
4077 4078 4087 4086 3816 3817 3826 3825 
4078 1298 1299 4087 3817 1269 1270 3826 
1038 4079 4088 1039 1009 3818 3827 1010 
4079 4080 4089 4088 3818 3819 3828 3827 
4080 4081 4090 4089 3819 3820 3829 3828 
4081 4082 4091 4090 3820 3821 3830 3829 
4082 4083 4092 4091 3821 3822 3831 3830 
4083 4084 4093 4092 3822 3823 3832 3831 
4084 4085 4094 4093 3823 3824 3833 3832 
4085 4086 4095 4094 3824 3825 3834 3833 
4086 4087 4096 4095 3825 3826 3835 3834 
4087 1299 1300 4096 3826 1270 1271 3835 
1039 4088 4097 1040 1010 3827 3836 1011 
4088 4089 4098 4097 3827 3828 3837 3836 
4089 4090 4099 4098 3828 3829 3838 3837 
4090 4091 4100 4099 3829 3830 3839 3838 
4091 4092 4101 4100 3830 3831 3840 3839 
4092 4093 4102 4101 3831 3832 3841 3840 
4093 4094 4103 4102 3832 3833 3842 3841 
4094 4095 4104 4103 3833 3834 3843 3842 
4095 4096 4105 4104 3834 3835 3844 3843 
4096 1300 1301 4105 3835 1271 1272 3844 
1040 4097 4106 1041 1011 3836 3845 1012 
4097 4098 4107 4106 3836 3837 3846 3845 
4098 4099 4108 4107 3837 3838 3847 3846 
4099 4100 4109 4108 3838 3839 3848 3847 
4100 4101 4110 4109 3839 3840 3849 3848 
4101 4102 4111 4110 3840 3841 3850 3849 
4102 4103 4112 4111 3841 3842 3851 3850 
4103 4104 4113 4112 3842 3843 3852 3851 
4104 4105 4114 4113 3843 3844 3853 3852 
4105 1301 1302 4114 3844 1272 1273 3853 
1041 4106 4115 1042 1012 3845 3854 1013 
4106 4107 4116 4115 3845 3846 3855 3854 
4107 4108 4117 4116 3846 3847 3856 3855 
4108 4109 4118 4117 3847 3848 3857 3856 
4109 4110 4119 4118 3848 3849 3858 3857 
4110 4111 4120 4119 3849 3850 3859 3858 
4111 4112 4121 4120 3850 3851 3860 3859 
4112 4113 4122 4121 3851 3852 3861 3860 
4113 4114 4123 4122 3852 3853 3862 3861 
4114 1302 1303 4123 3853 1273 1274 3862 
1042 4115 4124 1043 1013 3854 3863 1014 
4115 4116 4125 4124 3854 3855 3864 3863 
4116 4117 4126 4125 3855 3856 3865 3864 
4117 4118 4127 4126 3856 3857 3866 3865 
4118 4119 4128 4127 3857 3858 3867 3866 
4119 4120 4129 4128 3858 3859 3868 3867 
4120 4121 4130 4129 3859 3860 3869 3868 
4121 4122 4131 4130 3860 3861 3870 3869 
4122 4123 4132 4131 3861 3862 3871 3870 
4123 1303 1304 4132 3862 1274 1275 3871 
1043 4124 4133 1044 1014 3863 3872 1015 
4124 4125 4134 4133 3863 3864 3873 3872 
4125 4126 4135 4134 3864 3865 3874 3873 
4126 4127 4136 4135 3865 3866 3875 3874 
4127 4128 4137 4136 3866 3867 3876 3875 
4128 4129 4138 4137 3867 3868 3877 3876 
4129 4130 4139 4138 3868 3869 3878 3877 
4130 4131 4140 4139 3869 3870 3879 3878 
4131 4132 4141 4140 3870 3871 3880 3879 
4132 1304 1305 4141 3871 1275 1276 3880 
1044 4133 4142 1045 1015 3872 3881 1016 
4133 4134 4143 4142 3872 3873 3882 3881 
4134 4135 4144 4143 3873 3874 3883 3882 
4135 4136 4145 4144 3874 3875 3884 3883 
4136 4137 4146 4145 3875 3876 3885 3884 
4137 4138 4147 4146 3876 3877 3886 3885 
4138 4139 4148 4147 3877 3878 3887 3886 
4139 4140 4149 4148 3878 3879 3888 3887 
4140 4141 4150 4149 3879 3880 3889 3888 
4141 1305 1306 4150 3880 1276 1277 3889 
1045 4142 4151 1046 1016 3881 3890 1017 
4142 4143 4152 4151 3881 3882 3891 3890 
4143 4144 4153 4152 3882 3883 3892 3891 
4144 4145 4154 4153 3883 3884 3893 3892 
4145 4146 4155 4154 3884 3885 3894 3893 
4146 4147 4156 4155 3885 3886 3895 3894 
4147 4148 4157 4156 3886 3887 3896 3895 
4148 4149 4158 4157 3887 3888 3897 3896 
4149 4150 4159 4158 3888 3889 3898 3897 
4150 1306 1307 4159 3889 1277 1278 3898 
1046 4151 4160 1047 1017 3890 3899 1018 
4151 4152 4161 4160 3890 3891 3900 3899 
4152 4153 4162 4161 3891 3892 3901 3900 
4153 4154 4163 4162 3892 3893 3902 3901 
4154 4155 4164 4163 3893 3894 3903 3902 
4155 4156 4165 4164 3894 3895 3904 3903 
4156 4157 4166 4165 3895 3896 3905 3904 
4157 4158 4167 4166 3896 3897 3906 3905 
4158 4159 4168 4167 3897 3898 3907 3906 
4159 1307 1308 4168 3898 1278 1279 3907 
1047 4160 4169 1048 1018 3899 3908 1019 
4160 4161 4170 4169 3899 3900 3909 3908 
4161 4162 4171 4170 3900 3901 3910 3909 
4162 4163 4172 4171 3901 3902 3911 3910 
4163 4164 4173 4172 3902 3903 3912 3911 
4164 4165 4174 4173 3903 3904 3913 3912 
4165 4166 4175 4174 3904 3905 3914 3913 
4166 4167 4176 4175 3905 3906 3915 3914 
4167 4168 4177 4176 3906 3907 3916 3915 
4168 1308 1309 4177 3907 1279 1280 3916 
1048 4169 4178 1049 1019 3908 3917 1020 
4169 4170 4179 4178 3908 3909 3918 3917 
4170 4171 4180 4179 3909 3910 3919 3918 
4171 4172 4181 4180 3910 3911 3920 3919 
4172 4173 4182 4181 3911 3912 3921 3920 
4173 4174 4183 4182 3912 3913 3922 3921 
4174 4175 4184 4183 3913 3914 3923 3922 
4175 4176 4185 4184 3914 3915 3924 3923 
4176 4177 4186 4185 3915 3916 3925 3924 
4177 1309 1310 4186 3916 1280 1281 3925 
1049 4178 4187 1050 1020 3917 3926 1021 
4178 4179 4188 4187 3917 3918 3927 3926 
4179 4180 4189 4188 3918 3919 3928 3927 
4180 4181 4190 4189 3919 3920 3929 3928 
4181 4182 4191 4190 3920 3921 3930 3929 
4182 4183 4192 4191 3921 3922 3931 3930 
4183 4184 4193 4192 3922 3923 3932 3931 
4184 4185 4194 4193 3923 3924 3933 3932 
4185 4186 4195 4194 3924 3925 3934 3933 
4186 1310 1311 4195 3925 1281 1282 3934 
1050 4187 4196 1051 1021 3926 3935 1022 
4187 4188 4197 4196 3926 3927 3936 3935 
4188 4189 4198 4197 3927 3928 3937 3936 
4189 4190 4199 4198 3928 3929 3938 3937 
4190 4191 4200 4199 3929 3930 3939 3938 
4191 4192 4201 4200 3930 3931 3940 3939 
4192 4193 4202 4201 3931 3932 3941 3940 
4193 4194 4203 4202 3932 3933 3942 3941 
4194 4195 4204 4203 3933 3934 3943 3942 
4195 1311 1312 4204 3934 1282 1283 3943 
1051 4196 4205 1052 1022 3935 3944 1023 
4196 4197 4206 4205 3935 3936 3945 3944 
4197 4198 4207 4206 3936 3937 3946 3945 
4198 4199 4208 4207 3937 3938 3947 3946 
4199 4200 4209 4208 3938 3939 3948 3947 
4200 4201 4210 4209 3939 3940 3949 3948 
4201 4202 4211 4210 3940 3941 3950 3949 
4202 4203 4212 4211 3941 3942 3951 3950 
4203 4204 4213 4212 3942 3943 3952 3951 
4204 1312 1313 4213 3943 1283 1284 3952 
1052 4205 4214 1053 1023 3944 3953 1024 
4205 4206 4215 4214 3944 3945 3954 3953 
4206 4207 4216 4215 3945 3946 3955 3954 
4207 4208 4217 4216 3946 3947 3956 3955 
4208 4209 4218 4217 3947 3948 3957 3956 
4209 4210 4219 4218 3948 3949 3958 3957 
4210 4211 4220 4219 3949 3950 3959 3958 
4211 4212 4221 4220 3950 3951 3960 3959 
4212 4213 4222 4221 3951 3952 3961 3960 
4213 1313 1314 4222 3952 1284 1285 3961 
1053 4214 4223 1054 1024 3953 3962 1025 
4214 4215 4224 4223 3953 3954 3963 3962 
4215 4216 4225 4224 3954 3955 3964 3963 
4216 4217 4226 4225 3955 3956 3965 3964 
4217 4218 4227 4226 3956 3957 3966 3965 
4218 4219 4228 4227 3957 3958 3967 3966 
4219 4220 4229 4228 3958 3959 3968 3967 
4220 4221 4230 4229 3959 3960 3969 3968 
4221 4222 4231 4230 3960 3961 3970 3969 
4222 1314 1315 4231 3961 1285 1286 3970 
1054 4223 1469 172 1025 3962 1460 171 
4223 4224 1470 1469 3962 3963 1461 1460 
4224 4225 1471 1470 3963 3964 1462 1461 
4225 4226 1472 1471 3964 3965 1463 1462 
4226 4227 1473 1472 3965 3966 1464 1463 
4227 4228 1474 1473 3966 3967 1465 1464 
4228 4229 1475 1474 3967 3968 1466 1465 
4229 4230 1476 1475 3968 3969 1467 1466 
4230 4231 1477 1476 3969 3970 1468 1467 
4231 1315 182 1477 3970 1286 183 1468 
7 96 533 135 173 1388 3971 1026 
96 95 534 533 1388 1389 3972 3971 
95 94 535 534 1389 1390 3973 3972 
94 93 536 535 1390 1391 3974 3973 
93 92 537 536 1391 1392 3975 3974 
92 91 538 537 1392 1393 3976 3975 
91 90 539 538 1393 1394 3977 3976 
90 89 540 539 1394 1395 3978 3977 
89 88 541 540 1395 1396 3979 3978 
88 4 125 541 1396 199 1287 3979 
135 533 542 136 1026 3971 3980 1027 
533 534 543 542 3971 3972 3981 3980 
534 535 544 543 3972 3973 3982 3981 
535 536 545 544 3973 3974 3983 3982 
536 537 546 545 3974 3975 3984 3983 
537 538 547 546 3975 3976 3985 3984 
538 539 548 547 3976 3977 3986 3985 
539 540 549 548 3977 3978 3987 3986 
540 541 550 549 3978 3979 3988 3987 
541 125 124 550 3979 1287 1288 3988 
136 542 551 137 1027 3980 3989 1028 
542 543 552 551 3980 3981 3990 3989 
543 544 553 552 3981 3982 3991 3990 
544 545 554 553 3982 3983 3992 3991 
545 546 555 554 3983 3984 3993 3992 
546 547 556 555 3984 3985 3994 3993 
547 548 557 556 3985 3986 3995 3994 
548 549 558 557 3986 3987 3996 3995 
549 550 559 558 3987 3988 3997 3996 
550 124 123 559 3988 1288 1289 3997 
137 551 560 138 1028 3989 3998 1029 
551 552 561 560 3989 3990 3999 3998 
552 553 562 561 3990 3991 4000 3999 
553 554 563 562 3991 3992 4001 4000 
554 555 564 563 3992 3993 4002 4001 
555 556 565 564 3993 3994 4003 4002 
556 557 566 565 3994 3995 4004 4003 
557 558 567 566 3995 3996 4005 4004 
558 559 568 567 3996 3997 4006 4005 
559 123 122 568 3997 1289 1290 4006 
138 560 569 139 1029 3998 4007 1030 
560 561 570 569 3998 3999 4008 4007 
561 562 571 570 3999 4000 4009 4008 
562 563 572 571 4000 4001 4010 4009 
563 564 573 572 4001 4002 4011 4010 
564 565 574 573 4002 4003 4012 4011 
565 566 575 574 4003 4004 4013 4012 
566 567 576 575 4004 4005 4014 4013 
567 568 577 576 4005 4006 4015 4014 
568 122 121 577 4006 1290 1291 4015 
139 569 578 140 1030 4007 4016 1031 
569 570 579 578 4007 4008 4017 4016 
570 571 580 579 4008 4009 4018 4017 
571 572 581 580 4009 4010 4019 4018 
572 573 582 581 4010 4011 4020 4019 
573 574 583 582 4011 4012 4021 4020 
574 575 584 583 4012 4013 4022 4021 
575 576 585 584 4013 4014 4023 4022 
576 577 586 585 4014 4015 4024 4023 
577 121 120 586 4015 1291 1292 4024 
140 578 587 141 1031 4016 4025 1032 
578 579 588 587 4016 4017 4026 4025 
579 580 589 588 4017 4018 4027 4026 
580 581 590 589 4018 4019 4028 4027 
581 582 591 590 4019 4020 4029 4028 
582 583 592 591 4020 4021 4030 4029 
583 584 593 592 4021 4022 4031 4030 
584 585 594 593 4022 4023 4032 4031 
585 586 595 594 4023 4024 4033 4032 
586 120 119 595 4024 1292 1293 4033 
141 587 596 142 1032 4025 4034 1033 
587 588 597 596 4025 4026 4035 4034 
588 589 598 597 4026 4027 4036 4035 
589 590 599 598 4027 4028 4037 4036 
590 591 600 599 4028 4029 4038 4037 
591 592 601 600 4029 4030 4039 4038 
592 593 602 601 4030 4031 4040 4039 
593 594 603 602 4031 4032 4041 4040 
594 595 604 603 4032 4033 4042 4041 
595 119 118 604 4033 1293 1294 4042 
142 596 605 143 1033 4034 4043 1034 
596 597 606 605 4034 4035 4044 4043 
597 598 607 606 4035 4036 4045 4044 
598 599 608 607 4036 4037 4046 4045 
599 600 609 608 4037 4038 4047 4046 
600 601 610 609 4038 4039 4048 4047 
601 602 611 610 4039 4040 4049 4048 
602 603 612 611 4040 4041 4050 4049 
603 604 613 612 4041 4042 4051 4050 
604 118 117 613 4042 1294 1295 4051 
143 605 614 144 1034 4043 4052 1035 
605 606 615 614 4043 4044 4053 4052 
606 607 616 615 4044 4045 4054 4053 
607 608 617 616 4045 4046 4055 4054 
608 609 618 617 4046 4047 4056 4055 
609 610 619 618 4047 4048 4057 4056 
610 611 620 619 4048 4049 4058 4057 
611 612 621 620 4049 4050 4059 4058 
612 613 622 621 4050 4051 4060 4059 
613 117 116 622 4051 1295 1296 4060 
144 614 623 145 1035 4052 4061 1036 
614 615 624 623 4052 4053 4062 4061 
615 616 625 624 4053 4054 4063 4062 
616 617 626 625 4054 4055 4064 4063 
617 618 627 626 4055 4056 4065 4064 
618 619 628 627 4056 4057 4066 4065 
619 620 629 628 4057 4058 4067 4066 
620 621 630 629 4058 4059 4068 4067 
621 622 631 630 4059 4060 4069 4068 
622 116 115 631 4060 1296 1297 4069 
145 623 632 146 1036 4061 4070 1037 
623 624 633 632 4061 4062 4071 4070 
624 625 634 633 4062 4063 4072 4071 
625 626 635 634 4063 4064 4073 4072 
626 627 636 635 4064 4065 4074 4073 
627 628 637 636 4065 4066 4075 4074 
628 629 638 637 4066 4067 4076 4075 
629 630 639 638 4067 4068 4077 4076 
630 631 640 639 4068 4069 4078 4077 
631 115 114 640 4069 1297 1298 4078 
146 632 641 147 1037 4070 4079 1038 
632 633 642 641 4070 4071 4080 4079 
633 634 643 642 4071 4072 4081 4080 
634 635 644 643 4072 4073 4082 4081 
635 636 645 644 4073 4074 4083 4082 
636 637 646 645 4074 4075 4084 4083 
637 638 647 646 4075 4076 4085 4084 
638 639 648 647 4076 4077 4086 4085 
639 640 649 648 4077 4078 4087 4086 
640 114 113 649 4078 1298 1299 4087 
147 641 650 148 1038 4079 4088 1039 
641 642 651 650 4079 4080 4089 4088 
642 643 652 651 4080 4081 4090 4089 
643 644 653 652 4081 4082 4091 4090 
644 645 654 653 4082 4083 4092 4091 
645 646 655 654 4083 4084 4093 4092 
646 647 656 655 4084 4085 4094 4093 
647 648 657 656 4085 4086 4095 4094 
648 649 658 657 4086 4087 4096 4095 
649 113 112 658 4087 1299 1300 4096 
148 650 659 149 1039 4088 4097 1040 
650 651 660 659 4088 4089 4098 4097 
651 652 661 660 4089 4090 4099 4098 
652 653 662 661 4090 4091 4100 4099 
653 654 663 662 4091 4092 4101 4100 
654 655 664 663 4092 4093 4102 4101 
655 656 665 664 4093 4094 4103 4102 
656 657 666 665 4094 4095 4104 4103 
657 658 667 666 4095 4096 4105 4104 
658 112 111 667 4096 1300 1301 4105 
149 659 668 150 1040 4097 4106 1041 
659 660 669 668 4097 4098 4107 4106 
660 661 670 669 4098 4099 4108 4107 
661 662 671 670 4099 4100 4109 4108 
662 663 672 671 4100 4101 4110 4109 
663 664 673 672 4101 4102 4111 4110 
664 665 674 673 4102 4103 4112 4111 
665 666 675 674 4103 4104 4113 4112 
666 667 676 675 4104 4105 4114 4113 
667 111 110 676 4105 1301 1302 4114 
150 668 677 151 1041 4106 4115 1042 
668 669 678 677 4106 4107 4116 4115 
669 670 679 678 4107 4108 4117 4116 
670 671 680 679 4108 4109 4118 4117 
671 672 681 680 4109 4110 4119 4118 
672 673 682 681 4110 4111 4120 4119 
673 674 683 682 4111 4112 4121 4120 
674 675 684 683 4112 4113 4122 4121 
675 676 685 684 4113 4114 4123 4122 
676 110 109 685 4114 1302 1303 4123 
151 677 686 152 1042 4115 4124 1043 
677 678 687 686 4115 4116 4125 4124 
678 679 688 687 4116 4117 4126 4125 
679 680 689 688 4117 4118 4127 4126 
680 681 690 689 4118 4119 4128 4127 
681 682 691 690 4119 4120 4129 4128 
682 683 692 691 4120 4121 4130 4129 
683 684 693 692 4121 4122 4131 4130 
684 685 694 693 4122 4123 4132 4131 
685 109 108 694 4123 1303 1304 4132 
152 686 695 153 1043 4124 4133 1044 
686 687 696 695 4124 4125 4134 4133 
687 688 697 696 4125 4126 4135 4134 
688 689 698 697 4126 4127 4136 4135 
689 690 699 698 4127 4128 4137 4136 
690 691 700 699 4128 4129 4138 4137 
691 692 701 700 4129 4130 4139 4138 
692 693 702 701 4130 4131 4140 4139 
693 694 703 702 4131 4132 4141 4140 
694 108 107 703 4132 1304 1305 4141 
153 695 704 154 1044 4133 4142 1045 
695 696 705 704 4133 4134 4143 4142 
696 697 706 705 4134 4135 4144 4143 
697 698 707 706 4135 4136 4145 4144 
698 699 708 707 4136 4137 4146 4145 
699 700 709 708 4137 4138 4147 4146 
700 701 710 709 4138 4139 4148 4147 
701 702 711 710 4139 4140 4149 4148 
702 703 712 711 4140 4141 4150 4149 
703 107 106 712 4141 1305 1306 4150 
154 704 713 155 1045 4142 4151 1046 
704 705 714 713 4142 4143 4152 4151 
705 706 715 714 4143 4144 4153 4152 
706 707 716 715 4144 4145 4154 4153 
707 708 717 716 4145 4146 4155 4154 
708 709 718 717 4146 4147 4156 4155 
709 710 719 718 4147 4148 4157 4156 
710 711 720 719 4148 4149 4158 4157 
711 712 721 720 4149 4150 4159 4158 
712 106 105 721 4150 1306 1307 4159 
155 713 722 156 1046 4151 4160 1047 
713 714 723 722 4151 4152 4161 4160 
714 715 724 723 4152 4153 4162 4161 
715 716 725 724 4153 4154 4163 4162 
716 717 726 725 4154 4155 4164 4163 
717 718 727 726 4155 4156 4165 4164 
718 719 728 727 4156 4157 4166 4165 
719 720 729 728 4157 4158 4167 4166 
720 721 730 729 4158 4159 4168 4167 
721 105 104 730 4159 1307 1308 4168 
156 722 731 157 1047 4160 4169 1048 
722 723 732 731 4160 4161 4170 4169 
723 724 733 732 4161 4162 4171 4170 
724 725 734 733 4162 4163 4172 4171 
725 726 735 734 4163 4164 4173 4172 
726 727 736 735 4164 4165 4174 4173 
727 728 737 736 4165 4166 4175 4174 
728 729 738 737 4166 4167 4176 4175 
729 730 739 738 4167 4168 4177 4176 
730 104 103 739 4168 1308 1309 4177 
157 731 740 158 1048 4169 4178 1049 
731 732 741 740 4169 4170 4179 4178 
732 733 742 741 4170 4171 4180 4179 
733 734 743 742 4171 4172 4181 4180 
734 735 744 743 4172 4173 4182 4181 
735 736 745 744 4173 4174 4183 4182 
736 737 746 745 4174 4175 4184 4183 
737 738 747 746 4175 4176 4185 4184 
738 739 748 747 4176 4177 4186 4185 
739 103 102 748 4177 1309 1310 4186 
158 740 749 159 1049 4178 4187 1050 
740 741 750 749 4178 4179 4188 4187 
741 742 751 750 4179 4180 4189 4188 
742 743 752 751 4180 4181 4190 4189 
743 744 753 752 4181 4182 4191 4190 
744 745 754 753 4182 4183 4192 4191 
745 746 755 754 4183 4184 4193 4192 
746 747 756 755 4184 4185 4194 4193 
747 748 757 756 4185 4186 4195 4194 
748 102 101 757 4186 1310 1311 4195 
159 749 758 160 1050 4187 4196 1051 
749 750 759 758 4187 4188 4197 4196 
750 751 760 759 4188 4189 4198 4197 
751 752 761 760 4189 4190 4199 4198 
752 753 762 761 4190 4191 4200 4199 
753 754 763 762 4191 4192 4201 4200 
754 755 764 763 4192 4193 4202 4201 
755 756 765 764 4193 4194 4203 4202 
756 757 766 765 4194 4195 4204 4203 
757 101 100 766 4195 1311 1312 4204 
160 758 767 161 1051 4196 4205 1052 
758 759 768 767 4196 4197 4206 4205 
759 760 769 768 4197 4198 4207 4206 
760 761 770 769 4198 4199 4208 4207 
761 762 771 770 4199 4200 4209 4208 
762 763 772 771 4200 4201 4210 4209 
763 764 773 772 4201 4202 4211 4210 
764 765 774 773 4202 4203 4212 4211 
765 766 775 774 4203 4204 4213 4212 
766 100 99 775 4204 1312 1313 4213 
161 767 776 162 1052 4205 4214 1053 
767 768 777 776 4205 4206 4215 4214 
768 769 778 777 4206 4207 4216 4215 
769 770 779 778 4207 4208 4217 4216 
770 771 780 779 4208 4209 4218 4217 
771 772 781 780 4209 4210 4219 4218 
772 773 782 781 4210 4211 4220 4219 
773 774 783 782 4211 4212 4221 4220 
774 775 784 783 4212 4213 4222 4221 
775 99 98 784 4213 1313 1314 4222 
162 776 785 163 1053 4214 4223 1054 
776 777 786 785 4214 4215 4224 4223 
777 778 787 786 4215 4216 4225 4224 
778 779 788 787 4216 4217 4226 4225 
779 780 789 788 4217 4218 4227 4226 
780 781 790 789 4218 4219 4228 4227 
781 782 791 790 4219 4220 4229 4228 
782 783 792 791 4220 4221 4230 4229 
783 784 793 792 4221 4222 4231 4230 
784 98 97 793 4222 1314 1315 4231 
163 785 126 6 1054 4223 1469 172 
785 786 127 126 4223 4224 1470 1469 
786 787 128 127 4224 4225 1471 1470 
787 788 129 128 4225 4226 1472 1471 
788 789 130 129 4226 4227 1473 1472 
789 790 131 130 4227 4228 1474 1473 
790 791 132 131 4228 4229 1475 1474 
791 792 133 132 4229 4230 1476 1475 
792 793 134 133 4230 4231 1477 1476 
793 97 5 134 4231 1315 182 1477 
191 1324 4232 1640 1 20 1478 226 
1324 1323 4233 4232 20 19 1479 1478 
1323 1322 4234 4233 19 18 1480 1479 
1322 1321 4235 4234 18 17 1481 1480 
1321 1320 4236 4235 17 16 1482 1481 
1320 1319 4237 4236 16 15 1483 1482 
1319 1318 4238 4237 15 14 1484 1483 
1318 1317 4239 4238 14 13 1485 1484 
1317 1316 4240 4239 13 12 1486 1485 
1316 181 1721 4240 12 0 200 1486 
1640 4232 4241 1641 226 1478 1487 225 
4232 4233 4242 4241 1478 1479 1488 1487 
4233 4234 4243 4242 1479 1480 1489 1488 
4234 4235 4244 4243 1480 1481 1490 1489 
4235 4236 4245 4244 1481 1482 1491 1490 
4236 4237 4246 4245 1482 1483 1492 1491 
4237 4238 4247 4246 1483 1484 1493 1492 
4238 4239 4248 4247 1484 1485 1494 1493 
4239 4240 4249 4248 1485 1486 1495 1494 
4240 1721 1722 4249 1486 200 201 1495 
1641 4241 4250 1642 225 1487 1496 224 
4241 4242 4251 4250 1487 1488 1497 1496 
4242 4243 4252 4251 1488 1489 1498 1497 
4243 4244 4253 4252 1489 1490 1499 1498 
4244 4245 4254 4253 1490 1491 1500 1499 
4245 4246 4255 4254 1491 1492 1501 1500 
4246 4247 4256 4255 1492 1493 1502 1501 
4247 4248 4257 4256 1493 1494 1503 1502 
4248 4249 4258 4257 1494 1495 1504 1503 
4249 1722 1723 4258 1495 201 202 1504 
1642 4250 4259 1643 224 1496 1505 223 
4250 4251 4260 4259 1496 1497 1506 1505 
4251 4252 4261 4260 1497 1498 1507 1506 
4252 4253 4262 4261 1498 1499 1508 1507 
4253 4254 4263 4262 1499 1500 1509 1508 
4254 4255 4264 4263 1500 1501 1510 1509 
4255 4256 4265 4264 1501 1502 1511 1510 
4256 4257 4266 4265 1502 1503 1512 1511 
4257 4258 4267 4266 1503 1504 1513 1512 
4258 1723 1724 4267 1504 202 203 1513 
1643 4259 4268 1644 223 1505 1514 222 
4259 4260 4269 4268 1505 1506 1515 1514 
4260 4261 4270 4269 1506 1507 1516 1515 
4261 4262 4271 4270 1507 1508 1517 1516 
4262 4263 4272 4271 1508 1509 1518 1517 
4263 4264 4273 4272 1509 1510 1519 1518 
4264 4265 4274 4273 1510 1511 1520 1519 
4265 4266 4275 4274 1511 1512 1521 1520 
4266 4267 4276 4275 1512 1513 1522 1521 
4267 1724 1725 4276 1513 203 204 1522 
1644 4268 4277 1645 222 1514 1523 221 
4268 4269 4278 4277 1514 1515 1524 1523 
4269 4270 4279 4278 1515 1516 1525 1524 
4270 4271 4280 4279 1516 1517 1526 1525 
4271 4272 4281 4280 1517 1518 1527 1526 
4272 4273 4282 4281 1518 1519 1528 1527 
4273 4274 4283 4282 1519 1520 1529 1528 
4274 4275 4284 4283 1520 1521 1530 1529 
4275 4276 4285 4284 1521 1522 1531 1530 
4276 1725 1726 4285 1522 204 205 1531 
1645 4277 4286 1646 221 1523 1532 220 
4277 4278 4287 4286 1523 1524 1533 1532 
4278 4279 4288 4287 1524 1525 1534 1533 
4279 4280 4289 4288 1525 1526 1535 1534 
4280 4281 4290 4289 1526 1527 1536 1535 
4281 4282 4291 4290 1527 1528 1537 1536 
4282 4283 4292 4291 1528 1529 1538 1537 
4283 4284 4293 4292 1529 1530 1539 1538 
4284 4285 4294 4293 1530 1531 1540 1539 
4285 1726 1727 4294 1531 205 206 1540 
1646 4286 4295 1647 220 1532 1541 219 
4286 4287 4296 4295 1532 1533 1542 1541 
4287 4288 4297 4296 1533 1534 1543 1542 
4288 4289 4298 4297 1534 1535 1544 1543 
4289 4290 4299 4298 1535 1536 1545 1544 
4290 4291 4300 4299 1536 1537 1546 1545 
4291 4292 4301 4300 1537 1538 1547 1546 
4292 4293 4302 4301 1538 1539 1548 1547 
4293 4294 4303 4302 1539 1540 1549 1548 
4294 1727 1728 4303 1540 206 207 1549 
1647 4295 4304 1648 219 1541 1550 218 
4295 4296 4305 4304 1541 1542 1551 1550 
4296 4297 4306 4305 1542 1543 1552 1551 
4297 4298 4307 4306 1543 1544 1553 1552 
4298 4299 4308 4307 1544 1545 1554 1553 
4299 4300 4309 4308 1545 1546 1555 1554 
4300 4301 4310 4309 1546 1547 1556 1555 
4301 4302 4311 4310 1547 1548 1557 1556 
4302 4303 4312 4311 1548 1549 1558 1557 
4303 1728 1729 4312 1549 207 208 1558 
1648 4304 1802 254 218 1550 217 9 
4304 4305 1803 1802 1550 1551 216 217 
4305 4306 1804 1803 1551 1552 215 216 
4306 4307 1805 1804 1552 1553 214 215 
4307 4308 1806 1805 1553 1554 213 214 
4308 4309 1807 1806 1554 1555 212 213 
4309 4310 1808 1807 1555 1556 211 212 
4310 4311 1809 1808 1556 1557 210 211 
4311 4312 1810 1809 1557 1558 209 210 
4312 1729 271 1810 1558 208 8 209 
192 1333 4313 1649 191 1324 4232 1640 
1333 1332 4314 4313 1324 1323 4233 4232 
1332 1331 4315 4314 1323 1322 4234 4233 
1331 1330 4316 4315 1322 1321 4235 4234 
1330 1329 4317 4316 1321 1320 4236 4235 
1329 1328 4318 4317 1320 1319 4237 4236 
1328 1327 4319 4318 1319 1318 4238 4237 
1327 1326 4320 4319 1318 1317 4239 4238 
1326 1325 4321 4320 1317 1316 4240 4239 
1325 180 1730 4321 1316 181 1721 4240 
1649 4313 4322 1650 1640 4232 4241 1641 
4313 4314 4323 4322 4232 4233 4242 4241 
4314 4315 4324 4323 4233 4234 4243 4242 
4315 4316 4325 4324 4234 4235 4244 4243 
4316 4317 4326 4325 4235 4236 4245 4244 
4317 4318 4327 4326 4236 4237 4246 4245 
4318 4319 4328 4327 4237 4238 4247 4246 
4319 4320 4329 4328 4238 4239 4248 4247 
4320 4321 4330 4329 4239 4240 4249 4248 
4321 1730 1731 4330 4240 1721 1722 4249 
1650 4322 4331 1651 1641 4241 4250 1642 
4322 4323 4332 4331 4241 4242 4251 4250 
4323 4324 4333 4332 4242 4243 4252 4251 
4324 4325 4334 4333 4243 4244 4253 4252 
4325 4326 4335 4334 4244 4245 4254 4253 
4326 4327 4336 4335 4245 4246 4255 4254 
4327 4328 4337 4336 4246 4247 4256 4255 
4328 4329 4338 4337 4247 4248 4257 4256 
4329 4330 4339 4338 4248 4249 4258 4257 
4330 1731 1732 4339 4249 1722 1723 4258 
1651 4331 4340 1652 1642 4250 4259 1643 
4331 4332 4341 4340 4250 4251 4260 4259 
4332 4333 4342 4341 4251 4252 4261 4260 
4333 4334 4343 4342 4252 4253 4262 4261 
4334 4335 4344 4343 4253 4254 4263 4262 
4335 4336 4345 4344 4254 4255 4264 4263 
4336 4337 4346 4345 4255 4256 4265 4264 
4337 4338 4347 4346 4256 4257 4266 4265 
4338 4339 4348 4347 4257 4258 4267 4266 
4339 1732 1733 4348 4258 1723 1724 4267 
1652 4340 4349 1653 1643 4259 4268 1644 
4340 4341 4350 4349 4259 4260 4269 4268 
4341 4342 4351 4350 4260 4261 4270 4269 
4342 4343 4352 4351 4261 4262 4271 4270 
4343 4344 4353 4352 4262 4263 4272 4271 
4344 4345 4354 4353 4263 4264 4273 4272 
4345 4346 4355 4354 4264 4265 4274 4273 
4346 4347 4356 4355 4265 4266 4275 4274 
4347 4348 4357 4356 4266 4267 4276 4275 
4348 1733 1734 4357 4267 1724 1725 4276 
1653 4349 4358 1654 1644 4268 4277 1645 
4349 4350 4359 4358 4268 4269 4278 4277 
4350 4351 4360 4359 4269 4270 4279 4278 
4351 4352 4361 4360 4270 4271 4280 4279 
4352 4353 4362 4361 4271 4272 4281 4280 
4353 4354 4363 4362 4272 4273 4282 4281 
4354 4355 4364 4363 4273 4274 4283 4282 
4355 4356 4365 4364 4274 4275 4284 4283 
4356 4357 4366 4365 4275 4276 4285 4284 
4357 1734 1735 4366 4276 1725 1726 4285 
1654 4358 4367 1655 1645 4277 4286 1646 
4358 4359 4368 4367 4277 4278 4287 4286 
4359 4360 4369 4368 4278 4279 4288 4287 
4360 4361 4370 4369 4279 4280 4289 4288 
4361 4362 4371 4370 4280 4281 4290 4289 
4362 4363 4372 4371 4281 4282 4291 4290 
4363 4364 4373 4372 4282 4283 4292 4291 
4364 4365 4374 4373 4283 4284 4293 4292 
4365 4366 4375 4374 4284 4285 4294 4293 
4366 1735 1736 4375 4285 1726 1727 4294 
1655 4367 4376 1656 1646 4286 4295 1647 
4367 4368 4377 4376 4286 4287 4296 4295 
4368 4369 4378 4377 4287 4288 4297 4296 
4369 4370 4379 4378 4288 4289 4298 4297 
4370 4371 4380 4379 4289 4290 4299 4298 
4371 4372 4381 4380 4290 4291 4300 4299 
4372 4373 4382 4381 4291 4292 4301 4300 
4373 4374 4383 4382 4292 4293 4302 4301 
4374 4375 4384 4383 4293 4294 4303 4302 
4375 1736 1737 4384 4294 1727 1728 4303 
1656 4376 4385 1657 1647 4295 4304 1648 
4376 4377 4386 4385 4295 4296 4305 4304 
4377 4378 4387 4386 4296 4297 4306 4305 
4378 4379 4388 4387 4297 4298 4307 4306 
4379 4380 4389 4388 4298 4299 4308 4307 
4380 4381 4390 4389 4299 4300 4309 4308 
4381 4382 4391 4390 4300 4301 4310 4309 
4382 4383 4392 4391 4301 4302 4311 4310 
4383 4384 4393 4392 4302 4303 4312 4311 
4384 1737 1738 4393 4303 1728 1729 4312 
1657 4385 1811 255 1648 4304 1802 254 
4385 4386 1812 1811 4304 4305 1803 1802 
4386 4387 1813 1812 4305 4306 1804 1803 
4387 4388 1814 1813 4306 4307 1805 1804 
4388 4389 1815 1814 4307 4308 1806 1805 
4389 4390 1816 1815 4308 4309 1807 1806 
4390 4391 1817 1816 4309 4310 1808 1807 
4391 4392 1818 1817 4310 4311 1809 1808 
4392 4393 1819 1818 4311 4312 1810 1809 
4393 1738 270 1819 4312 1729 271 1810 
193 1342 4394 1658 192 1333 4313 1649 
1342 1341 4395 4394 1333 1332 4314 4313 
1341 1340 4396 4395 1332 1331 4315 4314 
1340 1339 4397 4396 1331 1330 4316 4315 
1339 1338 4398 4397 1330 1329 4317 4316 
1338 1337 4399 4398 1329 1328 4318 4317 
1337 1336 4400 4399 1328 1327 4319 4318 
1336 1335 4401 4400 1327 1326 4320 4319 
1335 1334 4402 4401 1326 1325 4321 4320 
1334 179 1739 4402 1325 180 1730 4321 
1658 4394 4403 1659 1649 4313 4322 1650 
4394 4395 4404 4403 4313 4314 4323 4322 
4395 4396 4405 4404 4314 4315 4324 4323 
4396 4397 4406 4405 4315 4316 4325 4324 
4397 4398 4407 4406 4316 4317 4326 4325 
4398 4399 4408 4407 4317 4318 4327 4326 
4399 4400 4409 4408 4318 4319 4328 4327 
4400 4401 4410 4409 4319 4320 4329 4328 
4401 4402 4411 4410 4320 4321 4330 4329 
4402 1739 1740 4411 4321 1730 1731 4330 
1659 4403 4412 1660 1650 4322 4331 1651 
4403 4404 4413 4412 4322 4323 4332 4331 
4404 4405 4414 4413 4323 4324 4333 4332 
4405 4406 4415 4414 4324 4325 4334 4333 
4406 4407 4416 4415 4325 4326 4335 4334 
4407 4408 4417 4416 4326 4327 4336 4335 
4408 4409 4418 4417 4327 4328 4337 4336 
4409 4410 4419 4418 4328 4329 4338 4337 
4410 4411 4420 4419 4329 4330 4339 4338 
4411 1740 1741 4420 4330 1731 1732 4339 
1660 4412 4421 1661 1651 4331 4340 1652 
4412 4413 4422 4421 4331 4332 4341 4340 
4413 4414 4423 4422 4332 4333 4342 4341 
4414 4415 4424 4423 4333 4334 4343 4342 
4415 4416 4425 4424 4334 4335 4344 4343 
4416 4417 4426 4425 4335 4336 4345 4344 
4417 4418 4427 4426 4336 4337 4346 4345 
4418 4419 4428 4427 4337 4338 4347 4346 
4419 4420 4429 4428 4338 4339 4348 4347 
4420 1741 1742 4429 4339 1732 1733 4348 
1661 4421 4430 1662 1652 4340 4349 1653 
4421 4422 4431 4430 4340 4341 4350 4349 
4422 4423 4432 4431 4341 4342 4351 4350 
4423 4424 4433 4432 4342 4343 4352 4351 
4424 4425 4434 4433 4343 4344 4353 4352 
4425 4426 4435 4434 4344 4345 4354 4353 
4426 4427 4436 4435 4345 4346 4355 4354 
4427 4428 4437 4436 4346 4347 4356 4355 
4428 4429 4438 4437 4347 4348 4357 4356 
4429 1742 1743 4438 4348 1733 1734 4357 
1662 4430 4439 1663 1653 4349 4358 1654 
4430 4431 4440 4439 4349 4350 4359 4358 
4431 4432 4441 4440 4350 4351 4360 4359 
4432 4433 4442 4441 4351 4352 4361 4360 
4433 4434 4443 4442 4352 4353 4362 4361 
4434 4435 4444 4443 4353 4354 4363 4362 
4435 4436 4445 4444 4354 4355 4364 4363 
4436 4437 4446 4445 4355 4356 4365 4364 
4437 4438 4447 4446 4356 4357 4366 4365 
4438 1743 1744 4447 4357 1734 1735 4366 
1663 4439 4448 1664 1654 4358 4367 1655 
4439 4440 4449 4448 4358 4359 4368 4367 
4440 4441 4450 4449 4359 4360 4369 4368 
4441 4442 4451 4450 4360 4361 4370 4369 
4442 4443 4452 4451 4361 4362 4371 4370 
4443 4444 4453 4452 4362 4363 4372 4371 
4444 4445 4454 4453 4363 4364 4373 4372 
4445 4446 4455 4454 4364 4365 4374 4373 
4446 4447 4456 4455 4365 4366 4375 4374 
4447 1744 1745 4456 4366 1735 1736 4375 
1664 4448 4457 1665 1655 4367 4376 1656 
4448 4449 4458 4457 4367 4368 4377 4376 
4449 4450 4459 4458 4368 4369 4378 4377 
4450 4451 4460 4459 4369 4370 4379 4378 
4451 4452 4461 4460 4370 4371 4380 4379 
4452 4453 4462 4461 4371 4372 4381 4380 
4453 4454 4463 4462 4372 4373 4382 4381 
4454 4455 4464 4463 4373 4374 4383 4382 
4455 4456 4465 4464 4374 4375 4384 4383 
4456 1745 1746 4465 4375 1736 1737 4384 
1665 4457 4466 1666 1656 4376 4385 1657 
4457 4458 4467 4466 4376 4377 4386 4385 
4458 4459 4468 4467 4377 4378 4387 4386 
4459 4460 4469 4468 4378 4379 4388 4387 
4460 4461 4470 4469 4379 4380 4389 4388 
4461 4462 4471 4470 4380 4381 4390 4389 
4462 4463 4472 4471 4381 4382 4391 4390 
4463 4464 4473 4472 4382 4383 4392 4391 
4464 4465 4474 4473 4383 4384 4393 4392 
4465 1746 1747 4474 4384 1737 1738 4393 
1666 4466 1820 256 1657 4385 1811 255 
4466 4467 1821 1820 4385 4386 1812 1811 
4467 4468 1822 1821 4386 4387 1813 1812 
4468 4469 1823 1822 4387 4388 1814 1813 
4469 4470 1824 1823 4388 4389 1815 1814 
4470 4471 1825 1824 4389 4390 1816 1815 
4471 4472 1826 1825 4390 4391 1817 1816 
4472 4473 1827 1826 4391 4392 1818 1817 
4473 4474 1828 1827 4392 4393 1819 1818 
4474 1747 269 1828 4393 1738 270 1819 
194 1351 4475 1667 193 1342 4394 1658 
1351 1350 4476 4475 1342 1341 4395 4394 
1350 1349 4477 4476 1341 1340 4396 4395 
1349 1348 4478 4477 1340 1339 4397 4396 
1348 1347 4479 4478 1339 1338 4398 4397 
1347 1346 4480 4479 1338 1337 4399 4398 
1346 1345 4481 4480 1337 1336 4400 4399 
1345 1344 4482 4481 1336 1335 4401 4400 
1344 1343 4483 4482 1335 1334 4402 4401 
1343 178 1748 4483 1334 179 1739 4402 
1667 4475 4484 1668 1658 4394 4403 1659 
4475 4476 4485 4484 4394 4395 4404 4403 
4476 4477 4486 4485 4395 4396 4405 4404 
4477 4478 4487 4486 4396 4397 4406 4405 
4478 4479 4488 4487 4397 4398 4407 4406 
4479 4480 4489 4488 4398 4399 4408 4407 
4480 4481 4490 4489 4399 4400 4409 4408 
4481 4482 4491 4490 4400 4401 4410 4409 
4482 4483 4492 4491 4401 4402 4411 4410 
4483 1748 1749 4492 4402 1739 1740 4411 
1668 4484 4493 1669 1659 4403 4412 1660 
4484 4485 4494 4493 4403 4404 4413 4412 
4485 4486 4495 4494 4404 4405 4414 4413 
4486 4487 4496 4495 4405 4406 4415 4414 
4487 4488 4497 4496 4406 4407 4416 4415 
4488 4489 4498 4497 4407 4408 4417 4416 
4489 4490 4499 4498 4408 4409 4418 4417 
4490 4491 4500 4499 4409 4410 4419 4418 
4491 4492 4501 4500 4410 4411 4420 4419 
4492 1749 1750 4501 4411 1740 1741 4420 
1669 4493 4502 1670 1660 4412 4421 1661 
4493 4494 4503 4502 4412 4413 4422 4421 
4494 4495 4504 4503 4413 4414 4423 4422 
4495 4496 4505 4504 4414 4415 4424 4423 
4496 4497 4506 4505 4415 4416 4425 4424 
4497 4498 4507 4506 4416 4417 4426 4425 
4498 4499 4508 4507 4417 4418 4427 4426 
4499 4500 4509 4508 4418 4419 4428 4427 
4500 4501 4510 4509 4419 4420 4429 4428 
4501 1750 1751 4510 4420 1741 1742 4429 
1670 4502 4511 1671 1661 4421 4430 1662 
4502 4503 4512 4511 4421 4422 4431 4430 
4503 4504 4513 4512 4422 4423 4432 4431 
4504 4505 4514 4513 4423 4424 4433 4432 
4505 4506 4515 4514 4424 4425 4434 4433 
4506 4507 4516 4515 4425 4426 4435 4434 
4507 4508 4517 4516 4426 4427 4436 4435 
4508 4509 4518 4517 4427 4428 4437 4436 
4509 4510 4519 4518 4428 4429 4438 4437 
4510 1751 1752 4519 4429 1742 1743 4438 
1671 4511 4520 1672 1662 4430 4439 1663 
4511 4512 4521 4520 4430 4431 4440 4439 
4512 4513 4522 4521 4431 4432 4441 4440 
4513 4514 4523 4522 4432 4433 4442 4441 
4514 4515 4524 4523 4433 4434 4443 4442 
4515 4516 4525 4524 4434 4435 4444 4443 
4516 4517 4526 4525 4435 4436 4445 4444 
4517 4518 4527 4526 4436 4437 4446 4445 
4518 4519 4528 4527 4437 4438 4447 4446 
4519 1752 1753 4528 4438 1743 1744 4447 
1672 4520 4529 1673 1663 4439 4448 1664 
4520 4521 4530 4529 4439 4440 4449 4448 
4521 4522 4531 4530 4440 4441 4450 4449 
4522 4523 4532 4531 4441 4442 4451 4450 
4523 4524 4533 4532 4442 4443 4452 4451 
4524 4525 4534 4533 4443 4444 4453 4452 
4525 4526 4535 4534 4444 4445 4454 4453 
4526 4527 4536 4535 4445 4446 4455 4454 
4527 4528 4537 4536 4446 4447 4456 4455 
4528 1753 1754 4537 4447 1744 1745 4456 
1673 4529 4538 1674 1664 4448 4457 1665 
4529 4530 4539 4538 4448 4449 4458 4457 
4530 4531 4540 4539 4449 4450 4459 4458 
4531 4532 4541 4540 4450 4451 4460 4459 
4532 4533 4542 4541 4451 4452 4461 4460 
4533 4534 4543 4542 4452 4453 4462 4461 
4534 4535 4544 4543 4453 4454 4463 4462 
4535 4536 4545 4544 4454 4455 4464 4463 
4536 4537 4546 4545 4455 4456 4465 4464 
4537 1754 1755 4546 4456 1745 1746 4465 
1674 4538 4547 1675 1665 4457 4466 1666 
4538 4539 4548 4547 4457 4458 4467 4466 
4539 4540 4549 4548 4458 4459 4468 4467 
4540 4541 4550 4549 4459 4460 4469 4468 
4541 4542 4551 4550 4460 4461 4470 4469 
4542 4543 4552 4551 4461 4462 4471 4470 
4543 4544 4553 4552 4462 4463 4472 4471 
4544 4545 4554 4553 4463 4464 4473 4472 
4545 4546 4555 4554 4464 4465 4474 4473 
4546 1755 1756 4555 4465 1746 1747 4474 
1675 4547 1829 257 1666 4466 1820 256 
4547 4548 1830 1829 4466 4467 1821 1820 
4548 4549 1831 1830 4467 4468 1822 1821 
4549 4550 1832 1831 4468 4469 1823 1822 
4550 4551 1833 1832 4469 4470 1824 1823 
4551 4552 1834 1833 4470 4471 1825 1824 
4552 4553 1835 1834 4471 4472 1826 1825 
4553 4554 1836 1835 4472 4473 1827 1826 
4554 4555 1837 1836 4473 4474 1828 1827 
4555 1756 268 1837 4474 1747 269 1828 
195 1360 4556 1676 194 1351 4475 1667 
1360 1359 4557 4556 1351 1350 4476 4475 
1359 1358 4558 4557 1350 1349 4477 4476 
1358 1357 4559 4558 1349 1348 4478 4477 
1357 1356 4560 4559 1348 1347 4479 4478 
1356 1355 4561 4560 1347 1346 4480 4479 
1355 1354 4562 4561 1346 1345 4481 4480 
1354 1353 4563 4562 1345 1344 4482 4481 
1353 1352 4564 4563 1344 1343 4483 4482 
1352 177 1757 4564 1343 178 1748 4483 
1676 4556 4565 1677 1667 4475 4484 1668 
4556 4557 4566 4565 4475 4476 4485 4484 
4557 4558 4567 4566 4476 4477 4486 4485 
4558 4559 4568 4567 4477 4478 4487 4486 
4559 4560 4569 4568 4478 4479 4488 4487 
4560 4561 4570 4569 4479 4480 4489 4488 
4561 4562 4571 4570 4480 4481 4490 4489 
4562 4563 4572 4571 4481 4482 4491 4490 
4563 4564 4573 4572 4482 4483 4492 4491 
4564 1757 1758 4573 4483 1748 1749 4492 
1677 4565 4574 1678 1668 4484 4493 1669 
4565 4566 4575 4574 4484 4485 4494 4493 
4566 4567 4576 4575 4485 4486 4495 4494 
4567 4568 4577 4576 4486 4487 4496 4495 
4568 4569 4578 4577 4487 4488 4497 4496 
4569 4570 4579 4578 4488 4489 4498 4497 
4570 4571 4580 4579 4489 4490 4499 4498 
4571 4572 4581 4580 4490 4491 4500 4499 
4572 4573 4582 4581 4491 4492 4501 4500 
4573 1758 1759 4582 4492 1749 1750 4501 
1678 4574 4583 1679 1669 4493 4502 1670 
4574 4575 4584 4583 4493 4494 4503 4502 
4575 4576 4585 4584 4494 4495 4504 4503 
4576 4577 4586 4585 4495 4496 4505 4504 
4577 4578 4587 4586 4496 4497 4506 4505 
4578 4579 4588 4587 4497 4498 4507 4506 
4579 4580 4589 4588 4498 4499 4508 4507 
4580 4581 4590 4589 4499 4500 4509 4508 
4581 4582 4591 4590 4500 4501 4510 4509 
4582 1759 1760 4591 4501 1750 1751 4510 
1679 4583 4592 1680 1670 4502 4511 1671 
4583 4584 4593 4592 4502 4503 4512 4511 
4584 4585 4594 4593 4503 4504 4513 4512 
4585 4586 4595 4594 4504 4505 4514 4513 
4586 4587 4596 4595 4505 4506 4515 4514 
4587 4588 4597 4596 4506 4507 4516 4515 
4588 4589 4598 4597 4507 4508 4517 4516 
4589 4590 4599 4598 4508 4509 4518 4517 
4590 4591 4600 4599 4509 4510 4519 4518 
4591 1760 1761 4600 4510 1751 1752 4519 
1680 4592 4601 1681 1671 4511 4520 1672 
4592 4593 4602 4601 4511 4512 4521 4520 
4593 4594 4603 4602 4512 4513 4522 4521 
4594 4595 4604 4603 4513 4514 4523 4522 
4595 4596 4605 4604 4514 4515 4524 4523 
4596 4597 4606 4605 4515 4516 4525 4524 
4597 4598 4607 4606 4516 4517 4526 4525 
4598 4599 4608 4607 4517 4518 4527 4526 
4599 4600 4609 4608 4518 4519 4528 4527 
4600 1761 1762 4609 4519 1752 1753 4528 
1681 4601 4610 1682 1672 4520 4529 1673 
4601 4602 4611 4610 4520 4521 4530 4529 
4602 4603 4612 4611 4521 4522 4531 4530 
4603 4604 4613 4612 4522 4523 4532 4531 
4604 4605 4614 4613 4523 4524 4533 4532 
4605 4606 4615 4614 4524 4525 4534 4533 
4606 4607 4616 4615 4525 4526 4535 4534 
4607 4608 4617 4616 4526 4527 4536 4535 
4608 4609 4618 4617 4527 4528 4537 4536 
4609 1762 1763 4618 4528 1753 1754 4537 
1682 4610 4619 1683 1673 4529 4538 1674 
4610 4611 4620 4619 4529 4530 4539 4538 
4611 4612 4621 4620 4530 4531 4540 4539 
4612 4613 4622 4621 4531 4532 4541 4540 
4613 4614 4623 4622 4532 4533 4542 4541 
4614 4615 4624 4623 4533 4534 4543 4542 
4615 4616 4625 4624 4534 4535 4544 4543 
4616 4617 4626 4625 4535 4536 4545 4544 
4617 4618 4627 4626 4536 4537 4546 4545 
4618 1763 1764 4627 4537 1754 1755 4546 
1683 4619 4628 1684 1674 4538 4547 1675 
4619 4620 4629 4628 4538 4539 4548 4547 
4620 4621 4630 4629 4539 4540 4549 4548 
4621 4622 4631 4630 4540 4541 4550 4549 
4622 4623 4632 4631 4541 4542 4551 4550 
4623 4624 4633 4632 4542 4543 4552 4551 
4624 4625 4634 4633 4543 4544 4553 4552 
4625 4626 4635 4634 4544 4545 4554 4553 
4626 4627 4636 4635 4545 4546 4555 4554 
4627 1764 1765 4636 4546 1755 1756 4555 
1684 4628 1838 258 1675 4547 1829 257 
4628 4629 1839 1838 4547 4548 1830 1829 
4629 4630 1840 1839 4548 4549 1831 1830 
4630 4631 1841 1840 4549 4550 1832 1831 
4631 4632 1842 1841 4550 4551 1833 1832 
4632 4633 1843 1842 4551 4552 1834 1833 
4633 4634 1844 1843 4552 4553 1835 1834 
4634 4635 1845 1844 4553 4554 1836 1835 
4635 4636 1846 1845 4554 4555 1837 1836 
4636 1765 267 1846 4555 1756 268 1837 
196 1369 4637 1685 195 1360 4556 1676 
1369 1368 4638 4637 1360 1359 4557 4556 
1368 1367 4639 4638 1359 1358 4558 4557 
1367 1366 4640 4639 1358 1357 4559 4558 
1366 1365 4641 4640 1357 1356 4560 4559 
1365 1364 4642 4641 1356 1355 4561 4560 
1364 1363 4643 4642 1355 1354 4562 4561 
1363 1362 4644 4643 1354 1353 4563 4562 
1362 1361 4645 4644 1353 1352 4564 4563 
1361 176 1766 4645 1352 177 1757 4564 
1685 4637 4646 1686 1676 4556 4565 1677 
4637 4638 4647 4646 4556 4557 4566 4565 
4638 4639 4648 4647 4557 4558 4567 4566 
4639 4640 4649 4648 4558 4559 4568 4567 
4640 4641 4650 4649 4559 4560 4569 4568 
4641 4642 4651 4650 4560 4561 4570 4569 
4642 4643 4652 4651 4561 4562 4571 4570 
4643 4644 4653 4652 4562 4563 4572 4571 
4644 4645 4654 4653 4563 4564 4573 4572 
4645 1766 1767 4654 4564 1757 1758 4573 
1686 4646 4655 1687 1677 4565 4574 1678 
4646 4647 4656 4655 4565 4566 4575 4574 
4647 4648 4657 4656 4566 4567 4576 4575 
4648 4649 4658 4657 4567 4568 4577 4576 
4649 4650 4659 4658 4568 4569 4578 4577 
4650 4651 4660 4659 4569 4570 4579 4578 
4651 4652 4661 4660 4570 4571 4580 4579 
4652 4653 4662 4661 4571 4572 4581 4580 
4653 4654 4663 4662 4572 4573 4582 4581 
4654 1767 1768 4663 4573 1758 1759 4582 
1687 4655 4664 1688 1678 4574 4583 1679 
4655 4656 4665 4664 4574 4575 4584 4583 
4656 4657 4666 4665 4575 4576 4585 4584 
4657 4658 4667 4666 4576 4577 4586 4585 
4658 4659 4668 4667 4577 4578 4587 4586 
4659 4660 4669 4668 4578 4579 4588 4587 
4660 4661 4670 4669 4579 4580 4589 4588 
4661 4662 4671 4670 4580 4581 4590 4589 
4662 4663 4672 4671 4581 4582 4591 4590 
4663 1768 1769 4672 4582 1759 1760 4591 
1688 4664 4673 1689 1679 4583 4592 1680 
4664 4665 4674 4673 4583 4584 4593 4592 
4665 4666 4675 4674 4584 4585 4594 4593 
4666 4667 4676 4675 4585 4586 4595 4594 
4667 4668 4677 4676 4586 4587 4596 4595 
4668 4669 4678 4677 4587 4588 4597 4596 
4669 4670 4679 4678 4588 4589 4598 4597 
4670 4671 4680 4679 4589 4590 4599 4598 
4671 4672 4681 4680 4590 4591 4600 4599 
4672 1769 1770 4681 4591 1760 1761 4600 
1689 4673 4682 1690 1680 4592 4601 1681 
4673 4674 4683 4682 4592 4593 4602 4601 
4674 4675 4684 4683 4593 4594 4603 4602 
4675 4676 4685 4684 4594 4595 4604 4603 
4676 4677 4686 4685 4595 4596 4605 4604 
4677 4678 4687 4686 4596 4597 4606 4605 
4678 4679 4688 4687 4597 4598 4607 4606 
4679 4680 4689 4688 4598 4599 4608 4607 
4680 4681 4690 4689 4599 4600 4609 4608 
4681 1770 1771 4690 4600 1761 1762 4609 
1690 4682 4691 1691 1681 4601 4610 1682 
4682 4683 4692 4691 4601 4602 4611 4610 
4683 4684 4693 4692 4602 4603 4612 4611 
4684 4685 4694 4693 4603 4604 4613 4612 
4685 4686 4695 4694 4604 4605 4614 4613 
4686 4687 4696 4695 4605 4606 4615 4614 
4687 4688 4697 4696 4606 4607 4616 4615 
4688 4689 4698 4697 4607 4608 4617 4616 
4689 4690 4699 4698 4608 4609 4618 4617 
4690 1771 1772 4699 4609 1762 1763 4618 
1691 4691 4700 1692 1682 4610 4619 1683 
4691 4692 4701 4700 4610 4611 4620 4619 
4692 4693 4702 4701 4611 4612 4621 4620 
4693 4694 4703 4702 4612 4613 4622 4621 
4694 4695 4704 4703 4613 4614 4623 4622 
4695 4696 4705 4704 4614 4615 4624 4623 
4696 4697 4706 4705 4615 4616 4625 4624 
4697 4698 4707 4706 4616 4617 4626 4625 
4698 4699 4708 4707 4617 4618 4627 4626 
4699 1772 1773 4708 4618 1763 1764 4627 
1692 4700 4709 1693 1683 4619 4628 1684 
4700 4701 4710 4709 4619 4620 4629 4628 
4701 4702 4711 4710 4620 4621 4630 4629 
4702 4703 4712 4711 4621 4622 4631 4630 
4703 4704 4713 4712 4622 4623 4632 4631 
4704 4705 4714 4713 4623 4624 4633 4632 
4705 4706 4715 4714 4624 4625 4634 4633 
4706 4707 4716 4715 4625 4626 4635 4634 
4707 4708 4717 4716 4626 4627 4636 4635 
4708 1773 1774 4717 4627 1764 1765 4636 
1693 4709 1847 259 1684 4628 1838 258 
4709 4710 1848 1847 4628 4629 1839 1838 
4710 4711 1849 1848 4629 4630 1840 1839 
4711 4712 1850 1849 4630 4631 1841 1840 
4712 4713 1851 1850 4631 4632 1842 1841 
4713 4714 1852 1851 4632 4633 1843 1842 
4714 4715 1853 1852 4633 4634 1844 1843 
4715 4716 1854 1853 4634 4635 1845 1844 
4716 4717 1855 1854 4635 4636 1846 1845 
4717 1774 266 1855 4636 1765 267 1846 
197 1378 4718 1694 196 1369 4637 1685 
1378 1377 4719 4718 1369 1368 4638 4637 
1377 1376 4720 4719 1368 1367 4639 4638 
1376 1375 4721 4720 1367 1366 4640 4639 
1375 1374 4722 4721 1366 1365 4641 4640 
1374 1373 4723 4722 1365 1364 4642 4641 
1373 1372 4724 4723 1364 1363 4643 4642 
1372 1371 4725 4724 1363 1362 4644 4643 
1371 1370 4726 4725 1362 1361 4645 4644 
1370 175 1775 4726 1361 176 1766 4645 
1694 4718 4727 1695 1685 4637 4646 1686 
4718 4719 4728 4727 4637 4638 4647 4646 
4719 4720 4729 4728 4638 4639 4648 4647 
4720 4721 4730 4729 4639 4640 4649 4648 
4721 4722 4731 4730 4640 4641 4650 4649 
4722 4723 4732 4731 4641 4642 4651 4650 
4723 4724 4733 4732 4642 4643 4652 4651 
4724 4725 4734 4733 4643 4644 4653 4652 
4725 4726 4735 4734 4644 4645 4654 4653 
4726 1775 1776 4735 4645 1766 1767 4654 
1695 4727 4736 1696 1686 4646 4655 1687 
4727 4728 4737 4736 4646 4647 4656 4655 
4728 4729 4738 4737 4647 4648 4657 4656 
4729 4730 4739 4738 4648 4649 4658 4657 
4730 4731 4740 4739 4649 4650 4659 4658 
4731 4732 4741 4740 4650 4651 4660 4659 
4732 4733 4742 4741 4651 4652 4661 4660 
4733 4734 4743 4742 4652 4653 4662 4661 
4734 4735 4744 4743 4653 4654 4663 4662 
4735 1776 1777 4744 4654 1767 1768 4663 
1696 4736 4745 1697 1687 4655 4664 1688 
4736 4737 4746 4745 4655 4656 4665 4664 
4737 4738 4747 4746 4656 4657 4666 4665 
4738 4739 4748 4747 4657 4658 4667 4666 
4739 4740 4749 4748 4658 4659 4668 4667 
4740 4741 4750 4749 4659 4660 4669 4668 
4741 4742 4751 4750 4660 4661 4670 4669 
4742 4743 4752 4751 4661 4662 4671 4670 
4743 4744 4753 4752 4662 4663 4672 4671 
4744 1777 1778 4753 4663 1768 1769 4672 
1697 4745 4754 1698 1688 4664 4673 1689 
4745 4746 4755 4754 4664 4665 4674 4673 
4746 4747 4756 4755 4665 4666 4675 4674 
4747 4748 4757 4756 4666 4667 4676 4675 
4748 4749 4758 4757 4667 4668 4677 4676 
4749 4750 4759 4758 4668 4669 4678 4677 
4750 4751 4760 4759 4669 4670 4679 4678 
4751 4752 4761 4760 4670 4671 4680 4679 
4752 4753 4762 4761 4671 4672 4681 4680 
4753 1778 1779 4762 4672 1769 1770 4681 
1698 4754 4763 1699 1689 4673 4682 1690 
4754 4755 4764 4763 4673 4674 4683 4682 
4755 4756 4765 4764 4674 4675 4684 4683 
4756 4757 4766 4765 4675 4676 4685 4684 
4757 4758 4767 4766 4676 4677 4686 4685 
4758 4759 4768 4767 4677 4678 4687 4686 
4759 4760 4769 4768 4678 4679 4688 4687 
4760 4761 4770 4769 4679 4680 4689 4688 
4761 4762 4771 4770 4680 4681 4690 4689 
4762 1779 1780 4771 4681 1770 1771 4690 
1699 4763 4772 1700 1690 4682 4691 1691 
4763 4764 4773 4772 4682 4683 4692 4691 
4764 4765 4774 4773 4683 4684 4693 4692 
4765 4766 4775 4774 4684 4685 4694 4693 
4766 4767 4776 4775 4685 4686 4695 4694 
4767 4768 4777 4776 4686 4687 4696 4695 
4768 4769 4778 4777 4687 4688 4697 4696 
4769 4770 4779 4778 4688 4689 4698 4697 
4770 4771 4780 4779 4689 4690 4699 4698 
4771 1780 1781 4780 4690 1771 1772 4699 
1700 4772 4781 1701 1691 4691 4700 1692 
4772 4773 4782 4781 4691 4692 4701 4700 
4773 4774 4783 4782 4692 4693 4702 4701 
4774 4775 4784 4783 4693 4694 4703 4702 
4775 4776 4785 4784 4694 4695 4704 4703 
4776 4777 4786 4785 4695 4696 4705 4704 
4777 4778 4787 4786 4696 4697 4706 4705 
4778 4779 4788 4787 4697 4698 4707 4706 
4779 4780 4789 4788 4698 4699 4708 4707 
4780 1781 1782 4789 4699 1772 1773 4708 
1701 4781 4790 1702 1692 4700 4709 1693 
4781 4782 4791 4790 4700 4701 4710 4709 
4782 4783 4792 4791 4701 4702 4711 4710 
4783 4784 4793 4792 4702 4703 4712 4711 
4784 4785 4794 4793 4703 4704 4713 4712 
4785 4786 4795 4794 4704 4705 4714 4713 
4786 4787 4796 4795 4705 4706 4715 4714 
4787 4788 4797 4796 4706 4707 4716 4715 
4788 4789 4798 4797 4707 4708 4717 4716 
4789 1782 1783 4798 4708 1773 1774 4717 
1702 4790 1856 260 1693 4709 1847 259 
4790 4791 1857 1856 4709 4710 1848 1847 
4791 4792 1858 1857 4710 4711 1849 1848 
4792 4793 1859 1858 4711 4712 1850 1849 
4793 4794 1860 1859 4712 4713 1851 1850 
4794 4795 1861 1860 4713 4714 1852 1851 
4795 4796 1862 1861 4714 4715 1853 1852 
4796 4797 1863 1862 4715 4716 1854 1853 
4797 4798 1864 1863 4716 4717 1855 1854 
4798 1783 265 1864 4717 1774 266 1855 
198 1387 4799 1703 197 1378 4718 1694 
1387 1386 4800 4799 1378 1377 4719 4718 
1386 1385 4801 4800 1377 1376 4720 4719 
1385 1384 4802 4801 1376 1375 4721 4720 
1384 1383 4803 4802 1375 1374 4722 4721 
1383 1382 4804 4803 1374 1373 4723 4722 
1382 1381 4805 4804 1373 1372 4724 4723 
1381 1380 4806 4805 1372 1371 4725 4724 
1380 1379 4807 4806 1371 1370 4726 4725 
1379 174 1784 4807 1370 175 1775 4726 
1703 4799 4808 1704 1694 4718 4727 1695 
4799 4800 4809 4808 4718 4719 4728 4727 
4800 4801 4810 4809 4719 4720 4729 4728 
4801 4802 4811 4810 4720 4721 4730 4729 
4802 4803 4812 4811 4721 4722 4731 4730 
4803 4804 4813 4812 4722 4723 4732 4731 
4804 4805 4814 4813 4723 4724 4733 4732 
4805 4806 4815 4814 4724 4725 4734 4733 
4806 4807 4816 4815 4725 4726 4735 4734 
4807 1784 1785 4816 4726 1775 1776 4735 
1704 4808 4817 1705 1695 4727 4736 1696 
4808 4809 4818 4817 4727 4728 4737 4736 
4809 4810 4819 4818 4728 4729 4738 4737 
4810 4811 4820 4819 4729 4730 4739 4738 
4811 4812 4821 4820 4730 4731 4740 4739 
4812 4813 4822 4821 4731 4732 4741 4740 
4813 4814 4823 4822 4732 4733 4742 4741 
4814 4815 4824 4823 4733 4734 4743 4742 
4815 4816 4825 4824 4734 4735 4744 4743 
4816 1785 1786 4825 4735 1776 1777 4744 
1705 4817 4826 1706 1696 4736 4745 1697 
4817 4818 4827 4826 4736 4737 4746 4745 
4818 4819 4828 4827 4737 4738 4747 4746 
4819 4820 4829 4828 4738 4739 4748 4747 
4820 4821 4830 4829 4739 4740 4749 4748 
4821 4822 4831 4830 4740 4741 4750 4749 
4822 4823 4832 4831 4741 4742 4751 4750 
4823 4824 4833 4832 4742 4743 4752 4751 
4824 4825 4834 4833 4743 4744 4753 4752 
4825 1786 1787 4834 4744 1777 1778 4753 
1706 4826 4835 1707 1697 4745 4754 1698 
4826 4827 4836 4835 4745 4746 4755 4754 
4827 4828 4837 4836 4746 4747 4756 4755 
4828 4829 4838 4837 4747 4748 4757 4756 
4829 4830 4839 4838 4748 4749 4758 4757 
4830 4831 4840 4839 4749 4750 4759 4758 
4831 4832 4841 4840 4750 4751 4760 4759 
4832 4833 4842 4841 4751 4752 4761 4760 
4833 4834 4843 4842 4752 4753 4762 4761 
4834 1787 1788 4843 4753 1778 1779 4762 
1707 4835 4844 1708 1698 4754 4763 1699 
4835 4836 4845 4844 4754 4755 4764 4763 
4836 4837 4846 4845 4755 4756 4765 4764 
4837 4838 4847 4846 4756 4757 4766 4765 
4838 4839 4848 4847 4757 4758 4767 4766 
4839 4840 4849 4848 4758 4759 4768 4767 
4840 4841 4850 4849 4759 4760 4769 4768 
4841 4842 4851 4850 4760 4761 4770 4769 
4842 4843 4852 4851 4761 4762 4771 4770 
4843 1788 1789 4852 4762 1779 1780 4771 
1708 4844 4853 1709 1699 4763 4772 1700 
4844 4845 4854 4853 4763 4764 4773 4772 
4845 4846 4855 4854 4764 4765 4774 4773 
4846 4847 4856 4855 4765 4766 4775 4774 
4847 4848 4857 4856 4766 4767 4776 4775 
4848 4849 4858 4857 4767 4768 4777 4776 
4849 4850 4859 4858 4768 4769 4778 4777 
4850 4851 4860 4859 4769 4770 4779 4778 
4851 4852 4861 4860 4770 4771 4780 4779 
4852 1789 1790 4861 4771 1780 1781 4780 
1709 4853 4862 1710 1700 4772 4781 1701 
4853 4854 4863 4862 4772 4773 4782 4781 
4854 4855 4864 4863 4773 4774 4783 4782 
4855 4856 4865 4864 4774 4775 4784 4783 
4856 4857 4866 4865 4775 4776 4785 4784 
4857 4858 4867 4866 4776 4777 4786 4785 
4858 4859 4868 4867 4777 4778 4787 4786 
4859 4860 4869 4868 4778 4779 4788 4787 
4860 4861 4870 4869 4779 4780 4789 4788 
4861 1790 1791 4870 4780 1781 1782 4789 
1710 4862 4871 1711 1701 4781 4790 1702 
4862 4863 4872 4871 4781 4782 4791 4790 
4863 4864 4873 4872 4782 4783 4792 4791 
4864 4865 4874 4873 4783 4784 4793 4792 
4865 4866 4875 4874 4784 4785 4794 4793 
4866 4867 4876 4875 4785 4786 4795 4794 
4867 4868 4877 4876 4786 4787 4796 4795 
4868 4869 4878 4877 4787 4788 4797 4796 
4869 4870 4879 4878 4788 4789 4798 4797 
4870 1791 1792 4879 4789 1782 1783 4798 
1711 4871 1865 261 1702 4790 1856 260 
4871 4872 1866 1865 4790 4791 1857 1856 
4872 4873 1867 1866 4791 4792 1858 1857 
4873 4874 1868 1867 4792 4793 1859 1858 
4874 4875 1869 1868 4793 4794 1860 1859 
4875 4876 1870 1869 4794 4795 1861 1860 
4876 4877 1871 1870 4795 4796 1862 1861 
4877 4878 1872 1871 4796 4797 1863 1862 
4878 4879 1873 1872 4797 4798 1864 1863 
4879 1792 264 1873 4798 1783 265 1864 
199 1396 4880 1712 198 1387 4799 1703 
1396 1395 4881 4880 1387 1386 4800 4799 
1395 1394 4882 4881 1386 1385 4801 4800 
1394 1393 4883 4882 1385 1384 4802 4801 
1393 1392 4884 4883 1384 1383 4803 4802 
1392 1391 4885 4884 1383 1382 4804 4803 
1391 1390 4886 4885 1382 1381 4805 4804 
1390 1389 4887 4886 1381 1380 4806 4805 
1389 1388 4888 4887 1380 1379 4807 4806 
1388 173 1793 4888 1379 174 1784 4807 
1712 4880 4889 1713 1703 4799 4808 1704 
4880 4881 4890 4889 4799 4800 4809 4808 
4881 4882 4891 4890 4800 4801 4810 4809 
4882 4883 4892 4891 4801 4802 4811 4810 
4883 4884 4893 4892 4802 4803 4812 4811 
4884 4885 4894 4893 4803 4804 4813 4812 
4885 4886 4895 4894 4804 4805 4814 4813 
4886 4887 4896 4895 4805 4806 4815 4814 
4887 4888 4897 4896 4806 4807 4816 4815 
4888 1793 1794 4897 4807 1784 1785 4816 
1713 4889 4898 1714 1704 4808 4817 1705 
4889 4890 4899 4898 4808 4809 4818 4817 
4890 4891 4900 4899 4809 4810 4819 4818 
4891 4892 4901 4900 4810 4811 4820 4819 
4892 4893 4902 4901 4811 4812 4821 4820 
4893 4894 4903 4902 4812 4813 4822 4821 
4894 4895 4904 4903 4813 4814 4823 4822 
4895 4896 4905 4904 4814 4815 4824 4823 
4896 4897 4906 4905 4815 4816 4825 4824 
4897 1794 1795 4906 4816 1785 1786 4825 
1714 4898 4907 1715 1705 4817 4826 1706 
4898 4899 4908 4907 4817 4818 4827 4826 
4899 4900 4909 4908 4818 4819 4828 4827 
4900 4901 4910 4909 4819 4820 4829 4828 
4901 4902 4911 4910 4820 4821 4830 4829 
4902 4903 4912 4911 4821 4822 4831 4830 
4903 4904 4913 4912 4822 4823 4832 4831 
4904 4905 4914 4913 4823 4824 4833 4832 
4905 4906 4915 4914 4824 4825 4834 4833 
4906 1795 1796 4915 4825 1786 1787 4834 
1715 4907 4916 1716 1706 4826 4835 1707 
4907 4908 4917 4916 4826 4827 4836 4835 
4908 4909 4918 4917 4827 4828 4837 4836 
4909 4910 4919 4918 4828 4829 4838 4837 
4910 4911 4920 4919 4829 4830 4839 4838 
4911 4912 4921 4920 4830 4831 4840 4839 
4912 4913 4922 4921 4831 4832 4841 4840 
4913 4914 4923 4922 4832 4833 4842 4841 
4914 4915 4924 4923 4833 4834 4843 4842 
4915 1796 1797 4924 4834 1787 1788 4843 
1716 4916 4925 1717 1707 4835 4844 1708 
4916 4917 4926 4925 4835 4836 4845 4844 
4917 4918 4927 4926 4836 4837 4846 4845 
4918 4919 4928 4927 4837 4838 4847 4846 
4919 4920 4929 4928 4838 4839 4848 4847 
4920 4921 4930 4929 4839 4840 4849 4848 
4921 4922 4931 4930 4840 4841 4850 4849 
4922 4923 4932 4931 4841 4842 4851 4850 
4923 4924 4933 4932 4842 4843 4852 4851 
4924 1797 1798 4933 4843 1788 1789 4852 
1717 4925 4934 1718 1708 4844 4853 1709 
4925 4926 4935 4934 4844 4845 4854 4853 
4926 4927 4936 4935 4845 4846 4855 4854 
4927 4928 4937 4936 4846 4847 4856 4855 
4928 4929 4938 4937 4847 4848 4857 4856 
4929 4930 4939 4938 4848 4849 4858 4857 
4930 4931 4940 4939 4849 4850 4859 4858 
4931 4932 4941 4940 4850 4851 4860 4859 
4932 4933 4942 4941 4851 4852 4861 4860 
4933 1798 1799 4942 4852 1789 1790 4861 
1718 4934 4943 1719 1709 4853 4862 1710 
4934 4935 4944 4943 4853 4854 4863 4862 
4935 4936 4945 4944 4854 4855 4864 4863 
4936 4937 4946 4945 4855 4856 4865 4864 
4937 4938 4947 4946 4856 4857 4866 4865 
4938 4939 4948 4947 4857 4858 4867 4866 
4939 4940 4949 4948 4858 4859 4868 4867 
4940 4941 4950 4949 4859 4860 4869 4868 
4941 4942 4951 4950 4860 4861 4870 4869 
4942 1799 1800 4951 4861 1790 1791 4870 
1719 4943 4952 1720 1710 4862 4871 1711 
4943 4944 4953 4952 4862 4863 4872 4871 
4944 4945 4954 4953 4863 4864 4873 4872 
4945 4946 4955 4954 4864 4865 4874 4873 
4946 4947 4956 4955 4865 4866 4875 4874 
4947 4948 4957 4956 4866 4867 4876 4875 
4948 4949 4958 4957 4867 4868 4877 4876 
4949 4950 4959 4958 4868 4869 4878 4877 
4950 4951 4960 4959 4869 4870 4879 4878 
4951 1800 1801 4960 4870 1791 1792 4879 
1720 4952 1874 262 1711 4871 1865 261 
4952 4953 1875 1874 4871 4872 1866 1865 
4953 4954 1876 1875 4872 4873 1867 1866 
4954 4955 1877 1876 4873 4874 1868 1867 
4955 4956 1878 1877 4874 4875 1869 1868 
4956 4957 1879 1878 4875 4876 1870 1869 
4957 4958 1880 1879 4876 4877 1871 1870 
4958 4959 1881 1880 4877 4878 1872 1871 
4959 4960 1882 1881 4878 4879 1873 1872 
4960 1801 263 1882 4879 1792 264 1873 
4 88 1559 245 199 1396 4880 1712 
88 89 1560 1559 1396 1395 4881 4880 
89 90 1561 1560 1395 1394 4882 4881 
90 91 1562 1561 1394 1393 4883 4882 
91 92 1563 1562 1393 1392 4884 4883 
92 93 1564 1563 1392 1391 4885 4884 
93 94 1565 1564 1391 1390 4886 4885 
94 95 1566 1565 1390 1389 4887 4886 
95 96 1567 1566 1389 1388 4888 4887 
96 7 235 1567 1388 173 1793 4888 
245 1559 1568 246 1712 4880 4889 1713 
1559 1560 1569 1568 4880 4881 4890 4889 
1560 1561 1570 1569 4881 4882 4891 4890 
1561 1562 1571 1570 4882 4883 4892 4891 
1562 1563 1572 1571 4883 4884 4893 4892 
1563 1564 1573 1572 4884 4885 4894 4893 
1564 1565 1574 1573 4885 4886 4895 4894 
1565 1566 1575 1574 4886 4887 4896 4895 
1566 1567 1576 1575 4887 4888 4897 4896 
1567 235 234 1576 4888 1793 1794 4897 
246 1568 1577 247 1713 4889 4898 1714 
1568 1569 1578 1577 4889 4890 4899 4898 
1569 1570 1579 1578 4890 4891 4900 4899 
1570 1571 1580 1579 4891 4892 4901 4900 
1571 1572 1581 1580 4892 4893 4902 4901 
1572 1573 1582 1581 4893 4894 4903 4902 
1573 1574 1583 1582 4894 4895 4904 4903 
1574 1575 1584 1583 4895 4896 4905 4904 
1575 1576 1585 1584 4896 4897 4906 4905 
1576 234 233 1585 4897 1794 1795 4906 
247 1577 1586 248 1714 4898 4907 1715 
1577 1578 1587 1586 4898 4899 4908 4907 
1578 1579 1588 1587 4899 4900 4909 4908 
1579 1580 1589 1588 4900 4901 4910 4909 
1580 1581 1590 1589 4901 4902 4911 4910 
1581 1582 1591 1590 4902 4903 4912 4911 
1582 1583 1592 1591 4903 4904 4913 4912 
1583 1584 1593 1592 4904 4905 4914 4913 
1584 1585 1594 1593 4905 4906 4915 4914 
1585 233 232 1594 4906 1795 1796 4915 
248 1586 1595 249 1715 4907 4916 1716 
1586 1587 1596 1595 4907 4908 4917 4916 
1587 1588 1597 1596 4908 4909 4918 4917 
1588 1589 1598 1597 4909 4910 4919 4918 
1589 1590 1599 1598 4910 4911 4920 4919 
1590 1591 1600 1599 4911 4912 4921 4920 
1591 1592 1601 1600 4912 4913 4922 4921 
1592 1593 1602 1601 4913 4914 4923 4922 
1593 1594 1603 1602 4914 4915 4924 4923 
1594 232 231 1603 4915 1796 1797 4924 
249 1595 1604 250 1716 4916 4925 1717 
1595 1596 1605 1604 4916 4917 4926 4925 
1596 1597 1606 1605 4917 4918 4927 4926 
1597 1598 1607 1606 4918 4919 4928 4927 
1598 1599 1608 1607 4919 4920 4929 4928 
1599 1600 1609 1608 4920 4921 4930 4929 
1600 1601 1610 1609 4921 4922 4931 4930 
1601 1602 1611 1610 4922 4923 4932 4931 
1602 1603 1612 1611 4923 4924 4933 4932 
1603 231 230 1612 4924 1797 1798 4933 
250 1604 1613 251 1717 4925 4934 1718 
1604 1605 1614 1613 4925 4926 4935 4934 
1605 1606 1615 1614 4926 4927 4936 4935 
1606 1607 1616 1615 4927 4928 4937 4936 
1607 1608 1617 1616 4928 4929 4938 4937 
1608 1609 1618 1617 4929 4930 4939 4938 
1609 1610 1619 1618 4930 4931 4940 4939 
1610 1611 1620 1619 4931 4932 4941 4940 
1611 1612 1621 1620 4932 4933 4942 4941 
1612 230 229 1621 4933 1798 1799 4942 
251 1613 1622 252 1718 4934 4943 1719 
1613 1614 1623 1622 4934 4935 4944 4943 
1614 1615 1624 1623 4935 4936 4945 4944 
1615 1616 1625 1624 4936 4937 4946 4945 
1616 1617 1626 1625 4937 4938 4947 4946 
1617 1618 1627 1626 4938 4939 4948 4947 
1618 1619 1628 1627 4939 4940 4949 4948 
1619 1620 1629 1628 4940 4941 4950 4949 
1620 1621 1630 1629 4941 4942 4951 4950 
1621 229 228 1630 4942 1799 1800 4951 
252 1622 1631 253 1719 4943 4952 1720 
1622 1623 1632 1631 4943 4944 4953 4952 
1623 1624 1633 1632 4944 4945 4954 4953 
1624 1625 1634 1633 4945 4946 4955 4954 
1625 1626 1635 1634 4946 4947 4956 4955 
1626 1627 1636 1635 4947 4948 4957 4956 
1627 1628 1637 1636 4948 4949 4958 4957 
1628 1629 1638 1637 4949 4950 4959 4958 
1629 1630 1639 1638 4950 4951 4960 4959 
1630 228 227 1639 4951 1800 1801 4960 
253 1631 236 11 1720 4952 1874 262 
1631 1632 237 236 4952 4953 1875 1874 
1632 1633 238 237 4953 4954 1876 1875 
1633 1634 239 238 4954 4955 1877 1876 
1634 1635 240 239 4955 4956 1878 1877 
1635 1636 241 240 4956 4957 1879 1878 
1636 1637 242 241 4957 4958 1880 1879 
1637 1638 243 242 4958 4959 1881 1880 
1638 1639 244 243 4959 4960 1882 1881 
1639 227 10 244 4960 1801 263 1882 
</DataArray>
<DataArray type="UInt32" Name="offsets" NumberOfComponents="1" format="ascii" >
8
16
24
32
40
48
56
64
72
80
88
96
104
112
120
128
136
144
152
160
168
176
184
192
200
208
216
224
232
240
248
256
264
272
280
288
296
304
312
320
328
336
344
352
360
368
376
384
392
400
408
416
424
432
440
448
456
464
472
480
488
496
504
512
520
528
536
544
552
560
568
576
584
592
600
608
616
624
632
640
648
656
664
672
680
688
696
704
712
720
728
736
744
752
760
768
776
784
792
800
808
816
824
832
840
848
856
864
872
880
888
896
904
912
920
928
936
944
952
960
968
976
984
992
1000
1008
1016
1024
1032
1040
1048
1056
1064
1072
1080
1088
1096
1104
1112
1120
1128
1136
1144
1152
1160
1168
1176
1184
1192
1200
1208
1216
1224
1232
1240
1248
1256
1264
1272
1280
1288
1296
1304
1312
1320
1328
1336
1344
1352
1360
1368
1376
1384
1392
1400
1408
1416
1424
1432
1440
1448
1456
1464
1472
1480
1488
1496
1504
1512
1520
1528
1536
1544
1552
1560
1568
1576
1584
1592
1600
1608
1616
1624
1632
1640
1648
1656
1664
1672
1680
1688
1696
1704
1712
1720
1728
1736
1744
1752
1760
1768
1776
1784
1792
1800
1808
1816
1824
1832
1840
1848
1856
1864
1872
1880
1888
1896
1904
1912
1920
1928
1936
1944
1952
1960
1968
1976
1984
1992
2000
2008
2016
2024
2032
2040
2048
2056
2064
2072
2080
2088
2096
2104
2112
2120
2128
2136
2144
2152
2160
2168
2176
2184
2192
2200
2208
2216
2224
2232
2240
2248
2256
2264
2272
2280
2288
2296
2304
2312
2320
2328
2336
2344
2352
2360
2368
2376
2384
2392
2400
2408
2416
2424
2432
2440
2448
2456
2464
2472
2480
2488
2496
2504
2512
2520
2528
2536
2544
2552
2560
2568
2576
2584
2592
2600
2608
2616
2624
2632
2640
2648
2656
2664
2672
2680
2688
2696
2704
2712
2720
2728
2736
2744
2752
2760
2768
2776
2784
2792
2800
2808
2816
2824
2832
2840
2848
2856
2864
2872
2880
2888
2896
2904
2912
2920
2928
2936
2944
2952
2960
2968
2976
2984
2992
3000
3008
3016
3024
3032
3040
3048
3056
3064
3072
3080
3088
3096
3104
3112
3120
3128
3136
3144
3152
3160
3168
3176
3184
3192
3200
3208
3216
3224
3232
3240
3248
3256
3264
3272
3280
3288
3296
3304
3312
3320
3328
3336
3344
3352
3360
3368
3376
3384
3392
3400
3408
3416
3424
3432
3440
3448
3456
3464
3472
3480
3488
3496
3504
3512
3520
3528
3536
3544
3552
3560
3568
3576
3584
3592
3600
3608
3616
3624
3632
3640
3648
3656
3664
3672
3680
3688
3696
3704
3712
3720
3728
3736
3744
3752
3760
3768
3776
3784
3792
3800
3808
3816
3824
3832
3840
3848
3856
3864
3872
3880
3888
3896
3904
3912
3920
3928
3936
3944
3952
3960
3968
3976
3984
3992
4000
4008
4016
4024
4032
4040
4048
4056
4064
4072
4080
4088
4096
4104
4112
4120
4128
4136
4144
4152
4160
4168
4176
4184
4192
4200
4208
4216
4224
4232
4240
4248
4256
4264
4272
4280
4288
4296
4304
4312
4320
4328
4336
4344
4352
4360
4368
4376
4384
4392
4400
4408
4416
4424
4432
4440
4448
4456
4464
4472
4480
4488
4496
4504
4512
4520
4528
4536
4544
4552
4560
4568
4576
4584
4592
4600
4608
4616
4624
4632
4640
4648
4656
4664
4672
4680
4688
4696
4704
4712
4720
4728
4736
4744
4752
4760
4768
4776
4784
4792
4800
4808
4816
4824
4832
4840
4848
4856
4864
4872
4880
4888
4896
4904
4912
4920
4928
4936
4944
4952
4960
4968
4976
4984
4992
5000
5008
5016
5024
5032
5040
5048
5056
5064
5072
5080
5088
5096
5104
5112
5120
5128
5136
5144
5152
5160
5168
5176
5184
5192
5200
5208
5216
5224
5232
5240
5248
5256
5264
5272
5280
5288
5296
5304
5312
5320
5328
5336
5344
5352
5360
5368
5376
5384
5392
5400
5408
5416
5424
5432
5440
5448
5456
5464
5472
5480
5488
5496
5504
5512
5520
5528
5536
5544
5552
5560
5568
5576
5584
5592
5600
5608
5616
5624
5632
5640
5648
5656
5664
5672
5680
5688
5696
5704
5712
5720
5728
5736
5744
5752
5760
5768
5776
5784
5792
5800
5808
5816
5824
5832
5840
5848
5856
5864
5872
5880
5888
5896
5904
5912
5920
5928
5936
5944
5952
5960
5968
5976
5984
5992
6000
6008
6016
6024
6032
6040
6048
6056
6064
6072
6080
6088
6096
6104
6112
6120
6128
6136
6144
6152
6160
6168
6176
6184
6192
6200
6208
6216
6224
6232
6240
6248
6256
6264
6272
6280
6288
6296
6304
6312
6320
6328
6336
6344
6352
6360
6368
6376
6384
6392
6400
6408
6416
6424
6432
6440
6448
6456
6464
6472
6480
6488
6496
6504
6512
6520
6528
6536
6544
6552
6560
6568
6576
6584
6592
6600
6608
6616
6624
6632
6640
6648
6656
6664
6672
6680
6688
6696
6704
6712
6720
6728
6736
6744
6752
6760
6768
6776
6784
6792
6800
6808
6816
6824
6832
6840
6848
6856
6864
6872
6880
6888
6896
6904
6912
6920
6928
6936
6944
6952
6960
6968
6976
6984
6992
7000
7008
7016
7024
7032
7040
7048
7056
7064
7072
7080
7088
7096
7104
7112
7120
7128
7136
7144
7152
7160
7168
7176
7184
7192
7200
7208
7216
7224
7232
7240
7248
7256
7264
7272
7280
7288
7296
7304
7312
7320
7328
7336
7344
7352
7360
7368
7376
7384
7392
7400
7408
7416
7424
7432
7440
7448
7456
7464
7472
7480
7488
7496
7504
7512
7520
7528
7536
7544
7552
7560
7568
7576
7584
7592
7600
7608
7616
7624
7632
7640
7648
7656
7664
7672
7680
7688
7696
7704
7712
7720
7728
7736
7744
7752
7760
7768
7776
7784
7792
7800
7808
7816
7824
7832
7840
7848
7856
7864
7872
7880
7888
7896
7904
7912
7920
7928
7936
7944
7952
7960
7968
7976
7984
7992
8000
8008
8016
8024
8032
8040
8048
8056
8064
8072
8080
8088
8096
8104
8112
8120
8128
8136
8144
8152
8160
8168
8176
8184
8192
8200
8208
8216
8224
8232
8240
8248
8256
8264
8272
8280
8288
8296
8304
8312
8320
8328
8336
8344
8352
8360
8368
8376
8384
8392
8400
8408
8416
8424
8432
8440
8448
8456
8464
8472
8480
8488
8496
8504
8512
8520
8528
8536
8544
8552
8560
8568
8576
8584
8592
8600
8608
8616
8624
8632
8640
8648
8656
8664
8672
8680
8688
8696
8704
8712
8720
8728
8736
8744
8752
8760
8768
8776
8784
8792
8800
8808
8816
8824
8832
8840
8848
8856
8864
8872
8880
8888
8896
8904
8912
8920
8928
8936
8944
8952
8960
8968
8976
8984
8992
9000
9008
9016
9024
9032
9040
9048
9056
9064
9072
9080
9088
9096
9104
9112
9120
9128
9136
9144
9152
9160
9168
9176
9184
9192
9200
9208
9216
9224
9232
9240
9248
9256
9264
9272
9280
9288
9296
9304
9312
9320
9328
9336
9344
9352
9360
9368
9376
9384
9392
9400
9408
9416
9424
9432
9440
9448
9456
9464
9472
9480
9488
9496
9504
9512
9520
9528
9536
9544
9552
9560
9568
9576
9584
9592
9600
9608
9616
9624
9632
9640
9648
9656
9664
9672
9680
9688
9696
9704
9712
9720
9728
9736
9744
9752
9760
9768
9776
9784
9792
9800
9808
9816
9824
9832
9840
9848
9856
9864
9872
9880
9888
9896
9904
9912
9920
9928
9936
9944
9952
9960
9968
9976
9984
9992
10000
10008
10016
10024
10032
10040
10048
10056
10064
10072
10080
10088
10096
10104
10112
10120
10128
10136
10144
10152
10160
10168
10176
10184
10192
10200
10208
10216
10224
10232
10240
10248
10256
10264
10272
10280
10288
10296
10304
10312
10320
10328
10336
10344
10352
10360
10368
10376
10384
10392
10400
10408
10416
10424
10432
10440
10448
10456
10464
10472
10480
10488
10496
10504
10512
10520
10528
10536
10544
10552
10560
10568
10576
10584
10592
10600
10608
10616
10624
10632
10640
10648
10656
10664
10672
10680
10688
10696
10704
10712
10720
10728
10736
10744
10752
10760
10768
10776
10784
10792
10800
10808
10816
10824
10832
10840
10848
10856
10864
10872
10880
10888
10896
10904
10912
10920
10928
10936
10944
10952
10960
10968
10976
10984
10992
11000
11008
11016
11024
11032
11040
11048
11056
11064
11072
11080
11088
11096
11104
11112
11120
11128
11136
11144
11152
11160
11168
11176
11184
11192
11200
11208
11216
11224
11232
11240
11248
11256
11264
11272
11280
11288
11296
11304
11312
11320
11328
11336
11344
11352
11360
11368
11376
11384
11392
11400
11408
11416
11424
11432
11440
11448
11456
11464
11472
11480
11488
11496
11504
11512
11520
11528
11536
11544
11552
11560
11568
11576
11584
11592
11600
11608
11616
11624
11632
11640
11648
11656
11664
11672
11680
11688
11696
11704
11712
11720
11728
11736
11744
11752
11760
11768
11776
11784
11792
11800
11808
11816
11824
11832
11840
11848
11856
11864
11872
11880
11888
11896
11904
11912
11920
11928
11936
11944
11952
11960
11968
11976
11984
11992
12000
12008
12016
12024
12032
12040
12048
12056
12064
12072
12080
12088
12096
12104
12112
12120
12128
12136
12144
12152
12160
12168
12176
12184
12192
12200
12208
12216
12224
12232
12240
12248
12256
12264
12272
12280
12288
12296
12304
12312
12320
12328
12336
12344
12352
12360
12368
12376
12384
12392
12400
12408
12416
12424
12432
12440
12448
12456
12464
12472
12480
12488
12496
12504
12512
12520
12528
12536
12544
12552
12560
12568
12576
12584
12592
12600
12608
12616
12624
12632
12640
12648
12656
12664
12672
12680
12688
12696
12704
12712
12720
12728
12736
12744
12752
12760
12768
12776
12784
12792
12800
12808
12816
12824
12832
12840
12848
12856
12864
12872
12880
12888
12896
12904
12912
12920
12928
12936
12944
12952
12960
12968
12976
12984
12992
13000
13008
13016
13024
13032
13040
13048
13056
13064
13072
13080
13088
13096
13104
13112
13120
13128
13136
13144
13152
13160
13168
13176
13184
13192
13200
13208
13216
13224
13232
13240
13248
13256
13264
13272
13280
13288
13296
13304
13312
13320
13328
13336
13344
13352
13360
13368
13376
13384
13392
13400
13408
13416
13424
13432
13440
13448
13456
13464
13472
13480
13488
13496
13504
13512
13520
13528
13536
13544
13552
13560
13568
13576
13584
13592
13600
13608
13616
13624
13632
13640
13648
13656
13664
13672
13680
13688
13696
13704
13712
13720
13728
13736
13744
13752
13760
13768
13776
13784
13792
13800
13808
13816
13824
13832
13840
13848
13856
13864
13872
13880
13888
13896
13904
13912
13920
13928
13936
13944
13952
13960
13968
13976
13984
13992
14000
14008
14016
14024
14032
14040
14048
14056
14064
14072
14080
14088
14096
14104
14112
14120
14128
14136
14144
14152
14160
14168
14176
14184
14192
14200
14208
14216
14224
14232
14240
14248
14256
14264
14272
14280
14288
14296
14304
14312
14320
14328
14336
14344
14352
14360
14368
14376
14384
14392
14400
14408
14416
14424
14432
14440
14448
14456
14464
14472
14480
14488
14496
14504
14512
14520
14528
14536
14544
14552
14560
14568
14576
14584
14592
14600
14608
14616
14624
14632
14640
14648
14656
14664
14672
14680
14688
14696
14704
14712
14720
14728
14736
14744
14752
14760
14768
14776
14784
14792
14800
14808
14816
14824
14832
14840
14848
14856
14864
14872
14880
14888
14896
14904
14912
14920
14928
14936
14944
14952
14960
14968
14976
14984
14992
15000
15008
15016
15024
15032
15040
15048
15056
15064
15072
15080
15088
15096
15104
15112
15120
15128
15136
15144
15152
15160
15168
15176
15184
15192
15200
15208
15216
15224
15232
15240
15248
15256
15264
15272
15280
15288
15296
15304
15312
15320
15328
15336
15344
15352
15360
15368
15376
15384
15392
15400
15408
15416
15424
15432
15440
15448
15456
15464
15472
15480
15488
15496
15504
15512
15520
15528
15536
15544
15552
15560
15568
15576
15584
15592
15600
15608
15616
15624
15632
15640
15648
15656
15664
15672
15680
15688
15696
15704
15712
15720
15728
15736
15744
15752
15760
15768
15776
15784
15792
15800
15808
15816
15824
15832
15840
15848
15856
15864
15872
15880
15888
15896
15904
15912
15920
15928
15936
15944
15952
15960
15968
15976
15984
15992
16000
16008
16016
16024
16032
16040
16048
16056
16064
16072
16080
16088
16096
16104
16112
16120
16128
16136
16144
16152
16160
16168
16176
16184
16192
16200
16208
16216
16224
16232
16240
16248
16256
16264
16272
16280
16288
16296
16304
16312
16320
16328
16336
16344
16352
16360
16368
16376
16384
16392
16400
16408
16416
16424
16432
16440
16448
16456
16464
16472
16480
16488
16496
16504
16512
16520
16528
16536
16544
16552
16560
16568
16576
16584
16592
16600
16608
16616
16624
16632
16640
16648
16656
16664
16672
16680
16688
16696
16704
16712
16720
16728
16736
16744
16752
16760
16768
16776
16784
16792
16800
16808
16816
16824
16832
16840
16848
16856
16864
16872
16880
16888
16896
16904
16912
16920
16928
16936
16944
16952
16960
16968
16976
16984
16992
17000
17008
17016
17024
17032
17040
17048
17056
17064
17072
17080
17088
17096
17104
17112
17120
17128
17136
17144
17152
17160
17168
17176
17184
17192
17200
17208
17216
17224
17232
17240
17248
17256
17264
17272
17280
17288
17296
17304
17312
17320
17328
17336
17344
17352
17360
17368
17376
17384
17392
17400
17408
17416
17424
17432
17440
17448
17456
17464
17472
17480
17488
17496
17504
17512
17520
17528
17536
17544
17552
17560
17568
17576
17584
17592
17600
17608
17616
17624
17632
17640
17648
17656
17664
17672
17680
17688
17696
17704
17712
17720
17728
17736
17744
17752
17760
17768
17776
17784
17792
17800
17808
17816
17824
17832
17840
17848
17856
17864
17872
17880
17888
17896
17904
17912
17920
17928
17936
17944
17952
17960
17968
17976
17984
17992
18000
18008
18016
18024
18032
18040
18048
18056
18064
18072
18080
18088
18096
18104
18112
18120
18128
18136
18144
18152
18160
18168
18176
18184
18192
18200
18208
18216
18224
18232
18240
18248
18256
18264
18272
18280
18288
18296
18304
18312
18320
18328
18336
18344
18352
18360
18368
18376
18384
18392
18400
18408
18416
18424
18432
18440
18448
18456
18464
18472
18480
18488
18496
18504
18512
18520
18528
18536
18544
18552
18560
18568
18576
18584
18592
18600
18608
18616
18624
18632
18640
18648
18656
18664
18672
18680
18688
18696
18704
18712
18720
18728
18736
18744
18752
18760
18768
18776
18784
18792
18800
18808
18816
18824
18832
18840
18848
18856
18864
18872
18880
18888
18896
18904
18912
18920
18928
18936
18944
18952
18960
18968
18976
18984
18992
19000
19008
19016
19024
19032
19040
19048
19056
19064
19072
19080
19088
19096
19104
19112
19120
19128
19136
19144
19152
19160
19168
19176
19184
19192
19200
19208
19216
19224
19232
19240
19248
19256
19264
19272
19280
19288
19296
19304
19312
19320
19328
19336
19344
19352
19360
19368
19376
19384
19392
19400
19408
19416
19424
19432
19440
19448
19456
19464
19472
19480
19488
19496
19504
19512
19520
19528
19536
19544
19552
19560
19568
19576
19584
19592
19600
19608
19616
19624
19632
19640
19648
19656
19664
19672
19680
19688
19696
19704
19712
19720
19728
19736
19744
19752
19760
19768
19776
19784
19792
19800
19808
19816
19824
19832
19840
19848
19856
19864
19872
19880
19888
19896
19904
19912
19920
19928
19936
19944
19952
19960
19968
19976
19984
19992
20000
20008
20016
20024
20032
20040
20048
20056
20064
20072
20080
20088
20096
20104
20112
20120
20128
20136
20144
20152
20160
20168
20176
20184
20192
20200
20208
20216
20224
20232
20240
20248
20256
20264
20272
20280
20288
20296
20304
20312
20320
20328
20336
20344
20352
20360
20368
20376
20384
20392
20400
20408
20416
20424
20432
20440
20448
20456
20464
20472
20480
20488
20496
20504
20512
20520
20528
20536
20544
20552
20560
20568
20576
20584
20592
20600
20608
20616
20624
20632
20640
20648
20656
20664
20672
20680
20688
20696
20704
20712
20720
20728
20736
20744
20752
20760
20768
20776
20784
20792
20800
20808
20816
20824
20832
20840
20848
20856
20864
20872
20880
20888
20896
20904
20912
20920
20928
20936
20944
20952
20960
20968
20976
20984
20992
21000
21008
21016
21024
21032
21040
21048
21056
21064
21072
21080
21088
21096
21104
21112
21120
21128
21136
21144
21152
21160
21168
21176
21184
21192
21200
21208
21216
21224
21232
21240
21248
21256
21264
21272
21280
21288
21296
21304
21312
21320
21328
21336
21344
21352
21360
21368
21376
21384
21392
21400
21408
21416
21424
21432
21440
21448
21456
21464
21472
21480
21488
21496
21504
21512
21520
21528
21536
21544
21552
21560
21568
21576
21584
21592
21600
21608
21616
21624
21632
21640
21648
21656
21664
21672
21680
21688
21696
21704
21712
21720
21728
21736
21744
21752
21760
21768
21776
21784
21792
21800
21808
21816
21824
21832
21840
21848
21856
21864
21872
21880
21888
21896
21904
21912
21920
21928
21936
21944
21952
21960
21968
21976
21984
21992
22000
22008
22016
22024
22032
22040
22048
22056
22064
22072
22080
22088
22096
22104
22112
22120
22128
22136
22144
22152
22160
22168
22176
22184
22192
22200
22208
22216
22224
22232
22240
22248
22256
22264
22272
22280
22288
22296
22304
22312
22320
22328
22336
22344
22352
22360
22368
22376
22384
22392
22400
22408
22416
22424
22432
22440
22448
22456
22464
22472
22480
22488
22496
22504
22512
22520
22528
22536
22544
22552
22560
22568
22576
22584
22592
22600
22608
22616
22624
22632
22640
22648
22656
22664
22672
22680
22688
22696
22704
22712
22720
22728
22736
22744
22752
22760
22768
22776
22784
22792
22800
22808
22816
22824
22832
22840
22848
22856
22864
22872
22880
22888
22896
22904
22912
22920
22928
22936
22944
22952
22960
22968
22976
22984
22992
23000
23008
23016
23024
23032
23040
23048
23056
23064
23072
23080
23088
23096
23104
23112
23120
23128
23136
23144
23152
23160
23168
23176
23184
23192
23200
23208
23216
23224
23232
23240
23248
23256
23264
23272
23280
23288
23296
23304
23312
23320
23328
23336
23344
23352
23360
23368
23376
23384
23392
23400
23408
23416
23424
23432
23440
23448
23456
23464
23472
23480
23488
23496
23504
23512
23520
23528
23536
23544
23552
23560
23568
23576
23584
23592
23600
23608
23616
23624
23632
23640
23648
23656
23664
23672
23680
23688
23696
23704
23712
23720
23728
23736
23744
23752
23760
23768
23776
23784
23792
23800
23808
23816
23824
23832
23840
23848
23856
23864
23872
23880
23888
23896
23904
23912
23920
23928
23936
23944
23952
23960
23968
23976
23984
23992
24000
24008
24016
24024
24032
24040
24048
24056
24064
24072
24080
24088
24096
24104
24112
24120
24128
24136
24144
24152
24160
24168
24176
24184
24192
24200
24208
24216
24224
24232
24240
24248
24256
24264
24272
24280
24288
24296
24304
24312
24320
24328
24336
24344
24352
24360
24368
24376
24384
24392
24400
24408
24416
24424
24432
24440
24448
24456
24464
24472
24480
24488
24496
24504
24512
24520
24528
24536
24544
24552
24560
24568
24576
24584
24592
24600
24608
24616
24624
24632
24640
24648
24656
24664
24672
24680
24688
24696
24704
24712
24720
24728
24736
24744
24752
24760
24768
24776
24784
24792
24800
24808
24816
24824
24832
24840
24848
24856
24864
24872
24880
24888
24896
24904
24912
24920
24928
24936
24944
24952
24960
24968
24976
24984
24992
25000
25008
25016
25024
25032
25040
25048
25056
25064
25072
25080
25088
25096
25104
25112
25120
25128
25136
25144
25152
25160
25168
25176
25184
25192
25200
25208
25216
25224
25232
25240
25248
25256
25264
25272
25280
25288
25296
25304
25312
25320
25328
25336
25344
25352
25360
25368
25376
25384
25392
25400
25408
25416
25424
25432
25440
25448
25456
25464
25472
25480
25488
25496
25504
25512
25520
25528
25536
25544
25552
25560
25568
25576
25584
25592
25600
25608
25616
25624
25632
25640
25648
25656
25664
25672
25680
25688
25696
25704
25712
25720
25728
25736
25744
25752
25760
25768
25776
25784
25792
25800
25808
25816
25824
25832
25840
25848
25856
25864
25872
25880
25888
25896
25904
25912
25920
25928
25936
25944
25952
25960
25968
25976
25984
25992
26000
26008
26016
26024
26032
26040
26048
26056
26064
26072
26080
26088
26096
26104
26112
26120
26128
26136
26144
26152
26160
26168
26176
26184
26192
26200
26208
26216
26224
26232
26240
26248
26256
26264
26272
26280
26288
26296
26304
26312
26320
26328
26336
26344
26352
26360
26368
26376
26384
26392
26400
26408
26416
26424
26432
26440
26448
26456
26464
26472
26480
26488
26496
26504
26512
26520
26528
26536
26544
26552
26560
26568
26576
26584
26592
26600
26608
26616
26624
26632
26640
26648
26656
26664
26672
26680
26688
26696
26704
26712
26720
26728
26736
26744
26752
26760
26768
26776
26784
26792
26800
26808
26816
26824
26832
26840
26848
26856
26864
26872
26880
26888
26896
26904
26912
26920
26928
26936
26944
26952
26960
26968
26976
26984
26992
27000
27008
27016
27024
27032
27040
27048
27056
27064
27072
27080
27088
27096
27104
27112
27120
27128
27136
27144
27152
27160
27168
27176
27184
27192
27200
27208
27216
27224
27232
27240
27248
27256
27264
27272
27280
27288
27296
27304
27312
27320
27328
27336
27344
27352
27360
27368
27376
27384
27392
27400
27408
27416
27424
27432
27440
27448
27456
27464
27472
27480
27488
27496
27504
27512
27520
27528
27536
27544
27552
27560
27568
27576
27584
27592
27600
27608
27616
27624
27632
27640
27648
27656
27664
27672
27680
27688
27696
27704
27712
27720
27728
27736
27744
27752
27760
27768
27776
27784
27792
27800
27808
27816
27824
27832
27840
27848
27856
27864
27872
27880
27888
27896
27904
27912
27920
27928
27936
27944
27952
27960
27968
27976
27984
27992
28000
28008
28016
28024
28032
28040
28048
28056
28064
28072
28080
28088
28096
28104
28112
28120
28128
28136
28144
28152
28160
28168
28176
28184
28192
28200
28208
28216
28224
28232
28240
28248
28256
28264
28272
28280
28288
28296
28304
28312
28320
28328
28336
28344
28352
28360
28368
28376
28384
28392
28400
28408
28416
28424
28432
28440
28448
28456
28464
28472
28480
28488
28496
28504
28512
28520
28528
28536
28544
28552
28560
28568
28576
28584
28592
28600
28608
28616
28624
28632
28640
28648
28656
28664
28672
28680
28688
28696
28704
28712
28720
28728
28736
28744
28752
28760
28768
28776
28784
28792
28800
28808
28816
28824
28832
28840
28848
28856
28864
28872
28880
28888
28896
28904
28912
28920
28928
28936
28944
28952
28960
28968
28976
28984
28992
29000
29008
29016
29024
29032
29040
29048
29056
29064
29072
29080
29088
29096
29104
29112
29120
29128
29136
29144
29152
29160
29168
29176
29184
29192
29200
29208
29216
29224
29232
29240
29248
29256
29264
29272
29280
29288
29296
29304
29312
29320
29328
29336
29344
29352
29360
29368
29376
29384
29392
29400
29408
29416
29424
29432
29440
29448
29456
29464
29472
29480
29488
29496
29504
29512
29520
29528
29536
29544
29552
29560
29568
29576
29584
29592
29600
29608
29616
29624
29632
29640
29648
29656
29664
29672
29680
29688
29696
29704
29712
29720
29728
29736
29744
29752
29760
29768
29776
29784
29792
29800
29808
29816
29824
29832
29840
29848
29856
29864
29872
29880
29888
29896
29904
29912
29920
29928
29936
29944
29952
29960
29968
29976
29984
29992
30000
30008
30016
30024
30032
30040
30048
30056
30064
30072
30080
30088
30096
30104
30112
30120
30128
30136
30144
30152
30160
30168
30176
30184
30192
30200
30208
30216
30224
30232
30240
30248
30256
30264
30272
30280
30288
30296
30304
30312
30320
30328
30336
30344
30352
30360
30368
30376
30384
30392
30400
30408
30416
30424
30432
30440
30448
30456
30464
30472
30480
30488
30496
30504
30512
30520
30528
30536
30544
30552
30560
30568
30576
30584
30592
30600
30608
30616
30624
30632
30640
30648
30656
30664
30672
30680
30688
30696
30704
30712
30720
30728
30736
30744
30752
30760
30768
30776
30784
30792
30800
30808
30816
30824
30832
30840
30848
30856
30864
30872
30880
30888
30896
30904
30912
30920
30928
30936
30944
30952
30960
30968
30976
30984
30992
31000
31008
31016
31024
31032
31040
31048
31056
31064
31072
31080
31088
31096
31104
31112
31120
31128
31136
31144
31152
31160
31168
31176
31184
31192
31200
31208
31216
31224
31232
31240
31248
31256
31264
31272
31280
31288
31296
31304
31312
31320
31328
31336
31344
31352
31360
31368
31376
31384
31392
31400
31408
31416
31424
31432
31440
31448
31456
31464
31472
31480
31488
31496
31504
31512
31520
31528
31536
31544
31552
31560
31568
31576
31584
31592
31600
31608
31616
31624
31632
31640
31648
31656
31664
31672
31680
31688
31696
31704
31712
31720
31728
31736
31744
31752
31760
31768
31776
31784
31792
31800
31808
31816
31824
31832
31840
31848
31856
31864
31872
31880
31888
31896
31904
31912
31920
31928
31936
31944
31952
31960
31968
31976
31984
31992
32000
</DataArray>
<DataArray type="UInt8" Name="types" NumberOfComponents="1" format="ascii" >
12
12
12
12
12
12
12
12
12
12
12
12
12
12
12
12
12
12
12
12
12
12
12
12
12
12
12
12
12
12
12
12
12
12
12
12
12
12
12
12
12
12
12
12
12
12
12
12
12
12
12
12
12
12
12
12
12
12
12
12
12
12
12
12
12
12
12
12
12
12
12
12
12
12
12
12
12
12
12
12
12
12
12
12
12
12
12
12
12
12
12
12
12
12
12
12
12
12
12
12
12
12
12
12
12
12
12
12
12
12
12
12
12
12
12
12
12
12
12
12
12
12
12
12
12
12
12
12
12
12
12
12
12
12
12
12
12
12
12
12
12
12
12
12
12
12
12
12
12
12
12
12
12
12
12
12
12
12
12
12
12
12
12
12
12
12
12
12
12
12
12
12
12
12
12
12
12
12
12
12
12
12
12
12
12
12
12
12
12
12
12
12
12
12
12
12
12
12
12
12
12
12
12
12
12
12
12
12
12
12
12
12
12
12
12
12
12
12
12
12
12
12
12
12
12
12
12
12
12
12
12
12
12
12
12
12
12
12
12
12
12
12
12
12
12
12
12
12
12
12
12
12
12
12
12
12
12
12
12
12
12
12
12
12
12
12
12
12
12
12
12
12
12
12
12
12
12
12
12
12
12
12
12
12
12
12
12
12
12
12
12
12
12
12
12
12
12
12
12
12
12
12
12
12
12
12
12
12
12
12
12
12
12
12
12
12
12
12
12
12
12
12
12
12
12
12
12
12
12
12
12
12
12
12
12
12
12
12
12
12
12
12
12
12
12
12
12
12
12
12
12
12
12
12
12
12
12
12
12
12
12
12
12
12
12
12
12
12
12
12
12
12
12
12
12
12
12
12
12
12
12
12
12
12
12
12
12
12
12
12
12
12
12
12
12
12
12
12
12
12
12
12
12
12
12
12
12
12
12
12
12
12
12
12
12
12
12
12
12
12
12
12
12
12
12
12
12
12
12
12
12
12
12
12
12
12
12
12
12
12
12
12
12
12
12
12
12
12
12
12
12
12
12
12
12
12
12
12
12
12
12
12
12
12
12
12
12
12
12
12
12
12
12
12
12
12
12
12
12
12
12
12
12
12
12
12
12
12
12
12
12
12
12
12
12
12
12
12
12
12
12
12
12
12
12
12
12
12
12
12
12
12
12
12
12
12
12
12
12
12
12
12
12
12
12
12
12
12
12
12
12
12
12
12
12
12
12
12
12
12
12
12
12
12
12
12
12
12
12
12
12
12
12
12
12
12
12
12
12
12
12
12
12
12
12
12
12
12
12
12
12
12
12
12
12
12
12
12
12
12
12
12
12
12
12
12
12
12
12
12
12
12
12
12
12
12
12
12
12
12
12
12
12
12
12
12
12
12
12
12
12
12
12
12
12
12
12
12
12
12
12
12
12
12
12
12
12
12
12
12
12
12
12
12
12
12
12
12
12
12
12
12
12
12
12
12
12
12
12
12
12
12
12
12
12
12
12
12
12
12
12
12
12
12
12
12
12
12
12
12
12
12
12
12
12
12
12
12
12
12
12
12
12
12
12
12
12
12
12
12
12
12
12
12
12
12
12
12
12
12
12
12
12
12
12
12
12
12
12
12
12
12
12
12
12
12
12
12
12
12
12
12
12
12
12
12
12
12
12
12
12
12
12
12
12
12
12
12
12
12
12
12
12
12
12
12
12
12
12
12
12
12
12
12
12
12
12
12
12
12
12
12
12
12
12
12
12
12
12
12
12
12
12
12
12
12
12
12
12
12
12
12
12
12
12
12
12
12
12
12
12
12
12
12
12
12
12
12
12
12
12
12
12
12
12
12
12
12
12
12
12
12
12
12
12
12
12
12
12
12
12
12
12
12
12
12
12
12
12
12
12
12
12
12
12
12
12
12
12
12
12
12
12
12
12
12
12
12
12
12
12
12
12
12
12
12
12
12
12
12
12
12
12
12
12
12
12
12
12
12
12
12
12
12
12
12
12
12
12
12
12
12
12
12
12
12
12
12
12
12
12
12
12
12
12
12
12
12
12
12
12
12
12
12
12
12
12
12
12
12
12
12
12
12
12
12
12
12
12
12
12
12
12
12
12
12
12
12
12
12
12
12
12
12
12
12
12
12
12
12
12
12
12
12
12
12
12
12
12
12
12
12
12
12
12
12
12
12
12
12
12
12
12
12
12
12
12
12
12
12
12
12
12
12
12
12
12
12
12
12
12
12
12
12
12
12
12
12
12
12
12
12
12
12
12
12
12
12
12
12
12
12
12
12
12
12
12
12
12
12
12
12
12
12
12
12
12
12
12
12
12
12
12
12
12
12
12
12
12
12
12
12
12
12
12
12
12
12
12
12
12
12
12
12
12
12
12
12
12
12
12
12
12
12
12
12
12
12
12
12
12
12
12
12
12
12
12
12
12
12
12
12
12
12
12
12
12
12
12
12
12
12
12
12
12
12
12
12
12
12
12
12
12
12
12
12
12
12
12
12
12
12
12
12
12
12
12
12
12
12
12
12
12
12
12
12
12
12
12
12
12
12
12
12
12
12
12
12
12
12
12
12
12
12
12
12
12
12
12
12
12
12
12
12
12
12
12
12
12
12
12
12
12
12
12
12
12
12
12
12
12
12
12
12
12
12
12
12
12
12
12
12
12
12
12
12
12
12
12
12
12
12
12
12
12
12
12
12
12
12
12
12
12
12
12
12
12
12
12
12
12
12
12
12
12
12
12
12
12
12
12
12
12
12
12
12
12
12
12
12
12
12
12
12
12
12
12
12
12
12
12
12
12
12
12
12
12
12
12
12
12
12
12
12
12
12
12
12
12
12
12
12
12
12
12
12
12
12
12
12
12
12
12
12
12
12
12
12
12
12
12
12
12
12
12
12
12
12
12
12
12
12
12
12
12
12
12
12
12
12
12
12
12
12
12
12
12
12
12
12
12
12
12
12
12
12
12
12
12
12
12
12
12
12
12
12
12
12
12
12
12
12
12
12
12
12
12
12
12
12
12
12
12
12
12
12
12
12
12
12
12
12
12
12
12
12
12
12
12
12
12
12
12
12
12
12
12
12
12
12
12
12
12
12
12
12
12
12
12
12
12
12
12
12
12
12
12
12
12
12
12
12
12
12
12
12
12
12
12
12
12
12
12
12
12
12
12
12
12
12
12
12
12
12
12
12
12
12
12
12
12
12
12
12
12
12
12
12
12
12
12
12
12
12
12
12
12
12
12
12
12
12
12
12
12
12
12
12
12
12
12
12
12
12
12
12
12
12
12
12
12
12
12
12
12
12
12
12
12
12
12
12
12
12
12
12
12
12
12
12
12
12
12
12
12
12
12
12
12
12
12
12
12
12
12
12
12
12
12
12
12
12
12
12
12
12
12
12
12
12
12
12
12
12
12
12
12
12
12
12
12
12
12
12
12
12
12
12
12
12
12
12
12
12
12
12
12
12
12
12
12
12
12
12
12
12
12
12
12
12
12
12
12
12
12
12
12
12
12
12
12
12
12
12
12
12
12
12
12
12
12
12
12
12
12
12
12
12
12
12
12
12
12
12
12
12
12
12
12
12
12
12
12
12
12
12
12
12
12
12
12
12
12
12
12
12
12
12
12
12
12
12
12
12
12
12
12
12
12
12
12
12
12
12
12
12
12
12
12
12
12
12
12
12
12
12
12
12
12
12
12
12
12
12
12
12
12
12
12
12
12
12
12
12
12
12
12
12
12
12
12
12
12
12
12
12
12
12
12
12
12
12
12
12
12
12
12
12
12
12
12
12
12
12
12
12
12
12
12
12
12
12
12
12
12
12
12
12
12
12
12
12
12
12
12
12
12
12
12
12
12
12
12
12
12
12
12
12
12
12
12
12
12
12
12
12
12
12
12
12
12
12
12
12
12
12
12
12
12
12
12
12
12
12
12
12
12
12
12
12
12
12
12
12
12
12
12
12
12
12
12
12
12
12
12
12
12
12
12
12
12
12
12
12
12
12
12
12
12
12
12
12
12
12
12
12
12
12
12
12
12
12
12
12
12
12
12
12
12
12
12
12
12
12
12
12
12
12
12
12
12
12
12
12
12
12
12
12
12
12
12
12
12
12
12
12
12
12
12
12
12
12
12
12
12
12
12
12
12
12
12
12
12
12
12
12
12
12
12
12
12
12
12
12
12
12
12
12
12
12
12
12
12
12
12
12
12
12
12
12
12
12
12
12
12
12
12
12
12
12
12
12
12
12
12
12
12
12
12
12
12
12
12
12
12
12
12
12
12
12
12
12
12
12
12
12
12
12
12
12
12
12
12
12
12
12
12
12
12
12
12
12
12
12
12
12
12
12
12
12
12
12
12
12
12
12
12
12
12
12
12
12
12
12
12
12
12
12
12
12
12
12
12
12
12
12
12
12
12
12
12
12
12
12
12
12
12
12
12
12
12
12
12
12
12
12
12
12
12
12
12
12
12
12
12
12
12
12
12
12
12
12
12
12
12
12
12
12
12
12
12
12
12
12
12
12
12
12
12
12
12
12
12
12
12
12
12
12
12
12
12
12
12
12
12
12
12
12
12
12
12
12
12
12
12
12
12
12
12
12
12
12
12
12
12
12
12
12
12
12
12
12
12
12
12
12
12
12
12
12
12
12
12
12
12
12
12
12
12
12
12
12
12
12
12
12
12
12
12
12
12
12
12
12
12
12
12
12
12
12
12
12
12
12
12
12
12
12
12
12
12
12
12
12
12
12
12
12
12
12
12
12
12
12
12
12
12
12
12
12
12
12
12
12
12
12
12
12
12
12
12
12
12
12
12
12
12
12
12
12
12
12
12
12
12
12
12
12
12
12
12
12
12
12
12
12
12
12
12
12
12
12
12
12
12
12
12
12
12
12
12
12
12
12
12
12
12
12
12
12
12
12
12
12
12
12
12
12
12
12
12
12
12
12
12
12
12
12
12
12
12
12
12
12
12
12
12
12
12
12
12
12
12
12
12
12
12
12
12
12
12
12
12
12
12
12
12
12
12
12
12
12
12
12
12
12
12
12
12
12
12
12
12
12
12
12
12
12
12
12
12
12
12
12
12
12
12
12
12
12
12
12
12
12
12
12
12
12
12
12
12
12
12
12
12
12
12
12
12
12
12
12
12
12
12
12
12
12
12
12
12
12
12
12
12
12
12
12
12
12
12
12
12
12
12
12
12
12
12
12
12
12
12
12
12
12
12
12
12
12
12
12
12
12
12
12
12
12
12
12
12
12
12
12
12
12
12
12
12
12
12
12
12
12
12
12
12
12
12
12
12
12
12
12
12
12
12
12
12
12
12
12
12
12
12
12
12
12
12
12
12
12
12
12
12
12
12
12
12
12
12
12
12
12
12
12
12
12
12
12
12
12
12
12
12
12
12
12
12
12
12
12
12
12
12
12
12
12
12
12
12
12
12
12
12
12
12
12
12
12
12
12
12
12
12
12
12
12
12
12
12
12
12
12
12
12
12
12
12
12
12
12
12
12
12
12
12
12
12
12
12
12
12
12
12
12
12
12
12
12
12
12
12
12
12
12
12
12
12
12
12
12
12
12
12
12
12
12
12
12
12
12
12
12
12
12
12
12
12
12
12
12
12
12
12
12
12
12
12
12
12
12
12
12
12
12
12
12
12
12
12
12
12
12
12
12
12
12
12
12
12
12
12
12
12
12
12
12
12
12
12
12
12
12
12
12
12
12
12
12
12
12
12
12
12
12
12
12
12
12
12
12
12
12
12
12
12
12
12
12
12
12
12
12
12
12
12
12
12
12
12
12
12
12
12
12
12
12
12
12
12
12
12
12
12
12
12
12
12
12
12
12
12
12
12
12
12
12
12
12
12
12
12
12
12
12
12
12
12
12
12
12
12
12
12
12
12
12
12
12
12
12
12
12
12
12
12
12
12
12
12
12
12
12
12
12
12
12
12
12
12
12
12
12
12
12
12
12
12
12
12
12
12
12
12
12
12
12
12
12
12
12
12
12
12
12
12
12
12
12
12
12
12
12
12
12
12
12
12
12
12
12
12
12
12
12
12
12
12
12
12
12
12
12
12
12
12
12
12
12
12
12
12
12
12
12
12
12
12
12
12
12
12
12
12
12
12
12
12
12
12
12
12
12
12
12
12
12
12
12
12
12
12
12
12
12
12
12
12
12
12
12
12
12
12
12
12
12
12
12
12
12
12
12
12
12
12
12
12
12
12
12
12
12
12
12
12
12
12
12
12
12
12
12
12
12
12
12
12
12
12
12
12
12
12
12
12
12
12
12
12
12
12
12
12
12
12
12
12
12
12
12
12
12
12
12
12
12
12
12
12
12
12
12
12
12
12
12
12
12
12
12
12
12
12
12
12
12
12
12
12
12
12
12
12
12
12
12
12
12
12
12
12
12
12
12
12
12
12
12
12
12
12
12
12
12
12
12
12
12
12
12
12
12
12
12
12
12
12
12
12
12
12
12
12
12
12
12
12
12
12
12
12
12
12
12
12
12
12
12
12
12
12
12
12
12
12
12
12
12
12
12
12
12
12
12
12
12
12
12
12
12
12
12
12
12
12
12
12
12
12
12
12
12
12
12
12
12
12
12
12
12
12
12
12
12
12
12
12
12
12
12
12
12
12
12
12
12
12
12
12
12
12
12
12
12
12
12
12
12
12
12
12
12
12
12
12
12
12
12
12
12
12
12
12
12
12
12
12
12
12
12
12
12
12
12
12
12
12
12
12
12
12
12
12
12
12
12
12
12
12
12
12
12
12
12
12
12
12
12
12
12
12
12
12
12
12
12
12
12
12
12
12
12
12
12
12
12
12
12
12
12
12
12
12
12
12
12
12
12
12
12
12
12
12
12
12
12
12
12
12
12
12
12
12
12
12
12
12
12
12
12
12
12
12
12
12
12
12
12
12
12
12
12
12
12
12
12
12
12
12
12
12
12
12
12
12
12
12
12
12
12
12
12
12
12
12
12
12
12
12
12
12
12
12
12
12
12
12
12
12
12
12
12
12
12
12
12
12
12
12
12
12
12
12
12
12
12
12
12
12
12
12
12
12
12
12
12
12
12
12
12
12
12
12
12
12
12
12
12
12
12
12
12
12
12
12
12
12
12
12
12
12
12
12
12
12
12
12
12
12
12
12
12
12
12
12
12
12
12
12
12
12
12
12
12
12
12
12
12
12
12
12
12
12
12
12
12
12
12
12
12
12
12
12
12
12
12
12
12
12
12
12
12
12
12
12
12
12
12
12
12
12
12
12
12
12
12
12
12
12
12
12
12
12
12
12
12
12
12
12
12
12
12
12
12
12
12
12
12
12
12
12
12
12
12
12
12
12
12
12
12
12
12
12
12
12
12
12
12
12
12
12
12
12
12
12
12
12
12
12
12
12
12
12
12
12
12
12
12
12
12
12
12
12
12
12
12
12
12
12
12
12
12
12
12
12
12
12
12
12
12
12
12
12
12
12
12
12
12
12
12
12
12
12
12
12
12
12
12
12
12
12
12
12
12
12
12
12
12
12
12
12
12
12
12
12
12
12
12
12
12
12
12
12
12
12
12
12
12
12
12
12
12
12
12
12
12
12
12
12
12
12
12
12
12
12
12
12
12
12
12
12
12
12
12
12
12
12
12
12
12
12
12
12
12
12
12
12
12
12
12
12
12
12
12
12
12
12
12
12
12
12
12
12
12
12
12
12
12
12
12
12
12
12
12
12
12
12
12
12
12
12
12
12
12
12
12
12
12
12
12
12
12
12
12
12
12
12
12
12
12
12
12
12
12
12
12
12
12
12
12
12
12
12
12
12
12
12
12
12
12
12
12
12
12
12
12
12
12
12
12
12
12
12
12
12
12
12
12
12
12
12
12
12
12
12
12
12
12
12
12
12
12
12
12
12
12
12
12
12
12
12
12
12
12
12
12
12
12
12
12
12
12
12
12
12
12
12
12
12
12
12
12
12
12
12
12
12
12
12
12
12
12
12
12
12
12
12
12
12
12
12
12
12
12
12
12
12
12
12
12
12
12
12
12
12
12
12
12
12
12
12
12
12
12
12
12
12
12
12
12
12
12
12
12
12
12
12
12
12
12
12
12
12
12
12
12
12
12
12
12
12
12
12
12
12
12
12
12
12
12
12
12
12
12
12
12
12
12
12
12
12
12
12
12
12
12
12
12
12
12
12
12
12
12
12
12
12
12
12
12
12
12
12
12
12
12
12
12
12
12
12
12
12
12
12
12
12
12
12
12
12
12
12
12
12
12
12
12
12
12
12
12
12
12
12
12
12
12
12
12
12
12
12
12
12
12
12
12
12
12
12
12
12
12
12
12
12
12
12
12
12
12
12
12
12
12
12
12
12
12
12
12
12
12
12
12
12
12
12
12
12
12
12
12
12
12
12
12
12
12
12
12
12
12
12
12
12
12
12
12
12
12
12
12
12
12
12
12
12
12
12
12
12
12
12
12
12
12
12
12
12
12
12
12
12
12
12
12
12
12
12
12
12
12
12
12
12
12
12
12
12
12
12
12
12
12
12
12
12
12
12
12
12
12
12
12
12
12
12
12
12
12
12
12
12
12
12
12
12
12
12
12
12
12
12
12
12
12
12
12
12
12
12
12
12
12
12
12
12
12
12
12
12
12
12
12
12
12
12
12
12
12
12
12
12
12
12
12
12
12
12
12
12
12
12
12
12
12
12
12
12
12
12
12
12
12
12
12
12
12
12
12
12
12
12
12
12
12
12
12
12
12
12
12
12
12
12
12
12
12
12
12
12
12
12
12
12
12
12
12
12
12
12
12
12
12
12
12
12
12
12
12
12
12
12
12
12
12
12
12
12
12
12
12
12
12
12
12
12
12
12
12
12
12
12
12
12
12
12
12
12
12
12
12
12
12
12
12
12
12
12
12
12
12
12
12
12
12
12
12
12
12
12
12
12
12
12
12
12
12
12
12
12
12
12
12
12
12
12
12
12
12
12
12
12
12
12
12
12
12
12
12
12
12
12
12
12
12
12
12
12
12
12
12
12
12
12
12
</DataArray>
</Cells>
<Points>
<DataArray type="Float64" Name="coordinates" NumberOfComponents="3" format="ascii" >
0 0 5
5 0 5
5 0 20
0 0 20
5 5 5
5 5 20
0 5 20
0 5 5
0 0 0
5 0 0
0 5 0
5 5 0
0.5 0 5
1 0 5
1.5 0 5
2 0 5
2.5 0 5
3 0 5
3.5 0 5
4 0 5
4.5 0 5
5 0 5.5
5 0 6
5 0 6.5
5 0 7
5 0 7.5
5 0 8
5 0 8.5
5 0 9
5 0 9.5
5 0 10
5 0 10.5
5 0 11
5 0 11.5
5 0 12
5 0 12.5
5 0 13
5 0 13.5
5 0 14
5 0 14.5
5 0 15
5 0 15.5
5 0 16
5 0 16.5
5 0 17
5 0 17.5
5 0 18
5 0 18.5
5 0 19
5 0 19.5
4.5 0 20
4 0 20
3.5 0 20
3 0 20
2.5 0 20
2 0 20
1.5 0 20
1 0 20
0.5 0 20
0 0 19.5
0 0 19
0 0 18.5
0 0 18
0 0 17.5
0 0 17
0 0 16.5
0 0 16
0 0 15.5
0 0 15
0 0 14.5
0 0 14
0 0 13.5
0 0 13
0 0 12.5
0 0 12
0 0 11.5
0 0 11
0 0 10.5
0 0 10
0 0 9.5
0 0 9
0 0 8.5
0 0 8
0 0 7.5
0 0 7
0 0 6.5
0 0 6
0 0 5.5
4.5 5 5
4 5 5
3.5 5 5
3 5 5
2.5 5 5
2 5 5
1.5 5 5
1 5 5
0.5 5 5
5 5 19.5
5 5 19
5 5 18.5
5 5 18
5 5 17.5
5 5 17
5 5 16.5
5 5 16
5 5 15.5
5 5 15
5 5 14.5
5 5 14
5 5 13.5
5 5 13
5 5 12.5
5 5 12
5 5 11.5
5 5 11
5 5 10.5
5 5 10
5 5 9.5
5 5 9
5 5 8.5
5 5 8
5 5 7.5
5 5 7
5 5 6.5
5 5 6
5 5 5.5
0.5 5 20
1 5 20
1.5 5 20
2 5 20
2.5 5 20
3 5 20
3.5 5 20
4 5 20
4.5 5 20
0 5 5.5
0 5 6
0 5 6.5
0 5 7
0 5 7.5
0 5 8
0 5 8.5
0 5 9
0 5 9.5
0 5 10
0 5 10.5
0 5 11
0 5 11.5
0 5 12
0 5 12.5
0 5 13
0 5 13.5
0 5 14
0 5 14.5
0 5 15
0 5 15.5
0 5 16
0 5 16.5
0 5 17
0 5 17.5
0 5 18
0 5 18.5
0 5 19
0 5 19.5
0 0.5 20
0 1 20
0 1.5 20
0 2 20
0 2.5 20
0 3 20
0 3.5 20
0 4 20
0 4.5 20
0 4.5 5
0 4 5
0 3.5 5
0 3 5
0 2.5 5
0 2 5
0 1.5 5
0 1 5
0 0.5 5
5 4.5 20
5 4 20
5 3.5 20
5 3 20
5 2.5 20
5 2 20
5 1.5 20
5 1 20
5 0.5 20
5 0.5 5
5 1 5
5 1.5 5
5 2 5
5 2.5 5
5 3 5
5 3.5 5
5 4 5
5 4.5 5
0 0 4.5
0 0 4
0 0 3.5
0 0 3
0 0 2.5
0 0 2
0 0 1.5
0 0 1
0 0 0.5
0.5 0 0
1 0 0
1.5 0 0
2 0 0
2.5 0 0
3 0 0
3.5 0 0
4 0 0
4.5 0 0
5 0 0.5
5 0 1
5 0 1.5
5 0 2
5 0 2.5
5 0 3
5 0 3.5
5 0 4
5 0 4.5
0 5 0.5
0 5 1
0 5 1.5
0 5 2
0 5 2.5
0 5 3
0 5 3.5
0 5 4
0 5 4.5
4.5 5 0
4 5 0
3.5 5 0
3 5 0
2.5 5 0
2 5 0
1.5 5 0
1 5 0
0.5 5 0
5 5 4.5
5 5 4
5 5 3.5
5 5 3
5 5 2.5
5 5 2
5 5 1.5
5 5 1
5 5 0.5
5 0.5 0
5 1 0
5 1.5 0
5 2 0
5 2.5 0
5 3 0
5 3.5 0
5 4 0
5 4.5 0
0 4.5 0
0 4 0
0 3.5 0
0 3 0
0 2.5 0
0 2 0
0 1.5 0
0 1 0
0 0.5 0
0.5 0 5.5
1 0 5.5
1.5 0 5.5
2 0 5.5
2.5 0 5.5
3 0 5.5
3.5 0 5.5
4 0 5.5
4.5 0 5.5
0.5 0 6
1 0 6
1.5 0 6
2 0 6
2.5 0 6
3 0 6
3.5 0 6
4 0 6
4.5 0 6
0.5 0 6.5
1 0 6.5
1.5 0 6.5
2 0 6.5
2.5 0 6.5
3 0 6.5
3.5 0 6.5
4 0 6.5
4.5 0 6.5
0.5 0 7
1 0 7
1.5 0 7
2 0 7
2.5 0 7
3 0 7
3.5 0 7
4 0 7
4.5 0 7
0.5 0 7.5
1 0 7.5
1.5 0 7.5
2 0 7.5
2.5 0 7.5
3 0 7.5
3.5 0 7.5
4 0 7.5
4.5 0 7.5
0.5 0 8
1 0 8
1.5 0 8
2 0 8
2.5 0 8
3 0 8
3.5 0 8
4 0 8
4.5 0 8
0.5 0 8.5
1 0 8.5
1.5 0 8.5
2 0 8.5
2.5 0 8.5
3 0 8.5
3.5 0 8.5
4 0 8.5
4.5 0 8.5
0.5 0 9
1 0 9
1.5 0 9
2 0 9
2.5 0 9
3 0 9
3.5 0 9
4 0 9
4.5 0 9
0.5 0 9.5
1 0 9.5
1.5 0 9.5
2 0 9.5
2.5 0 9.5
3 0 9.5
3.5 0 9.5
4 0 9.5
4.5 0 9.5
0.5 0 10
1 0 10
1.5 0 10
2 0 10
2.5 0 10
3 0 10
3.5 0 10
4 0 10
4.5 0 10
0.5 0 10.5
1 0 10.5
1.5 0 10.5
2 0 10.5
2.5 0 10.5
3 0 10.5
3.5 0 10.5
4 0 10.5
4.5 0 10.5
0.5 0 11
1 0 11
1.5 0 11
2 0 11
2.5 0 11
3 0 11
3.5 0 11
4 0 11
4.5 0 11
0.5 0 11.5
1 0 11.5
1.5 0 11.5
2 0 11.5
2.5 0 11.5
3 0 11.5
3.5 0 11.5
4 0 11.5
4.5 0 11.5
0.5 0 12
1 0 12
1.5 0 12
2 0 12
2.5 0 12
3 0 12
3.5 0 12
4 0 12
4.5 0 12
0.5 0 12.5
1 0 12.5
1.5 0 12.5
2 0 12.5
2.5 0 12.5
3 0 12.5
3.5 0 12.5
4 0 12.5
4.5 0 12.5
0.5 0 13
1 0 13
1.5 0 13
2 0 13
2.5 0 13
3 0 13
3.5 0 13
4 0 13
4.5 0 13
0.5 0 13.5
1 0 13.5
1.5 0 13.5
2 0 13.5
2.5 0 13.5
3 0 13.5
3.5 0 13.5
4 0 13.5
4.5 0 13.5
0.5 0 14
1 0 14
1.5 0 14
2 0 14
2.5 0 14
3 0 14
3.5 0 14
4 0 14
4.5 0 14
0.5 0 14.5
1 0 14.5
1.5 0 14.5
2 0 14.5
2.5 0 14.5
3 0 14.5
3.5 0 14.5
4 0 14.5
4.5 0 14.5
0.5 0 15
1 0 15
1.5 0 15
2 0 15
2.5 0 15
3 0 15
3.5 0 15
4 0 15
4.5 0 15
0.5 0 15.5
1 0 15.5
1.5 0 15.5
2 0 15.5
2.5 0 15.5
3 0 15.5
3.5 0 15.5
4 0 15.5
4.5 0 15.5
0.5 0 16
1 0 16
1.5 0 16
2 0 16
2.5 0 16
3 0 16
3.5 0 16
4 0 16
4.5 0 16
0.5 0 16.5
1 0 16.5
1.5 0 16.5
2 0 16.5
2.5 0 16.5
3 0 16.5
3.5 0 16.5
4 0 16.5
4.5 0 16.5
0.5 0 17
1 0 17
1.5 0 17
2 0 17
2.5 0 17
3 0 17
3.5 0 17
4 0 17
4.5 0 17
0.5 0 17.5
1 0 17.5
1.5 0 17.5
2 0 17.5
2.5 0 17.5
3 0 17.5
3.5 0 17.5
4 0 17.5
4.5 0 17.5
0.5 0 18
1 0 18
1.5 0 18
2 0 18
2.5 0 18
3 0 18
3.5 0 18
4 0 18
4.5 0 18
0.5 0 18.5
1 0 18.5
1.5 0 18.5
2 0 18.5
2.5 0 18.5
3 0 18.5
3.5 0 18.5
4 0 18.5
4.5 0 18.5
0.5 0 19
1 0 19
1.5 0 19
2 0 19
2.5 0 19
3 0 19
3.5 0 19
4 0 19
4.5 0 19
0.5 0 19.5
1 0 19.5
1.5 0 19.5
2 0 19.5
2.5 0 19.5
3 0 19.5
3.5 0 19.5
4 0 19.5
4.5 0 19.5
0.5 5 5.5
1 5 5.5
1.5 5 5.5
2 5 5.5
2.5 5 5.5
3 5 5.5
3.5 5 5.5
4 5 5.5
4.5 5 5.5
0.5 5 6
1 5 6
1.5 5 6
2 5 6
2.5 5 6
3 5 6
3.5 5 6
4 5 6
4.5 5 6
0.5 5 6.5
1 5 6.5
1.5 5 6.5
2 5 6.5
2.5 5 6.5
3 5 6.5
3.5 5 6.5
4 5 6.5
4.5 5 6.5
0.5 5 7
1 5 7
1.5 5 7
2 5 7
2.5 5 7
3 5 7
3.5 5 7
4 5 7
4.5 5 7
0.5 5 7.5
1 5 7.5
1.5 5 7.5
2 5 7.5
2.5 5 7.5
3 5 7.5
3.5 5 7.5
4 5 7.5
4.5 5 7.5
0.5 5 8
1 5 8
1.5 5 8
2 5 8
2.5 5 8
3 5 8
3.5 5 8
4 5 8
4.5 5 8
0.5 5 8.5
1 5 8.5
1.5 5 8.5
2 5 8.5
2.5 5 8.5
3 5 8.5
3.5 5 8.5
4 5 8.5
4.5 5 8.5
0.5 5 9
1 5 9
1.5 5 9
2 5 9
2.5 5 9
3 5 9
3.5 5 9
4 5 9
4.5 5 9
0.5 5 9.5
1 5 9.5
1.5 5 9.5
2 5 9.5
2.5 5 9.5
3 5 9.5
3.5 5 9.5
4 5 9.5
4.5 5 9.5
0.5 5 10
1 5 10
1.5 5 10
2 5 10
2.5 5 10
3 5 10
3.5 5 10
4 5 10
4.5 5 10
0.5 5 10.5
1 5 10.5
1.5 5 10.5
2 5 10.5
2.5 5 10.5
3 5 10.5
3.5 5 10.5
4 5 10.5
4.5 5 10.5
0.5 5 11
1 5 11
1.5 5 11
2 5 11
2.5 5 11
3 5 11
3.5 5 11
4 5 11
4.5 5 11
0.5 5 11.5
1 5 11.5
1.5 5 11.5
2 5 11.5
2.5 5 11.5
3 5 11.5
3.5 5 11.5
4 5 11.5
4.5 5 11.5
0.5 5 12
1 5 12
1.5 5 12
2 5 12
2.5 5 12
3 5 12
3.5 5 12
4 5 12
4.5 5 12
0.5 5 12.5
1 5 12.5
1.5 5 12.5
2 5 12.5
2.5 5 12.5
3 5 12.5
3.5 5 12.5
4 5 12.5
4.5 5 12.5
0.5 5 13
1 5 13
1.5 5 13
2 5 13
2.5 5 13
3 5 13
3.5 5 13
4 5 13
4.5 5 13
0.5 5 13.5
1 5 13.5
1.5 5 13.5
2 5 13.5
2.5 5 13.5
3 5 13.5
3.5 5 13.5
4 5 13.5
4.5 5 13.5
0.5 5 14
1 5 14
1.5 5 14
2 5 14
2.5 5 14
3 5 14
3.5 5 14
4 5 14
4.5 5 14
0.5 5 14.5
1 5 14.5
1.5 5 14.5
2 5 14.5
2.5 5 14.5
3 5 14.5
3.5 5 14.5
4 5 14.5
4.5 5 14.5
0.5 5 15
1 5 15
1.5 5 15
2 5 15
2.5 5 15
3 5 15
3.5 5 15
4 5 15
4.5 5 15
0.5 5 15.5
1 5 15.5
1.5 5 15.5
2 5 15.5
2.5 5 15.5
3 5 15.5
3.5 5 15.5
4 5 15.5
4.5 5 15.5
0.5 5 16
1 5 16
1.5 5 16
2 5 16
2.5 5 16
3 5 16
3.5 5 16
4 5 16
4.5 5 16
0.5 5 16.5
1 5 16.5
1.5 5 16.5
2 5 16.5
2.5 5 16.5
3 5 16.5
3.5 5 16.5
4 5 16.5
4.5 5 16.5
0.5 5 17
1 5 17
1.5 5 17
2 5 17
2.5 5 17
3 5 17
3.5 5 17
4 5 17
4.5 5 17
0.5 5 17.5
1 5 17.5
1.5 5 17.5
2 5 17.5
2.5 5 17.5
3 5 17.5
3.5 5 17.5
4 5 17.5
4.5 5 17.5
0.5 5 18
1 5 18
1.5 5 18
2 5 18
2.5 5 18
3 5 18
3.5 5 18
4 5 18
4.5 5 18
0.5 5 18.5
1 5 18.5
1.5 5 18.5
2 5 18.5
2.5 5 18.5
3 5 18.5
3.5 5 18.5
4 5 18.5
4.5 5 18.5
0.5 5 19
1 5 19
1.5 5 19
2 5 19
2.5 5 19
3 5 19
3.5 5 19
4 5 19
4.5 5 19
0.5 5 19.5
1 5 19.5
1.5 5 19.5
2 5 19.5
2.5 5 19.5
3 5 19.5
3.5 5 19.5
4 5 19.5
4.5 5 19.5
0 0.5 5.5
0 0.5 6
0 0.5 6.5
0 0.5 7
0 0.5 7.5
0 0.5 8
0 0.5 8.5
0 0.5 9
0 0.5 9.5
0 0.5 10
0 0.5 10.5
0 0.5 11
0 0.5 11.5
0 0.5 12
0 0.5 12.5
0 0.5 13
0 0.5 13.5
0 0.5 14
0 0.5 14.5
0 0.5 15
0 0.5 15.5
0 0.5 16
0 0.5 16.5
0 0.5 17
0 0.5 17.5
0 0.5 18
0 0.5 18.5
0 0.5 19
0 0.5 19.5
0 1 5.5
0 1 6
0 1 6.5
0 1 7
0 1 7.5
0 1 8
0 1 8.5
0 1 9
0 1 9.5
0 1 10
0 1 10.5
0 1 11
0 1 11.5
0 1 12
0 1 12.5
0 1 13
0 1 13.5
0 1 14
0 1 14.5
0 1 15
0 1 15.5
0 1 16
0 1 16.5
0 1 17
0 1 17.5
0 1 18
0 1 18.5
0 1 19
0 1 19.5
0 1.5 5.5
0 1.5 6
0 1.5 6.5
0 1.5 7
0 1.5 7.5
0 1.5 8
0 1.5 8.5
0 1.5 9
0 1.5 9.5
0 1.5 10
0 1.5 10.5
0 1.5 11
0 1.5 11.5
0 1.5 12
0 1.5 12.5
0 1.5 13
0 1.5 13.5
0 1.5 14
0 1.5 14.5
0 1.5 15
0 1.5 15.5
0 1.5 16
0 1.5 16.5
0 1.5 17
0 1.5 17.5
0 1.5 18
0 1.5 18.5
0 1.5 19
0 1.5 19.5
0 2 5.5
0 2 6
0 2 6.5
0 2 7
0 2 7.5
0 2 8
0 2 8.5
0 2 9
0 2 9.5
0 2 10
0 2 10.5
0 2 11
0 2 11.5
0 2 12
0 2 12.5
0 2 13
0 2 13.5
0 2 14
0 2 14.5
0 2 15
0 2 15.5
0 2 16
0 2 16.5
0 2 17
0 2 17.5
0 2 18
0 2 18.5
0 2 19
0 2 19.5
0 2.5 5.5
0 2.5 6
0 2.5 6.5
0 2.5 7
0 2.5 7.5
0 2.5 8
0 2.5 8.5
0 2.5 9
0 2.5 9.5
0 2.5 10
0 2.5 10.5
0 2.5 11
0 2.5 11.5
0 2.5 12
0 2.5 12.5
0 2.5 13
0 2.5 13.5
0 2.5 14
0 2.5 14.5
0 2.5 15
0 2.5 15.5
0 2.5 16
0 2.5 16.5
0 2.5 17
0 2.5 17.5
0 2.5 18
0 2.5 18.5
0 2.5 19
0 2.5 19.5
0 3 5.5
0 3 6
0 3 6.5
0 3 7
0 3 7.5
0 3 8
0 3 8.5
0 3 9
0 3 9.5
0 3 10
0 3 10.5
0 3 11
0 3 11.5
0 3 12
0 3 12.5
0 3 13
0 3 13.5
0 3 14
0 3 14.5
0 3 15
0 3 15.5
0 3 16
0 3 16.5
0 3 17
0 3 17.5
0 3 18
0 3 18.5
0 3 19
0 3 19.5
0 3.5 5.5
0 3.5 6
0 3.5 6.5
0 3.5 7
0 3.5 7.5
0 3.5 8
0 3.5 8.5
0 3.5 9
0 3.5 9.5
0 3.5 10
0 3.5 10.5
0 3.5 11
0 3.5 11.5
0 3.5 12
0 3.5 12.5
0 3.5 13
0 3.5 13.5
0 3.5 14
0 3.5 14.5
0 3.5 15
0 3.5 15.5
0 3.5 16
0 3.5 16.5
0 3.5 17
0 3.5 17.5
0 3.5 18
0 3.5 18.5
0 3.5 19
0 3.5 19.5
0 4 5.5
0 4 6
0 4 6.5
0 4 7
0 4 7.5
0 4 8
0 4 8.5
0 4 9
0 4 9.5
0 4 10
0 4 10.5
0 4 11
0 4 11.5
0 4 12
0 4 12.5
0 4 13
0 4 13.5
0 4 14
0 4 14.5
0 4 15
0 4 15.5
0 4 16
0 4 16.5
0 4 17
0 4 17.5
0 4 18
0 4 18.5
0 4 19
0 4 19.5
0 4.5 5.5
0 4.5 6
0 4.5 6.5
0 4.5 7
0 4.5 7.5
0 4.5 8
0 4.5 8.5
0 4.5 9
0 4.5 9.5
0 4.5 10
0 4.5 10.5
0 4.5 11
0 4.5 11.5
0 4.5 12
0 4.5 12.5
0 4.5 13
0 4.5 13.5
0 4.5 14
0 4.5 14.5
0 4.5 15
0 4.5 15.5
0 4.5 16
0 4.5 16.5
0 4.5 17
0 4.5 17.5
0 4.5 18
0 4.5 18.5
0 4.5 19
0 4.5 19.5
5 0.5 5.5
5 0.5 6
5 0.5 6.5
5 0.5 7
5 0.5 7.5
5 0.5 8
5 0.5 8.5
5 0.5 9
5 0.5 9.5
5 0.5 10
5 0.5 10.5
5 0.5 11
5 0.5 11.5
5 0.5 12
5 0.5 12.5
5 0.5 13
5 0.5 13.5
5 0.5 14
5 0.5 14.5
5 0.5 15
5 0.5 15.5
5 0.5 16
5 0.5 16.5
5 0.5 17
5 0.5 17.5
5 0.5 18
5 0.5 18.5
5 0.5 19
5 0.5 19.5
5 1 5.5
5 1 6
5 1 6.5
5 1 7
5 1 7.5
5 1 8
5 1 8.5
5 1 9
5 1 9.5
5 1 10
5 1 10.5
5 1 11
5 1 11.5
5 1 12
5 1 12.5
5 1 13
5 1 13.5
5 1 14
5 1 14.5
5 1 15
5 1 15.5
5 1 16
5 1 16.5
5 1 17
5 1 17.5
5 1 18
5 1 18.5
5 1 19
5 1 19.5
5 1.5 5.5
5 1.5 6
5 1.5 6.5
5 1.5 7
5 1.5 7.5
5 1.5 8
5 1.5 8.5
5 1.5 9
5 1.5 9.5
5 1.5 10
5 1.5 10.5
5 1.5 11
5 1.5 11.5
5 1.5 12
5 1.5 12.5
5 1.5 13
5 1.5 13.5
5 1.5 14
5 1.5 14.5
5 1.5 15
5 1.5 15.5
5 1.5 16
5 1.5 16.5
5 1.5 17
5 1.5 17.5
5 1.5 18
5 1.5 18.5
5 1.5 19
5 1.5 19.5
5 2 5.5
5 2 6
5 2 6.5
5 2 7
5 2 7.5
5 2 8
5 2 8.5
5 2 9
5 2 9.5
5 2 10
5 2 10.5
5 2 11
5 2 11.5
5 2 12
5 2 12.5
5 2 13
5 2 13.5
5 2 14
5 2 14.5
5 2 15
5 2 15.5
5 2 16
5 2 16.5
5 2 17
5 2 17.5
5 2 18
5 2 18.5
5 2 19
5 2 19.5
5 2.5 5.5
5 2.5 6
5 2.5 6.5
5 2.5 7
5 2.5 7.5
5 2.5 8
5 2.5 8.5
5 2.5 9
5 2.5 9.5
5 2.5 10
5 2.5 10.5
5 2.5 11
5 2.5 11.5
5 2.5 12
5 2.5 12.5
5 2.5 13
5 2.5 13.5
5 2.5 14
5 2.5 14.5
5 2.5 15
5 2.5 15.5
5 2.5 16
5 2.5 16.5
5 2.5 17
5 2.5 17.5
5 2.5 18
5 2.5 18.5
5 2.5 19
5 2.5 19.5
5 3 5.5
5 3 6
5 3 6.5
5 3 7
5 3 7.5
5 3 8
5 3 8.5
5 3 9
5 3 9.5
5 3 10
5 3 10.5
5 3 11
5 3 11.5
5 3 12
5 3 12.5
5 3 13
5 3 13.5
5 3 14
5 3 14.5
5 3 15
5 3 15.5
5 3 16
5 3 16.5
5 3 17
5 3 17.5
5 3 18
5 3 18.5
5 3 19
5 3 19.5
5 3.5 5.5
5 3.5 6
5 3.5 6.5
5 3.5 7
5 3.5 7.5
5 3.5 8
5 3.5 8.5
5 3.5 9
5 3.5 9.5
5 3.5 10
5 3.5 10.5
5 3.5 11
5 3.5 11.5
5 3.5 12
5 3.5 12.5
5 3.5 13
5 3.5 13.5
5 3.5 14
5 3.5 14.5
5 3.5 15
5 3.5 15.5
5 3.5 16
5 3.5 16.5
5 3.5 17
5 3.5 17.5
5 3.5 18
5 3.5 18.5
5 3.5 19
5 3.5 19.5
5 4 5.5
5 4 6
5 4 6.5
5 4 7
5 4 7.5
5 4 8
5 4 8.5
5 4 9
5 4 9.5
5 4 10
5 4 10.5
5 4 11
5 4 11.5
5 4 12
5 4 12.5
5 4 13
5 4 13.5
5 4 14
5 4 14.5
5 4 15
5 4 15.5
5 4 16
5 4 16.5
5 4 17
5 4 17.5
5 4 18
5 4 18.5
5 4 19
5 4 19.5
5 4.5 5.5
5 4.5 6
5 4.5 6.5
5 4.5 7
5 4.5 7.5
5 4.5 8
5 4.5 8.5
5 4.5 9
5 4.5 9.5
5 4.5 10
5 4.5 10.5
5 4.5 11
5 4.5 11.5
5 4.5 12
5 4.5 12.5
5 4.5 13
5 4.5 13.5
5 4.5 14
5 4.5 14.5
5 4.5 15
5 4.5 15.5
5 4.5 16
5 4.5 16.5
5 4.5 17
5 4.5 17.5
5 4.5 18
5 4.5 18.5
5 4.5 19
5 4.5 19.5
0.5 0.5 5
1 0.5 5
1.5 0.5 5
2 0.5 5
2.5 0.5 5
3 0.5 5
3.5 0.5 5
4 0.5 5
4.5 0.5 5
0.5 1 5
1 1 5
1.5 1 5
2 1 5
2.5 1 5
3 1 5
3.5 1 5
4 1 5
4.5 1 5
0.5 1.5 5
1 1.5 5
1.5 1.5 5
2 1.5 5
2.5 1.5 5
3 1.5 5
3.5 1.5 5
4 1.5 5
4.5 1.5 5
0.5 2 5
1 2 5
1.5 2 5
2 2 5
2.5 2 5
3 2 5
3.5 2 5
4 2 5
4.5 2 5
0.5 2.5 5
1 2.5 5
1.5 2.5 5
2 2.5 5
2.5 2.5 5
3 2.5 5
3.5 2.5 5
4 2.5 5
4.5 2.5 5
0.5 3 5
1 3 5
1.5 3 5
2 3 5
2.5 3 5
3 3 5
3.5 3 5
4 3 5
4.5 3 5
0.5 3.5 5
1 3.5 5
1.5 3.5 5
2 3.5 5
2.5 3.5 5
3 3.5 5
3.5 3.5 5
4 3.5 5
4.5 3.5 5
0.5 4 5
1 4 5
1.5 4 5
2 4 5
2.5 4 5
3 4 5
3.5 4 5
4 4 5
4.5 4 5
0.5 4.5 5
1 4.5 5
1.5 4.5 5
2 4.5 5
2.5 4.5 5
3 4.5 5
3.5 4.5 5
4 4.5 5
4.5 4.5 5
0.5 0.5 20
1 0.5 20
1.5 0.5 20
2 0.5 20
2.5 0.5 20
3 0.5 20
3.5 0.5 20
4 0.5 20
4.5 0.5 20
0.5 1 20
1 1 20
1.5 1 20
2 1 20
2.5 1 20
3 1 20
3.5 1 20
4 1 20
4.5 1 20
0.5 1.5 20
1 1.5 20
1.5 1.5 20
2 1.5 20
2.5 1.5 20
3 1.5 20
3.5 1.5 20
4 1.5 20
4.5 1.5 20
0.5 2 20
1 2 20
1.5 2 20
2 2 20
2.5 2 20
3 2 20
3.5 2 20
4 2 20
4.5 2 20
0.5 2.5 20
1 2.5 20
1.5 2.5 20
2 2.5 20
2.5 2.5 20
3 2.5 20
3.5 2.5 20
4 2.5 20
4.5 2.5 20
0.5 3 20
1 3 20
1.5 3 20
2 3 20
2.5 3 20
3 3 20
3.5 3 20
4 3 20
4.5 3 20
0.5 3.5 20
1 3.5 20
1.5 3.5 20
2 3.5 20
2.5 3.5 20
3 3.5 20
3.5 3.5 20
4 3.5 20
4.5 3.5 20
0.5 4 20
1 4 20
1.5 4 20
2 4 20
2.5 4 20
3 4 20
3.5 4 20
4 4 20
4.5 4 20
0.5 4.5 20
1 4.5 20
1.5 4.5 20
2 4.5 20
2.5 4.5 20
3 4.5 20
3.5 4.5 20
4 4.5 20
4.5 4.5 20
4.5 0 4.5
4 0 4.5
3.5 0 4.5
3 0 4.5
2.5 0 4.5
2 0 4.5
1.5 0 4.5
1 0 4.5
0.5 0 4.5
4.5 0 4
4 0 4
3.5 0 4
3 0 4
2.5 0 4
2 0 4
1.5 0 4
1 0 4
0.5 0 4
4.5 0 3.5
4 0 3.5
3.5 0 3.5
3 0 3.5
2.5 0 3.5
2 0 3.5
1.5 0 3.5
1 0 3.5
0.5 0 3.5
4.5 0 3
4 0 3
3.5 0 3
3 0 3
2.5 0 3
2 0 3
1.5 0 3
1 0 3
0.5 0 3
4.5 0 2.5
4 0 2.5
3.5 0 2.5
3 0 2.5
2.5 0 2.5
2 0 2.5
1.5 0 2.5
1 0 2.5
0.5 0 2.5
4.5 0 2
4 0 2
3.5 0 2
3 0 2
2.5 0 2
2 0 2
1.5 0 2
1 0 2
0.5 0 2
4.5 0 1.5
4 0 1.5
3.5 0 1.5
3 0 1.5
2.5 0 1.5
2 0 1.5
1.5 0 1.5
1 0 1.5
0.5 0 1.5
4.5 0 1
4 0 1
3.5 0 1
3 0 1
2.5 0 1
2 0 1
1.5 0 1
1 0 1
0.5 0 1
4.5 0 0.5
4 0 0.5
3.5 0 0.5
3 0 0.5
2.5 0 0.5
2 0 0.5
1.5 0 0.5
1 0 0.5
0.5 0 0.5
4.5 5 4.5
4 5 4.5
3.5 5 4.5
3 5 4.5
2.5 5 4.5
2 5 4.5
1.5 5 4.5
1 5 4.5
0.5 5 4.5
4.5 5 4
4 5 4
3.5 5 4
3 5 4
2.5 5 4
2 5 4
1.5 5 4
1 5 4
0.5 5 4
4.5 5 3.5
4 5 3.5
3.5 5 3.5
3 5 3.5
2.5 5 3.5
2 5 3.5
1.5 5 3.5
1 5 3.5
0.5 5 3.5
4.5 5 3
4 5 3
3.5 5 3
3 5 3
2.5 5 3
2 5 3
1.5 5 3
1 5 3
0.5 5 3
4.5 5 2.5
4 5 2.5
3.5 5 2.5
3 5 2.5
2.5 5 2.5
2 5 2.5
1.5 5 2.5
1 5 2.5
0.5 5 2.5
4.5 5 2
4 5 2
3.5 5 2
3 5 2
2.5 5 2
2 5 2
1.5 5 2
1 5 2
0.5 5 2
4.5 5 1.5
4 5 1.5
3.5 5 1.5
3 5 1.5
2.5 5 1.5
2 5 1.5
1.5 5 1.5
1 5 1.5
0.5 5 1.5
4.5 5 1
4 5 1
3.5 5 1
3 5 1
2.5 5 1
2 5 1
1.5 5 1
1 5 1
0.5 5 1
4.5 5 0.5
4 5 0.5
3.5 5 0.5
3 5 0.5
2.5 5 0.5
2 5 0.5
1.5 5 0.5
1 5 0.5
0.5 5 0.5
5 0.5 4.5
5 0.5 4
5 0.5 3.5
5 0.5 3
5 0.5 2.5
5 0.5 2
5 0.5 1.5
5 0.5 1
5 0.5 0.5
5 1 4.5
5 1 4
5 1 3.5
5 1 3
5 1 2.5
5 1 2
5 1 1.5
5 1 1
5 1 0.5
5 1.5 4.5
5 1.5 4
5 1.5 3.5
5 1.5 3
5 1.5 2.5
5 1.5 2
5 1.5 1.5
5 1.5 1
5 1.5 0.5
5 2 4.5
5 2 4
5 2 3.5
5 2 3
5 2 2.5
5 2 2
5 2 1.5
5 2 1
5 2 0.5
5 2.5 4.5
5 2.5 4
5 2.5 3.5
5 2.5 3
5 2.5 2.5
5 2.5 2
5 2.5 1.5
5 2.5 1
5 2.5 0.5
5 3 4.5
5 3 4
5 3 3.5
5 3 3
5 3 2.5
5 3 2
5 3 1.5
5 3 1
5 3 0.5
5 3.5 4.5
5 3.5 4
5 3.5 3.5
5 3.5 3
5 3.5 2.5
5 3.5 2
5 3.5 1.5
5 3.5 1
5 3.5 0.5
5 4 4.5
5 4 4
5 4 3.5
5 4 3
5 4 2.5
5 4 2
5 4 1.5
5 4 1
5 4 0.5
5 4.5 4.5
5 4.5 4
5 4.5 3.5
5 4.5 3
5 4.5 2.5
5 4.5 2
5 4.5 1.5
5 4.5 1
5 4.5 0.5
0 0.5 4.5
0 0.5 4
0 0.5 3.5
0 0.5 3
0 0.5 2.5
0 0.5 2
0 0.5 1.5
0 0.5 1
0 0.5 0.5
0 1 4.5
0 1 4
0 1 3.5
0 1 3
0 1 2.5
0 1 2
0 1 1.5
0 1 1
0 1 0.5
0 1.5 4.5
0 1.5 4
0 1.5 3.5
0 1.5 3
0 1.5 2.5
0 1.5 2
0 1.5 1.5
0 1.5 1
0 1.5 0.5
0 2 4.5
0 2 4
0 2 3.5
0 2 3
0 2 2.5
0 2 2
0 2 1.5
0 2 1
0 2 0.5
0 2.5 4.5
0 2.5 4
0 2.5 3.5
0 2.5 3
0 2.5 2.5
0 2.5 2
0 2.5 1.5
0 2.5 1
0 2.5 0.5
0 3 4.5
0 3 4
0 3 3.5
0 3 3
0 3 2.5
0 3 2
0 3 1.5
0 3 1
0 3 0.5
0 3.5 4.5
0 3.5 4
0 3.5 3.5
0 3.5 3
0 3.5 2.5
0 3.5 2
0 3.5 1.5
0 3.5 1
0 3.5 0.5
0 4 4.5
0 4 4
0 4 3.5
0 4 3
0 4 2.5
0 4 2
0 4 1.5
0 4 1
0 4 0.5
0 4.5 4.5
0 4.5 4
0 4.5 3.5
0 4.5 3
0 4.5 2.5
0 4.5 2
0 4.5 1.5
0 4.5 1
0 4.5 0.5
4.5 0.5 0
4 0.5 0
3.5 0.5 0
3 0.5 0
2.5 0.5 0
2 0.5 0
1.5 0.5 0
1 0.5 0
0.5 0.5 0
4.5 1 0
4 1 0
3.5 1 0
3 1 0
2.5 1 0
2 1 0
1.5 1 0
1 1 0
0.5 1 0
4.5 1.5 0
4 1.5 0
3.5 1.5 0
3 1.5 0
2.5 1.5 0
2 1.5 0
1.5 1.5 0
1 1.5 0
0.5 1.5 0
4.5 2 0
4 2 0
3.5 2 0
3 2 0
2.5 2 0
2 2 0
1.5 2 0
1 2 0
0.5 2 0
4.5 2.5 0
4 2.5 0
3.5 2.5 0
3 2.5 0
2.5 2.5 0
2 2.5 0
1.5 2.5 0
1 2.5 0
0.5 2.5 0
4.5 3 0
4 3 0
3.5 3 0
3 3 0
2.5 3 0
2 3 0
1.5 3 0
1 3 0
0.5 3 0
4.5 3.5 0
4 3.5 0
3.5 3.5 0
3 3.5 0
2.5 3.5 0
2 3.5 0
1.5 3.5 0
1 3.5 0
0.5 3.5 0
4.5 4 0
4 4 0
3.5 4 0
3 4 0
2.5 4 0
2 4 0
1.5 4 0
1 4 0
0.5 4 0
4.5 4.5 0
4 4.5 0
3.5 4.5 0
3 4.5 0
2.5 4.5 0
2 4.5 0
1.5 4.5 0
1 4.5 0
0.5 4.5 0
0.5 0.5 5.5
1 0.5 5.5
1.5 0.5 5.5
2 0.5 5.5
2.5 0.5 5.5
3 0.5 5.5
3.5 0.5 5.5
4 0.5 5.5
4.5 0.5 5.5
0.5 0.5 6
1 0.5 6
1.5 0.5 6
2 0.5 6
2.5 0.5 6
3 0.5 6
3.5 0.5 6
4 0.5 6
4.5 0.5 6
0.5 0.5 6.5
1 0.5 6.5
1.5 0.5 6.5
2 0.5 6.5
2.5 0.5 6.5
3 0.5 6.5
3.5 0.5 6.5
4 0.5 6.5
4.5 0.5 6.5
0.5 0.5 7
1 0.5 7
1.5 0.5 7
2 0.5 7
2.5 0.5 7
3 0.5 7
3.5 0.5 7
4 0.5 7
4.5 0.5 7
0.5 0.5 7.5
1 0.5 7.5
1.5 0.5 7.5
2 0.5 7.5
2.5 0.5 7.5
3 0.5 7.5
3.5 0.5 7.5
4 0.5 7.5
4.5 0.5 7.5
0.5 0.5 8
1 0.5 8
1.5 0.5 8
2 0.5 8
2.5 0.5 8
3 0.5 8
3.5 0.5 8
4 0.5 8
4.5 0.5 8
0.5 0.5 8.5
1 0.5 8.5
1.5 0.5 8.5
2 0.5 8.5
2.5 0.5 8.5
3 0.5 8.5
3.5 0.5 8.5
4 0.5 8.5
4.5 0.5 8.5
0.5 0.5 9
1 0.5 9
1.5 0.5 9
2 0.5 9
2.5 0.5 9
3 0.5 9
3.5 0.5 9
4 0.5 9
4.5 0.5 9
0.5 0.5 9.5
1 0.5 9.5
1.5 0.5 9.5
2 0.5 9.5
2.5 0.5 9.5
3 0.5 9.5
3.5 0.5 9.5
4 0.5 9.5
4.5 0.5 9.5
0.5 0.5 10
1 0.5 10
1.5 0.5 10
2 0.5 10
2.5 0.5 10
3 0.5 10
3.5 0.5 10
4 0.5 10
4.5 0.5 10
0.5 0.5 10.5
1 0.5 10.5
1.5 0.5 10.5
2 0.5 10.5
2.5 0.5 10.5
3 0.5 10.5
3.5 0.5 10.5
4 0.5 10.5
4.5 0.5 10.5
0.5 0.5 11
1 0.5 11
1.5 0.5 11
2 0.5 11
2.5 0.5 11
3 0.5 11
3.5 0.5 11
4 0.5 11
4.5 0.5 11
0.5 0.5 11.5
1 0.5 11.5
1.5 0.5 11.5
2 0.5 11.5
2.5 0.5 11.5
3 0.5 11.5
3.5 0.5 11.5
4 0.5 11.5
4.5 0.5 11.5
0.5 0.5 12
1 0.5 12
1.5 0.5 12
2 0.5 12
2.5 0.5 12
3 0.5 12
3.5 0.5 12
4 0.5 12
4.5 0.5 12
0.5 0.5 12.5
1 0.5 12.5
1.5 0.5 12.5
2 0.5 12.5
2.5 0.5 12.5
3 0.5 12.5
3.5 0.5 12.5
4 0.5 12.5
4.5 0.5 12.5
0.5 0.5 13
1 0.5 13
1.5 0.5 13
2 0.5 13
2.5 0.5 13
3 0.5 13
3.5 0.5 13
4 0.5 13
4.5 0.5 13
0.5 0.5 13.5
1 0.5 13.5
1.5 0.5 13.5
2 0.5 13.5
2.5 0.5 13.5
3 0.5 13.5
3.5 0.5 13.5
4 0.5 13.5
4.5 0.5 13.5
0.5 0.5 14
1 0.5 14
1.5 0.5 14
2 0.5 14
2.5 0.5 14
3 0.5 14
3.5 0.5 14
4 0.5 14
4.5 0.5 14
0.5 0.5 14.5
1 0.5 14.5
1.5 0.5 14.5
2 0.5 14.5
2.5 0.5 14.5
3 0.5 14.5
3.5 0.5 14.5
4 0.5 14.5
4.5 0.5 14.5
0.5 0.5 15
1 0.5 15
1.5 0.5 15
2 0.5 15
2.5 0.5 15
3 0.5 15
3.5 0.5 15
4 0.5 15
4.5 0.5 15
0.5 0.5 15.5
1 0.5 15.5
1.5 0.5 15.5
2 0.5 15.5
2.5 0.5 15.5
3 0.5 15.5
3.5 0.5 15.5
4 0.5 15.5
4.5 0.5 15.5
0.5 0.5 16
1 0.5 16
1.5 0.5 16
2 0.5 16
2.5 0.5 16
3 0.5 16
3.5 0.5 16
4 0.5 16
4.5 0.5 16
0.5 0.5 16.5
1 0.5 16.5
1.5 0.5 16.5
2 0.5 16.5
2.5 0.5 16.5
3 0.5 16.5
3.5 0.5 16.5
4 0.5 16.5
4.5 0.5 16.5
0.5 0.5 17
1 0.5 17
1.5 0.5 17
2 0.5 17
2.5 0.5 17
3 0.5 17
3.5 0.5 17
4 0.5 17
4.5 0.5 17
0.5 0.5 17.5
1 0.5 17.5
1.5 0.5 17.5
2 0.5 17.5
2.5 0.5 17.5
3 0.5 17.5
3.5 0.5 17.5
4 0.5 17.5
4.5 0.5 17.5
0.5 0.5 18
1 0.5 18
1.5 0.5 18
2 0.5 18
2.5 0.5 18
3 0.5 18
3.5 0.5 18
4 0.5 18
4.5 0.5 18
0.5 0.5 18.5
1 0.5 18.5
1.5 0.5 18.5
2 0.5 18.5
2.5 0.5 18.5
3 0.5 18.5
3.5 0.5 18.5
4 0.5 18.5
4.5 0.5 18.5
0.5 0.5 19
1 0.5 19
1.5 0.5 19
2 0.5 19
2.5 0.5 19
3 0.5 19
3.5 0.5 19
4 0.5 19
4.5 0.5 19
0.5 0.5 19.5
1 0.5 19.5
1.5 0.5 19.5
2 0.5 19.5
2.5 0.5 19.5
3 0.5 19.5
3.5 0.5 19.5
4 0.5 19.5
4.5 0.5 19.5
0.5 1 5.5
1 1 5.5
1.5 1 5.5
2 1 5.5
2.5 1 5.5
3 1 5.5
3.5 1 5.5
4 1 5.5
4.5 1 5.5
0.5 1 6
1 1 6
1.5 1 6
2 1 6
2.5 1 6
3 1 6
3.5 1 6
4 1 6
4.5 1 6
0.5 1 6.5
1 1 6.5
1.5 1 6.5
2 1 6.5
2.5 1 6.5
3 1 6.5
3.5 1 6.5
4 1 6.5
4.5 1 6.5
0.5 1 7
1 1 7
1.5 1 7
2 1 7
2.5 1 7
3 1 7
3.5 1 7
4 1 7
4.5 1 7
0.5 1 7.5
1 1 7.5
1.5 1 7.5
2 1 7.5
2.5 1 7.5
3 1 7.5
3.5 1 7.5
4 1 7.5
4.5 1 7.5
0.5 1 8
1 1 8
1.5 1 8
2 1 8
2.5 1 8
3 1 8
3.5 1 8
4 1 8
4.5 1 8
0.5 1 8.5
1 1 8.5
1.5 1 8.5
2 1 8.5
2.5 1 8.5
3 1 8.5
3.5 1 8.5
4 1 8.5
4.5 1 8.5
0.5 1 9
1 1 9
1.5 1 9
2 1 9
2.5 1 9
3 1 9
3.5 1 9
4 1 9
4.5 1 9
0.5 1 9.5
1 1 9.5
1.5 1 9.5
2 1 9.5
2.5 1 9.5
3 1 9.5
3.5 1 9.5
4 1 9.5
4.5 1 9.5
0.5 1 10
1 1 10
1.5 1 10
2 1 10
2.5 1 10
3 1 10
3.5 1 10
4 1 10
4.5 1 10
0.5 1 10.5
1 1 10.5
1.5 1 10.5
2 1 10.5
2.5 1 10.5
3 1 10.5
3.5 1 10.5
4 1 10.5
4.5 1 10.5
0.5 1 11
1 1 11
1.5 1 11
2 1 11
2.5 1 11
3 1 11
3.5 1 11
4 1 11
4.5 1 11
0.5 1 11.5
1 1 11.5
1.5 1 11.5
2 1 11.5
2.5 1 11.5
3 1 11.5
3.5 1 11.5
4 1 11.5
4.5 1 11.5
0.5 1 12
1 1 12
1.5 1 12
2 1 12
2.5 1 12
3 1 12
3.5 1 12
4 1 12
4.5 1 12
0.5 1 12.5
1 1 12.5
1.5 1 12.5
2 1 12.5
2.5 1 12.5
3 1 12.5
3.5 1 12.5
4 1 12.5
4.5 1 12.5
0.5 1 13
1 1 13
1.5 1 13
2 1 13
2.5 1 13
3 1 13
3.5 1 13
4 1 13
4.5 1 13
0.5 1 13.5
1 1 13.5
1.5 1 13.5
2 1 13.5
2.5 1 13.5
3 1 13.5
3.5 1 13.5
4 1 13.5
4.5 1 13.5
0.5 1 14
1 1 14
1.5 1 14
2 1 14
2.5 1 14
3 1 14
3.5 1 14
4 1 14
4.5 1 14
0.5 1 14.5
1 1 14.5
1.5 1 14.5
2 1 14.5
2.5 1 14.5
3 1 14.5
3.5 1 14.5
4 1 14.5
4.5 1 14.5
0.5 1 15
1 1 15
1.5 1 15
2 1 15
2.5 1 15
3 1 15
3.5 1 15
4 1 15
4.5 1 15
0.5 1 15.5
1 1 15.5
1.5 1 15.5
2 1 15.5
2.5 1 15.5
3 1 15.5
3.5 1 15.5
4 1 15.5
4.5 1 15.5
0.5 1 16
1 1 16
1.5 1 16
2 1 16
2.5 1 16
3 1 16
3.5 1 16
4 1 16
4.5 1 16
0.5 1 16.5
1 1 16.5
1.5 1 16.5
2 1 16.5
2.5 1 16.5
3 1 16.5
3.5 1 16.5
4 1 16.5
4.5 1 16.5
0.5 1 17
1 1 17
1.5 1 17
2 1 17
2.5 1 17
3 1 17
3.5 1 17
4 1 17
4.5 1 17
0.5 1 17.5
1 1 17.5
1.5 1 17.5
2 1 17.5
2.5 1 17.5
3 1 17.5
3.5 1 17.5
4 1 17.5
4.5 1 17.5
0.5 1 18
1 1 18
1.5 1 18
2 1 18
2.5 1 18
3 1 18
3.5 1 18
4 1 18
4.5 1 18
0.5 1 18.5
1 1 18.5
1.5 1 18.5
2 1 18.5
2.5 1 18.5
3 1 18.5
3.5 1 18.5
4 1 18.5
4.5 1 18.5
0.5 1 19
1 1 19
1.5 1 19
2 1 19
2.5 1 19
3 1 19
3.5 1 19
4 1 19
4.5 1 19
0.5 1 19.5
1 1 19.5
1.5 1 19.5
2 1 19.5
2.5 1 19.5
3 1 19.5
3.5 1 19.5
4 1 19.5
4.5 1 19.5
0.5 1.5 5.5
1 1.5 5.5
1.5 1.5 5.5
2 1.5 5.5
2.5 1.5 5.5
3 1.5 5.5
3.5 1.5 5.5
4 1.5 5.5
4.5 1.5 5.5
0.5 1.5 6
1 1.5 6
1.5 1.5 6
2 1.5 6
2.5 1.5 6
3 1.5 6
3.5 1.5 6
4 1.5 6
4.5 1.5 6
0.5 1.5 6.5
1 1.5 6.5
1.5 1.5 6.5
2 1.5 6.5
2.5 1.5 6.5
3 1.5 6.5
3.5 1.5 6.5
4 1.5 6.5
4.5 1.5 6.5
0.5 1.5 7
1 1.5 7
1.5 1.5 7
2 1.5 7
2.5 1.5 7
3 1.5 7
3.5 1.5 7
4 1.5 7
4.5 1.5 7
0.5 1.5 7.5
1 1.5 7.5
1.5 1.5 7.5
2 1.5 7.5
2.5 1.5 7.5
3 1.5 7.5
3.5 1.5 7.5
4 1.5 7.5
4.5 1.5 7.5
0.5 1.5 8
1 1.5 8
1.5 1.5 8
2 1.5 8
2.5 1.5 8
3 1.5 8
3.5 1.5 8
4 1.5 8
4.5 1.5 8
0.5 1.5 8.5
1 1.5 8.5
1.5 1.5 8.5
2 1.5 8.5
2.5 1.5 8.5
3 1.5 8.5
3.5 1.5 8.5
4 1.5 8.5
4.5 1.5 8.5
0.5 1.5 9
1 1.5 9
1.5 1.5 9
2 1.5 9
2.5 1.5 9
3 1.5 9
3.5 1.5 9
4 1.5 9
4.5 1.5 9
0.5 1.5 9.5
1 1.5 9.5
1.5 1.5 9.5
2 1.5 9.5
2.5 1.5 9.5
3 1.5 9.5
3.5 1.5 9.5
4 1.5 9.5
4.5 1.5 9.5
0.5 1.5 10
1 1.5 10
1.5 1.5 10
2 1.5 10
2.5 1.5 10
3 1.5 10
3.5 1.5 10
4 1.5 10
4.5 1.5 10
0.5 1.5 10.5
1 1.5 10.5
1.5 1.5 10.5
2 1.5 10.5
2.5 1.5 10.5
3 1.5 10.5
3.5 1.5 10.5
4 1.5 10.5
4.5 1.5 10.5
0.5 1.5 11
1 1.5 11
1.5 1.5 11
2 1.5 11
2.5 1.5 11
3 1.5 11
3.5 1.5 11
4 1.5 11
4.5 1.5 11
0.5 1.5 11.5
1 1.5 11.5
1.5 1.5 11.5
2 1.5 11.5
2.5 1.5 11.5
3 1.5 11.5
3.5 1.5 11.5
4 1.5 11.5
4.5 1.5 11.5
0.5 1.5 12
1 1.5 12
1.5 1.5 12
2 1.5 12
2.5 1.5 12
3 1.5 12
3.5 1.5 12
4 1.5 12
4.5 1.5 12
0.5 1.5 12.5
1 1.5 12.5
1.5 1.5 12.5
2 1.5 12.5
2.5 1.5 12.5
3 1.5 12.5
3.5 1.5 12.5
4 1.5 12.5
4.5 1.5 12.5
0.5 1.5 13
1 1.5 13
1.5 1.5 13
2 1.5 13
2.5 1.5 13
3 1.5 13
3.5 1.5 13
4 1.5 13
4.5 1.5 13
0.5 1.5 13.5
1 1.5 13.5
1.5 1.5 13.5
2 1.5 13.5
2.5 1.5 13.5
3 1.5 13.5
3.5 1.5 13.5
4 1.5 13.5
4.5 1.5 13.5
0.5 1.5 14
1 1.5 14
1.5 1.5 14
2 1.5 14
2.5 1.5 14
3 1.5 14
3.5 1.5 14
4 1.5 14
4.5 1.5 14
0.5 1.5 14.5
1 1.5 14.5
1.5 1.5 14.5
2 1.5 14.5
2.5 1.5 14.5
3 1.5 14.5
3.5 1.5 14.5
4 1.5 14.5
4.5 1.5 14.5
0.5 1.5 15
1 1.5 15
1.5 1.5 15
2 1.5 15
2.5 1.5 15
3 1.5 15
3.5 1.5 15
4 1.5 15
4.5 1.5 15
0.5 1.5 15.5
1 1.5 15.5
1.5 1.5 15.5
2 1.5 15.5
2.5 1.5 15.5
3 1.5 15.5
3.5 1.5 15.5
4 1.5 15.5
4.5 1.5 15.5
0.5 1.5 16
1 1.5 16
1.5 1.5 16
2 1.5 16
2.5 1.5 16
3 1.5 16
3.5 1.5 16
4 1.5 16
4.5 1.5 16
0.5 1.5 16.5
1 1.5 16.5
1.5 1.5 16.5
2 1.5 16.5
2.5 1.5 16.5
3 1.5 16.5
3.5 1.5 16.5
4 1.5 16.5
4.5 1.5 16.5
0.5 1.5 17
1 1.5 17
1.5 1.5 17
2 1.5 17
2.5 1.5 17
3 1.5 17
3.5 1.5 17
4 1.5 17
4.5 1.5 17
0.5 1.5 17.5
1 1.5 17.5
1.5 1.5 17.5
2 1.5 17.5
2.5 1.5 17.5
3 1.5 17.5
3.5 1.5 17.5
4 1.5 17.5
4.5 1.5 17.5
0.5 1.5 18
1 1.5 18
1.5 1.5 18
2 1.5 18
2.5 1.5 18
3 1.5 18
3.5 1.5 18
4 1.5 18
4.5 1.5 18
0.5 1.5 18.5
1 1.5 18.5
1.5 1.5 18.5
2 1.5 18.5
2.5 1.5 18.5
3 1.5 18.5
3.5 1.5 18.5
4 1.5 18.5
4.5 1.5 18.5
0.5 1.5 19
1 1.5 19
1.5 1.5 19
2 1.5 19
2.5 1.5 19
3 1.5 19
3.5 1.5 19
4 1.5 19
4.5 1.5 19
0.5 1.5 19.5
1 1.5 19.5
1.5 1.5 19.5
2 1.5 19.5
2.5 1.5 19.5
3 1.5 19.5
3.5 1.5 19.5
4 1.5 19.5
4.5 1.5 19.5
0.5 2 5.5
1 2 5.5
1.5 2 5.5
2 2 5.5
2.5 2 5.5
3 2 5.5
3.5 2 5.5
4 2 5.5
4.5 2 5.5
0.5 2 6
1 2 6
1.5 2 6
2 2 6
2.5 2 6
3 2 6
3.5 2 6
4 2 6
4.5 2 6
0.5 2 6.5
1 2 6.5
1.5 2 6.5
2 2 6.5
2.5 2 6.5
3 2 6.5
3.5 2 6.5
4 2 6.5
4.5 2 6.5
0.5 2 7
1 2 7
1.5 2 7
2 2 7
2.5 2 7
3 2 7
3.5 2 7
4 2 7
4.5 2 7
0.5 2 7.5
1 2 7.5
1.5 2 7.5
2 2 7.5
2.5 2 7.5
3 2 7.5
3.5 2 7.5
4 2 7.5
4.5 2 7.5
0.5 2 8
1 2 8
1.5 2 8
2 2 8
2.5 2 8
3 2 8
3.5 2 8
4 2 8
4.5 2 8
0.5 2 8.5
1 2 8.5
1.5 2 8.5
2 2 8.5
2.5 2 8.5
3 2 8.5
3.5 2 8.5
4 2 8.5
4.5 2 8.5
0.5 2 9
1 2 9
1.5 2 9
2 2 9
2.5 2 9
3 2 9
3.5 2 9
4 2 9
4.5 2 9
0.5 2 9.5
1 2 9.5
1.5 2 9.5
2 2 9.5
2.5 2 9.5
3 2 9.5
3.5 2 9.5
4 2 9.5
4.5 2 9.5
0.5 2 10
1 2 10
1.5 2 10
2 2 10
2.5 2 10
3 2 10
3.5 2 10
4 2 10
4.5 2 10
0.5 2 10.5
1 2 10.5
1.5 2 10.5
2 2 10.5
2.5 2 10.5
3 2 10.5
3.5 2 10.5
4 2 10.5
4.5 2 10.5
0.5 2 11
1 2 11
1.5 2 11
2 2 11
2.5 2 11
3 2 11
3.5 2 11
4 2 11
4.5 2 11
0.5 2 11.5
1 2 11.5
1.5 2 11.5
2 2 11.5
2.5 2 11.5
3 2 11.5
3.5 2 11.5
4 2 11.5
4.5 2 11.5
0.5 2 12
1 2 12
1.5 2 12
2 2 12
2.5 2 12
3 2 12
3.5 2 12
4 2 12
4.5 2 12
0.5 2 12.5
1 2 12.5
1.5 2 12.5
2 2 12.5
2.5 2 12.5
3 2 12.5
3.5 2 12.5
4 2 12.5
4.5 2 12.5
0.5 2 13
1 2 13
1.5 2 13
2 2 13
2.5 2 13
3 2 13
3.5 2 13
4 2 13
4.5 2 13
0.5 2 13.5
1 2 13.5
1.5 2 13.5
2 2 13.5
2.5 2 13.5
3 2 13.5
3.5 2 13.5
4 2 13.5
4.5 2 13.5
0.5 2 14
1 2 14
1.5 2 14
2 2 14
2.5 2 14
3 2 14
3.5 2 14
4 2 14
4.5 2 14
0.5 2 14.5
1 2 14.5
1.5 2 14.5
2 2 14.5
2.5 2 14.5
3 2 14.5
3.5 2 14.5
4 2 14.5
4.5 2 14.5
0.5 2 15
1 2 15
1.5 2 15
2 2 15
2.5 2 15
3 2 15
3.5 2 15
4 2 15
4.5 2 15
0.5 2 15.5
1 2 15.5
1.5 2 15.5
2 2 15.5
2.5 2 15.5
3 2 15.5
3.5 2 15.5
4 2 15.5
4.5 2 15.5
0.5 2 16
1 2 16
1.5 2 16
2 2 16
2.5 2 16
3 2 16
3.5 2 16
4 2 16
4.5 2 16
0.5 2 16.5
1 2 16.5
1.5 2 16.5
2 2 16.5
2.5 2 16.5
3 2 16.5
3.5 2 16.5
4 2 16.5
4.5 2 16.5
0.5 2 17
1 2 17
1.5 2 17
2 2 17
2.5 2 17
3 2 17
3.5 2 17
4 2 17
4.5 2 17
0.5 2 17.5
1 2 17.5
1.5 2 17.5
2 2 17.5
2.5 2 17.5
3 2 17.5
3.5 2 17.5
4 2 17.5
4.5 2 17.5
0.5 2 18
1 2 18
1.5 2 18
2 2 18
2.5 2 18
3 2 18
3.5 2 18
4 2 18
4.5 2 18
0.5 2 18.5
1 2 18.5
1.5 2 18.5
2 2 18.5
2.5 2 18.5
3 2 18.5
3.5 2 18.5
4 2 18.5
4.5 2 18.5
0.5 2 19
1 2 19
1.5 2 19
2 2 19
2.5 2 19
3 2 19
3.5 2 19
4 2 19
4.5 2 19
0.5 2 19.5
1 2 19.5
1.5 2 19.5
2 2 19.5
2.5 2 19.5
3 2 19.5
3.5 2 19.5
4 2 19.5
4.5 2 19.5
0.5 2.5 5.5
1 2.5 5.5
1.5 2.5 5.5
2 2.5 5.5
2.5 2.5 5.5
3 2.5 5.5
3.5 2.5 5.5
4 2.5 5.5
4.5 2.5 5.5
0.5 2.5 6
1 2.5 6
1.5 2.5 6
2 2.5 6
2.5 2.5 6
3 2.5 6
3.5 2.5 6
4 2.5 6
4.5 2.5 6
0.5 2.5 6.5
1 2.5 6.5
1.5 2.5 6.5
2 2.5 6.5
2.5 2.5 6.5
3 2.5 6.5
3.5 2.5 6.5
4 2.5 6.5
4.5 2.5 6.5
0.5 2.5 7
1 2.5 7
1.5 2.5 7
2 2.5 7
2.5 2.5 7
3 2.5 7
3.5 2.5 7
4 2.5 7
4.5 2.5 7
0.5 2.5 7.5
1 2.5 7.5
1.5 2.5 7.5
2 2.5 7.5
2.5 2.5 7.5
3 2.5 7.5
3.5 2.5 7.5
4 2.5 7.5
4.5 2.5 7.5
0.5 2.5 8
1 2.5 8
1.5 2.5 8
2 2.5 8
2.5 2.5 8
3 2.5 8
3.5 2.5 8
4 2.5 8
4.5 2.5 8
0.5 2.5 8.5
1 2.5 8.5
1.5 2.5 8.5
2 2.5 8.5
2.5 2.5 8.5
3 2.5 8.5
3.5 2.5 8.5
4 2.5 8.5
4.5 2.5 8.5
0.5 2.5 9
1 2.5 9
1.5 2.5 9
2 2.5 9
2.5 2.5 9
3 2.5 9
3.5 2.5 9
4 2.5 9
4.5 2.5 9
0.5 2.5 9.5
1 2.5 9.5
1.5 2.5 9.5
2 2.5 9.5
2.5 2.5 9.5
3 2.5 9.5
3.5 2.5 9.5
4 2.5 9.5
4.5 2.5 9.5
0.5 2.5 10
1 2.5 10
1.5 2.5 10
2 2.5 10
2.5 2.5 10
3 2.5 10
3.5 2.5 10
4 2.5 10
4.5 2.5 10
0.5 2.5 10.5
1 2.5 10.5
1.5 2.5 10.5
2 2.5 10.5
2.5 2.5 10.5
3 2.5 10.5
3.5 2.5 10.5
4 2.5 10.5
4.5 2.5 10.5
0.5 2.5 11
1 2.5 11
1.5 2.5 11
2 2.5 11
2.5 2.5 11
3 2.5 11
3.5 2.5 11
4 2.5 11
4.5 2.5 11
0.5 2.5 11.5
1 2.5 11.5
1.5 2.5 11.5
2 2.5 11.5
2.5 2.5 11.5
3 2.5 11.5
3.5 2.5 11.5
4 2.5 11.5
4.5 2.5 11.5
0.5 2.5 12
1 2.5 12
1.5 2.5 12
2 2.5 12
2.5 2.5 12
3 2.5 12
3.5 2.5 12
4 2.5 12
4.5 2.5 12
0.5 2.5 12.5
1 2.5 12.5
1.5 2.5 12.5
2 2.5 12.5
2.5 2.5 12.5
3 2.5 12.5
3.5 2.5 12.5
4 2.5 12.5
4.5 2.5 12.5
0.5 2.5 13
1 2.5 13
1.5 2.5 13
2 2.5 13
2.5 2.5 13
3 2.5 13
3.5 2.5 13
4 2.5 13
4.5 2.5 13
0.5 2.5 13.5
1 2.5 13.5
1.5 2.5 13.5
2 2.5 13.5
2.5 2.5 13.5
3 2.5 13.5
3.5 2.5 13.5
4 2.5 13.5
4.5 2.5 13.5
0.5 2.5 14
1 2.5 14
1.5 2.5 14
2 2.5 14
2.5 2.5 14
3 2.5 14
3.5 2.5 14
4 2.5 14
4.5 2.5 14
0.5 2.5 14.5
1 2.5 14.5
1.5 2.5 14.5
2 2.5 14.5
2.5 2.5 14.5
3 2.5 14.5
3.5 2.5 14.5
4 2.5 14.5
4.5 2.5 14.5
0.5 2.5 15
1 2.5 15
1.5 2.5 15
2 2.5 15
2.5 2.5 15
3 2.5 15
3.5 2.5 15
4 2.5 15
4.5 2.5 15
0.5 2.5 15.5
1 2.5 15.5
1.5 2.5 15.5
2 2.5 15.5
2.5 2.5 15.5
3 2.5 15.5
3.5 2.5 15.5
4 2.5 15.5
4.5 2.5 15.5
0.5 2.5 16
1 2.5 16
1.5 2.5 16
2 2.5 16
2.5 2.5 16
3 2.5 16
3.5 2.5 16
4 2.5 16
4.5 2.5 16
0.5 2.5 16.5
1 2.5 16.5
1.5 2.5 16.5
2 2.5 16.5
2.5 2.5 16.5
3 2.5 16.5
3.5 2.5 16.5
4 2.5 16.5
4.5 2.5 16.5
0.5 2.5 17
1 2.5 17
1.5 2.5 17
2 2.5 17
2.5 2.5 17
3 2.5 17
3.5 2.5 17
4 2.5 17
4.5 2.5 17
0.5 2.5 17.5
1 2.5 17.5
1.5 2.5 17.5
2 2.5 17.5
2.5 2.5 17.5
3 2.5 17.5
3.5 2.5 17.5
4 2.5 17.5
4.5 2.5 17.5
0.5 2.5 18
1 2.5 18
1.5 2.5 18
2 2.5 18
2.5 2.5 18
3 2.5 18
3.5 2.5 18
4 2.5 18
4.5 2.5 18
0.5 2.5 18.5
1 2.5 18.5
1.5 2.5 18.5
2 2.5 18.5
2.5 2.5 18.5
3 2.5 18.5
3.5 2.5 18.5
4 2.5 18.5
4.5 2.5 18.5
0.5 2.5 19
1 2.5 19
1.5 2.5 19
2 2.5 19
2.5 2.5 19
3 2.5 19
3.5 2.5 19
4 2.5 19
4.5 2.5 19
0.5 2.5 19.5
1 2.5 19.5
1.5 2.5 19.5
2 2.5 19.5
2.5 2.5 19.5
3 2.5 19.5
3.5 2.5 19.5
4 2.5 19.5
4.5 2.5 19.5
0.5 3 5.5
1 3 5.5
1.5 3 5.5
2 3 5.5
2.5 3 5.5
3 3 5.5
3.5 3 5.5
4 3 5.5
4.5 3 5.5
0.5 3 6
1 3 6
1.5 3 6
2 3 6
2.5 3 6
3 3 6
3.5 3 6
4 3 6
4.5 3 6
0.5 3 6.5
1 3 6.5
1.5 3 6.5
2 3 6.5
2.5 3 6.5
3 3 6.5
3.5 3 6.5
4 3 6.5
4.5 3 6.5
0.5 3 7
1 3 7
1.5 3 7
2 3 7
2.5 3 7
3 3 7
3.5 3 7
4 3 7
4.5 3 7
0.5 3 7.5
1 3 7.5
1.5 3 7.5
2 3 7.5
2.5 3 7.5
3 3 7.5
3.5 3 7.5
4 3 7.5
4.5 3 7.5
0.5 3 8
1 3 8
1.5 3 8
2 3 8
2.5 3 8
3 3 8
3.5 3 8
4 3 8
4.5 3 8
0.5 3 8.5
1 3 8.5
1.5 3 8.5
2 3 8.5
2.5 3 8.5
3 3 8.5
3.5 3 8.5
4 3 8.5
4.5 3 8.5
0.5 3 9
1 3 9
1.5 3 9
2 3 9
2.5 3 9
3 3 9
3.5 3 9
4 3 9
4.5 3 9
0.5 3 9.5
1 3 9.5
1.5 3 9.5
2 3 9.5
2.5 3 9.5
3 3 9.5
3.5 3 9.5
4 3 9.5
4.5 3 9.5
0.5 3 10
1 3 10
1.5 3 10
2 3 10
2.5 3 10
3 3 10
3.5 3 10
4 3 10
4.5 3 10
0.5 3 10.5
1 3 10.5
1.5 3 10.5
2 3 10.5
2.5 3 10.5
3 3 10.5
3.5 3 10.5
4 3 10.5
4.5 3 10.5
0.5 3 11
1 3 11
1.5 3 11
2 3 11
2.5 3 11
3 3 11
3.5 3 11
4 3 11
4.5 3 11
0.5 3 11.5
1 3 11.5
1.5 3 11.5
2 3 11.5
2.5 3 11.5
3 3 11.5
3.5 3 11.5
4 3 11.5
4.5 3 11.5
0.5 3 12
1 3 12
1.5 3 12
2 3 12
2.5 3 12
3 3 12
3.5 3 12
4 3 12
4.5 3 12
0.5 3 12.5
1 3 12.5
1.5 3 12.5
2 3 12.5
2.5 3 12.5
3 3 12.5
3.5 3 12.5
4 3 12.5
4.5 3 12.5
0.5 3 13
1 3 13
1.5 3 13
2 3 13
2.5 3 13
3 3 13
3.5 3 13
4 3 13
4.5 3 13
0.5 3 13.5
1 3 13.5
1.5 3 13.5
2 3 13.5
2.5 3 13.5
3 3 13.5
3.5 3 13.5
4 3 13.5
4.5 3 13.5
0.5 3 14
1 3 14
1.5 3 14
2 3 14
2.5 3 14
3 3 14
3.5 3 14
4 3 14
4.5 3 14
0.5 3 14.5
1 3 14.5
1.5 3 14.5
2 3 14.5
2.5 3 14.5
3 3 14.5
3.5 3 14.5
4 3 14.5
4.5 3 14.5
0.5 3 15
1 3 15
1.5 3 15
2 3 15
2.5 3 15
3 3 15
3.5 3 15
4 3 15
4.5 3 15
0.5 3 15.5
1 3 15.5
1.5 3 15.5
2 3 15.5
2.5 3 15.5
3 3 15.5
3.5 3 15.5
4 3 15.5
4.5 3 15.5
0.5 3 16
1 3 16
1.5 3 16
2 3 16
2.5 3 16
3 3 16
3.5 3 16
4 3 16
4.5 3 16
0.5 3 16.5
1 3 16.5
1.5 3 16.5
2 3 16.5
2.5 3 16.5
3 3 16.5
3.5 3 16.5
4 3 16.5
4.5 3 16.5
0.5 3 17
1 3 17
1.5 3 17
2 3 17
2.5 3 17
3 3 17
3.5 3 17
4 3 17
4.5 3 17
0.5 3 17.5
1 3 17.5
1.5 3 17.5
2 3 17.5
2.5 3 17.5
3 3 17.5
3.5 3 17.5
4 3 17.5
4.5 3 17.5
0.5 3 18
1 3 18
1.5 3 18
2 3 18
2.5 3 18
3 3 18
3.5 3 18
4 3 18
4.5 3 18
0.5 3 18.5
1 3 18.5
1.5 3 18.5
2 3 18.5
2.5 3 18.5
3 3 18.5
3.5 3 18.5
4 3 18.5
4.5 3 18.5
0.5 3 19
1 3 19
1.5 3 19
2 3 19
2.5 3 19
3 3 19
3.5 3 19
4 3 19
4.5 3 19
0.5 3 19.5
1 3 19.5
1.5 3 19.5
2 3 19.5
2.5 3 19.5
3 3 19.5
3.5 3 19.5
4 3 19.5
4.5 3 19.5
0.5 3.5 5.5
1 3.5 5.5
1.5 3.5 5.5
2 3.5 5.5
2.5 3.5 5.5
3 3.5 5.5
3.5 3.5 5.5
4 3.5 5.5
4.5 3.5 5.5
0.5 3.5 6
1 3.5 6
1.5 3.5 6
2 3.5 6
2.5 3.5 6
3 3.5 6
3.5 3.5 6
4 3.5 6
4.5 3.5 6
0.5 3.5 6.5
1 3.5 6.5
1.5 3.5 6.5
2 3.5 6.5
2.5 3.5 6.5
3 3.5 6.5
3.5 3.5 6.5
4 3.5 6.5
4.5 3.5 6.5
0.5 3.5 7
1 3.5 7
1.5 3.5 7
2 3.5 7
2.5 3.5 7
3 3.5 7
3.5 3.5 7
4 3.5 7
4.5 3.5 7
0.5 3.5 7.5
1 3.5 7.5
1.5 3.5 7.5
2 3.5 7.5
2.5 3.5 7.5
3 3.5 7.5
3.5 3.5 7.5
4 3.5 7.5
4.5 3.5 7.5
0.5 3.5 8
1 3.5 8
1.5 3.5 8
2 3.5 8
2.5 3.5 8
3 3.5 8
3.5 3.5 8
4 3.5 8
4.5 3.5 8
0.5 3.5 8.5
1 3.5 8.5
1.5 3.5 8.5
2 3.5 8.5
2.5 3.5 8.5
3 3.5 8.5
3.5 3.5 8.5
4 3.5 8.5
4.5 3.5 8.5
0.5 3.5 9
1 3.5 9
1.5 3.5 9
2 3.5 9
2.5 3.5 9
3 3.5 9
3.5 3.5 9
4 3.5 9
4.5 3.5 9
0.5 3.5 9.5
1 3.5 9.5
1.5 3.5 9.5
2 3.5 9.5
2.5 3.5 9.5
3 3.5 9.5
3.5 3.5 9.5
4 3.5 9.5
4.5 3.5 9.5
0.5 3.5 10
1 3.5 10
1.5 3.5 10
2 3.5 10
2.5 3.5 10
3 3.5 10
3.5 3.5 10
4 3.5 10
4.5 3.5 10
0.5 3.5 10.5
1 3.5 10.5
1.5 3.5 10.5
2 3.5 10.5
2.5 3.5 10.5
3 3.5 10.5
3.5 3.5 10.5
4 3.5 10.5
4.5 3.5 10.5
0.5 3.5 11
1 3.5 11
1.5 3.5 11
2 3.5 11
2.5 3.5 11
3 3.5 11
3.5 3.5 11
4 3.5 11
4.5 3.5 11
0.5 3.5 11.5
1 3.5 11.5
1.5 3.5 11.5
2 3.5 11.5
2.5 3.5 11.5
3 3.5 11.5
3.5 3.5 11.5
4 3.5 11.5
4.5 3.5 11.5
0.5 3.5 12
1 3.5 12
1.5 3.5 12
2 3.5 12
2.5 3.5 12
3 3.5 12
3.5 3.5 12
4 3.5 12
4.5 3.5 12
0.5 3.5 12.5
1 3.5 12.5
1.5 3.5 12.5
2 3.5 12.5
2.5 3.5 12.5
3 3.5 12.5
3.5 3.5 12.5
4 3.5 12.5
4.5 3.5 12.5
0.5 3.5 13
1 3.5 13
1.5 3.5 13
2 3.5 13
2.5 3.5 13
3 3.5 13
3.5 3.5 13
4 3.5 13
4.5 3.5 13
0.5 3.5 13.5
1 3.5 13.5
1.5 3.5 13.5
2 3.5 13.5
2.5 3.5 13.5
3 3.5 13.5
3.5 3.5 13.5
4 3.5 13.5
4.5 3.5 13.5
0.5 3.5 14
1 3.5 14
1.5 3.5 14
2 3.5 14
2.5 3.5 14
3 3.5 14
3.5 3.5 14
4 3.5 14
4.5 3.5 14
0.5 3.5 14.5
1 3.5 14.5
1.5 3.5 14.5
2 3.5 14.5
2.5 3.5 14.5
3 3.5 14.5
3.5 3.5 14.5
4 3.5 14.5
4.5 3.5 14.5
0.5 3.5 15
1 3.5 15
1.5 3.5 15
2 3.5 15
2.5 3.5 15
3 3.5 15
3.5 3.5 15
4 3.5 15
4.5 3.5 15
0.5 3.5 15.5
1 3.5 15.5
1.5 3.5 15.5
2 3.5 15.5
2.5 3.5 15.5
3 3.5 15.5
3.5 3.5 15.5
4 3.5 15.5
4.5 3.5 15.5
0.5 3.5 16
1 3.5 16
1.5 3.5 16
2 3.5 16
2.5 3.5 16
3 3.5 16
3.5 3.5 16
4 3.5 16
4.5 3.5 16
0.5 3.5 16.5
1 3.5 16.5
1.5 3.5 16.5
2 3.5 16.5
2.5 3.5 16.5
3 3.5 16.5
3.5 3.5 16.5
4 3.5 16.5
4.5 3.5 16.5
0.5 3.5 17
1 3.5 17
1.5 3.5 17
2 3.5 17
2.5 3.5 17
3 3.5 17
3.5 3.5 17
4 3.5 17
4.5 3.5 17
0.5 3.5 17.5
1 3.5 17.5
1.5 3.5 17.5
2 3.5 17.5
2.5 3.5 17.5
3 3.5 17.5
3.5 3.5 17.5
4 3.5 17.5
4.5 3.5 17.5
0.5 3.5 18
1 3.5 18
1.5 3.5 18
2 3.5 18
2.5 3.5 18
3 3.5 18
3.5 3.5 18
4 3.5 18
4.5 3.5 18
0.5 3.5 18.5
1 3.5 18.5
1.5 3.5 18.5
2 3.5 18.5
2.5 3.5 18.5
3 3.5 18.5
3.5 3.5 18.5
4 3.5 18.5
4.5 3.5 18.5
0.5 3.5 19
1 3.5 19
1.5 3.5 19
2 3.5 19
2.5 3.5 19
3 3.5 19
3.5 3.5 19
4 3.5 19
4.5 3.5 19
0.5 3.5 19.5
1 3.5 19.5
1.5 3.5 19.5
2 3.5 19.5
2.5 3.5 19.5
3 3.5 19.5
3.5 3.5 19.5
4 3.5 19.5
4.5 3.5 19.5
0.5 4 5.5
1 4 5.5
1.5 4 5.5
2 4 5.5
2.5 4 5.5
3 4 5.5
3.5 4 5.5
4 4 5.5
4.5 4 5.5
0.5 4 6
1 4 6
1.5 4 6
2 4 6
2.5 4 6
3 4 6
3.5 4 6
4 4 6
4.5 4 6
0.5 4 6.5
1 4 6.5
1.5 4 6.5
2 4 6.5
2.5 4 6.5
3 4 6.5
3.5 4 6.5
4 4 6.5
4.5 4 6.5
0.5 4 7
1 4 7
1.5 4 7
2 4 7
2.5 4 7
3 4 7
3.5 4 7
4 4 7
4.5 4 7
0.5 4 7.5
1 4 7.5
1.5 4 7.5
2 4 7.5
2.5 4 7.5
3 4 7.5
3.5 4 7.5
4 4 7.5
4.5 4 7.5
0.5 4 8
1 4 8
1.5 4 8
2 4 8
2.5 4 8
3 4 8
3.5 4 8
4 4 8
4.5 4 8
0.5 4 8.5
1 4 8.5
1.5 4 8.5
2 4 8.5
2.5 4 8.5
3 4 8.5
3.5 4 8.5
4 4 8.5
4.5 4 8.5
0.5 4 9
1 4 9
1.5 4 9
2 4 9
2.5 4 9
3 4 9
3.5 4 9
4 4 9
4.5 4 9
0.5 4 9.5
1 4 9.5
1.5 4 9.5
2 4 9.5
2.5 4 9.5
3 4 9.5
3.5 4 9.5
4 4 9.5
4.5 4 9.5
0.5 4 10
1 4 10
1.5 4 10
2 4 10
2.5 4 10
3 4 10
3.5 4 10
4 4 10
4.5 4 10
0.5 4 10.5
1 4 10.5
1.5 4 10.5
2 4 10.5
2.5 4 10.5
3 4 10.5
3.5 4 10.5
4 4 10.5
4.5 4 10.5
0.5 4 11
1 4 11
1.5 4 11
2 4 11
2.5 4 11
3 4 11
3.5 4 11
4 4 11
4.5 4 11
0.5 4 11.5
1 4 11.5
1.5 4 11.5
2 4 11.5
2.5 4 11.5
3 4 11.5
3.5 4 11.5
4 4 11.5
4.5 4 11.5
0.5 4 12
1 4 12
1.5 4 12
2 4 12
2.5 4 12
3 4 12
3.5 4 12
4 4 12
4.5 4 12
0.5 4 12.5
1 4 12.5
1.5 4 12.5
2 4 12.5
2.5 4 12.5
3 4 12.5
3.5 4 12.5
4 4 12.5
4.5 4 12.5
0.5 4 13
1 4 13
1.5 4 13
2 4 13
2.5 4 13
3 4 13
3.5 4 13
4 4 13
4.5 4 13
0.5 4 13.5
1 4 13.5
1.5 4 13.5
2 4 13.5
2.5 4 13.5
3 4 13.5
3.5 4 13.5
4 4 13.5
4.5 4 13.5
0.5 4 14
1 4 14
1.5 4 14
2 4 14
2.5 4 14
3 4 14
3.5 4 14
4 4 14
4.5 4 14
0.5 4 14.5
1 4 14.5
1.5 4 14.5
2 4 14.5
2.5 4 14.5
3 4 14.5
3.5 4 14.5
4 4 14.5
4.5 4 14.5
0.5 4 15
1 4 15
1.5 4 15
2 4 15
2.5 4 15
3 4 15
3.5 4 15
4 4 15
4.5 4 15
0.5 4 15.5
1 4 15.5
1.5 4 15.5
2 4 15.5
2.5 4 15.5
3 4 15.5
3.5 4 15.5
4 4 15.5
4.5 4 15.5
0.5 4 16
1 4 16
1.5 4 16
2 4 16
2.5 4 16
3 4 16
3.5 4 16
4 4 16
4.5 4 16
0.5 4 16.5
1 4 16.5
1.5 4 16.5
2 4 16.5
2.5 4 16.5
3 4 16.5
3.5 4 16.5
4 4 16.5
4.5 4 16.5
0.5 4 17
1 4 17
1.5 4 17
2 4 17
2.5 4 17
3 4 17
3.5 4 17
4 4 17
4.5 4 17
0.5 4 17.5
1 4 17.5
1.5 4 17.5
2 4 17.5
2.5 4 17.5
3 4 17.5
3.5 4 17.5
4 4 17.5
4.5 4 17.5
0.5 4 18
1 4 18
1.5 4 18
2 4 18
2.5 4 18
3 4 18
3.5 4 18
4 4 18
4.5 4 18
0.5 4 18.5
1 4 18.5
1.5 4 18.5
2 4 18.5
2.5 4 18.5
3 4 18.5
3.5 4 18.5
4 4 18.5
4.5 4 18.5
0.5 4 19
1 4 19
1.5 4 19
2 4 19
2.5 4 19
3 4 19
3.5 4 19
4 4 19
4.5 4 19
0.5 4 19.5
1 4 19.5
1.5 4 19.5
2 4 19.5
2.5 4 19.5
3 4 19.5
3.5 4 19.5
4 4 19.5
4.5 4 19.5
0.5 4.5 5.5
1 4.5 5.5
1.5 4.5 5.5
2 4.5 5.5
2.5 4.5 5.5
3 4.5 5.5
3.5 4.5 5.5
4 4.5 5.5
4.5 4.5 5.5
0.5 4.5 6
1 4.5 6
1.5 4.5 6
2 4.5 6
2.5 4.5 6
3 4.5 6
3.5 4.5 6
4 4.5 6
4.5 4.5 6
0.5 4.5 6.5
1 4.5 6.5
1.5 4.5 6.5
2 4.5 6.5
2.5 4.5 6.5
3 4.5 6.5
3.5 4.5 6.5
4 4.5 6.5
4.5 4.5 6.5
0.5 4.5 7
1 4.5 7
1.5 4.5 7
2 4.5 7
2.5 4.5 7
3 4.5 7
3.5 4.5 7
4 4.5 7
4.5 4.5 7
0.5 4.5 7.5
1 4.5 7.5
1.5 4.5 7.5
2 4.5 7.5
2.5 4.5 7.5
3 4.5 7.5
3.5 4.5 7.5
4 4.5 7.5
4.5 4.5 7.5
0.5 4.5 8
1 4.5 8
1.5 4.5 8
2 4.5 8
2.5 4.5 8
3 4.5 8
3.5 4.5 8
4 4.5 8
4.5 4.5 8
0.5 4.5 8.5
1 4.5 8.5
1.5 4.5 8.5
2 4.5 8.5
2.5 4.5 8.5
3 4.5 8.5
3.5 4.5 8.5
4 4.5 8.5
4.5 4.5 8.5
0.5 4.5 9
1 4.5 9
1.5 4.5 9
2 4.5 9
2.5 4.5 9
3 4.5 9
3.5 4.5 9
4 4.5 9
4.5 4.5 9
0.5 4.5 9.5
1 4.5 9.5
1.5 4.5 9.5
2 4.5 9.5
2.5 4.5 9.5
3 4.5 9.5
3.5 4.5 9.5
4 4.5 9.5
4.5 4.5 9.5
0.5 4.5 10
1 4.5 10
1.5 4.5 10
2 4.5 10
2.5 4.5 10
3 4.5 10
3.5 4.5 10
4 4.5 10
4.5 4.5 10
0.5 4.5 10.5
1 4.5 10.5
1.5 4.5 10.5
2 4.5 10.5
2.5 4.5 10.5
3 4.5 10.5
3.5 4.5 10.5
4 4.5 10.5
4.5 4.5 10.5
0.5 4.5 11
1 4.5 11
1.5 4.5 11
2 4.5 11
2.5 4.5 11
3 4.5 11
3.5 4.5 11
4 4.5 11
4.5 4.5 11
0.5 4.5 11.5
1 4.5 11.5
1.5 4.5 11.5
2 4.5 11.5
2.5 4.5 11.5
3 4.5 11.5
3.5 4.5 11.5
4 4.5 11.5
4.5 4.5 11.5
0.5 4.5 12
1 4.5 12
1.5 4.5 12
2 4.5 12
2.5 4.5 12
3 4.5 12
3.5 4.5 12
4 4.5 12
4.5 4.5 12
0.5 4.5 12.5
1 4.5 12.5
1.5 4.5 12.5
2 4.5 12.5
2.5 4.5 12.5
3 4.5 12.5
3.5 4.5 12.5
4 4.5 12.5
4.5 4.5 12.5
0.5 4.5 13
1 4.5 13
1.5 4.5 13
2 4.5 13
2.5 4.5 13
3 4.5 13
3.5 4.5 13
4 4.5 13
4.5 4.5 13
0.5 4.5 13.5
1 4.5 13.5
1.5 4.5 13.5
2 4.5 13.5
2.5 4.5 13.5
3 4.5 13.5
3.5 4.5 13.5
4 4.5 13.5
4.5 4.5 13.5
0.5 4.5 14
1 4.5 14
1.5 4.5 14
2 4.5 14
2.5 4.5 14
3 4.5 14
3.5 4.5 14
4 4.5 14
4.5 4.5 14
0.5 4.5 14.5
1 4.5 14.5
1.5 4.5 14.5
2 4.5 14.5
2.5 4.5 14.5
3 4.5 14.5
3.5 4.5 14.5
4 4.5 14.5
4.5 4.5 14.5
0.5 4.5 15
1 4.5 15
1.5 4.5 15
2 4.5 15
2.5 4.5 15
3 4.5 15
3.5 4.5 15
4 4.5 15
4.5 4.5 15
0.5 4.5 15.5
1 4.5 15.5
1.5 4.5 15.5
2 4.5 15.5
2.5 4.5 15.5
3 4.5 15.5
3.5 4.5 15.5
4 4.5 15.5
4.5 4.5 15.5
0.5 4.5 16
1 4.5 16
1.5 4.5 16
2 4.5 16
2.5 4.5 16
3 4.5 16
3.5 4.5 16
4 4.5 16
4.5 4.5 16
0.5 4.5 16.5
1 4.5 16.5
1.5 4.5 16.5
2 4.5 16.5
2.5 4.5 16.5
3 4.5 16.5
3.5 4.5 16.5
4 4.5 16.5
4.5 4.5 16.5
0.5 4.5 17
1 4.5 17
1.5 4.5 17
2 4.5 17
2.5 4.5 17
3 4.5 17
3.5 4.5 17
4 4.5 17
4.5 4.5 17
0.5 4.5 17.5
1 4.5 17.5
1.5 4.5 17.5
2 4.5 17.5
2.5 4.5 17.5
3 4.5 17.5
3.5 4.5 17.5
4 4.5 17.5
4.5 4.5 17.5
0.5 4.5 18
1 4.5 18
1.5 4.5 18
2 4.5 18
2.5 4.5 18
3 4.5 18
3.5 4.5 18
4 4.5 18
4.5 4.5 18
0.5 4.5 18.5
1 4.5 18.5
1.5 4.5 18.5
2 4.5 18.5
2.5 4.5 18.5
3 4.5 18.5
3.5 4.5 18.5
4 4.5 18.5
4.5 4.5 18.5
0.5 4.5 19
1 4.5 19
1.5 4.5 19
2 4.5 19
2.5 4.5 19
3 4.5 19
3.5 4.5 19
4 4.5 19
4.5 4.5 19
0.5 4.5 19.5
1 4.5 19.5
1.5 4.5 19.5
2 4.5 19.5
2.5 4.5 19.5
3 4.5 19.5
3.5 4.5 19.5
4 4.5 19.5
4.5 4.5 19.5
4.5 0.5 4.5
4 0.5 4.5
3.5 0.5 4.5
3 0.5 4.5
2.5 0.5 4.5
2 0.5 4.5
1.5 0.5 4.5
1 0.5 4.5
0.5 0.5 4.5
4.5 0.5 4
4 0.5 4
3.5 0.5 4
3 0.5 4
2.5 0.5 4
2 0.5 4
1.5 0.5 4
1 0.5 4
0.5 0.5 4
4.5 0.5 3.5
4 0.5 3.5
3.5 0.5 3.5
3 0.5 3.5
2.5 0.5 3.5
2 0.5 3.5
1.5 0.5 3.5
1 0.5 3.5
0.5 0.5 3.5
4.5 0.5 3
4 0.5 3
3.5 0.5 3
3 0.5 3
2.5 0.5 3
2 0.5 3
1.5 0.5 3
1 0.5 3
0.5 0.5 3
4.5 0.5 2.5
4 0.5 2.5
3.5 0.5 2.5
3 0.5 2.5
2.5 0.5 2.5
2 0.5 2.5
1.5 0.5 2.5
1 0.5 2.5
0.5 0.5 2.5
4.5 0.5 2
4 0.5 2
3.5 0.5 2
3 0.5 2
2.5 0.5 2
2 0.5 2
1.5 0.5 2
1 0.5 2
0.5 0.5 2
4.5 0.5 1.5
4 0.5 1.5
3.5 0.5 1.5
3 0.5 1.5
2.5 0.5 1.5
2 0.5 1.5
1.5 0.5 1.5
1 0.5 1.5
0.5 0.5 1.5
4.5 0.5 1
4 0.5 1
3.5 0.5 1
3 0.5 1
2.5 0.5 1
2 0.5 1
1.5 0.5 1
1 0.5 1
0.5 0.5 1
4.5 0.5 0.5
4 0.5 0.5
3.5 0.5 0.5
3 0.5 0.5
2.5 0.5 0.5
2 0.5 0.5
1.5 0.5 0.5
1 0.5 0.5
0.5 0.5 0.5
4.5 1 4.5
4 1 4.5
3.5 1 4.5
3 1 4.5
2.5 1 4.5
2 1 4.5
1.5 1 4.5
1 1 4.5
0.5 1 4.5
4.5 1 4
4 1 4
3.5 1 4
3 1 4
2.5 1 4
2 1 4
1.5 1 4
1 1 4
0.5 1 4
4.5 1 3.5
4 1 3.5
3.5 1 3.5
3 1 3.5
2.5 1 3.5
2 1 3.5
1.5 1 3.5
1 1 3.5
0.5 1 3.5
4.5 1 3
4 1 3
3.5 1 3
3 1 3
2.5 1 3
2 1 3
1.5 1 3
1 1 3
0.5 1 3
4.5 1 2.5
4 1 2.5
3.5 1 2.5
3 1 2.5
2.5 1 2.5
2 1 2.5
1.5 1 2.5
1 1 2.5
0.5 1 2.5
4.5 1 2
4 1 2
3.5 1 2
3 1 2
2.5 1 2
2 1 2
1.5 1 2
1 1 2
0.5 1 2
4.5 1 1.5
4 1 1.5
3.5 1 1.5
3 1 1.5
2.5 1 1.5
2 1 1.5
1.5 1 1.5
1 1 1.5
0.5 1 1.5
4.5 1 1
4 1 1
3.5 1 1
3 1 1
2.5 1 1
2 1 1
1.5 1 1
1 1 1
0.5 1 1
4.5 1 0.5
4 1 0.5
3.5 1 0.5
3 1 0.5
2.5 1 0.5
2 1 0.5
1.5 1 0.5
1 1 0.5
0.5 1 0.5
4.5 1.5 4.5
4 1.5 4.5
3.5 1.5 4.5
3 1.5 4.5
2.5 1.5 4.5
2 1.5 4.5
1.5 1.5 4.5
1 1.5 4.5
0.5 1.5 4.5
4.5 1.5 4
4 1.5 4
3.5 1.5 4
3 1.5 4
2.5 1.5 4
2 1.5 4
1.5 1.5 4
1 1.5 4
0.5 1.5 4
4.5 1.5 3.5
4 1.5 3.5
3.5 1.5 3.5
3 1.5 3.5
2.5 1.5 3.5
2 1.5 3.5
1.5 1.5 3.5
1 1.5 3.5
0.5 1.5 3.5
4.5 1.5 3
4 1.5 3
3.5 1.5 3
3 1.5 3
2.5 1.5 3
2 1.5 3
1.5 1.5 3
1 1.5 3
0.5 1.5 3
4.5 1.5 2.5
4 1.5 2.5
3.5 1.5 2.5
3 1.5 2.5
2.5 1.5 2.5
2 1.5 2.5
1.5 1.5 2.5
1 1.5 2.5
0.5 1.5 2.5
4.5 1.5 2
4 1.5 2
3.5 1.5 2
3 1.5 2
2.5 1.5 2
2 1.5 2
1.5 1.5 2
1 1.5 2
0.5 1.5 2
4.5 1.5 1.5
4 1.5 1.5
3.5 1.5 1.5
3 1.5 1.5
2.5 1.5 1.5
2 1.5 1.5
1.5 1.5 1.5
1 1.5 1.5
0.5 1.5 1.5
4.5 1.5 1
4 1.5 1
3.5 1.5 1
3 1.5 1
2.5 1.5 1
2 1.5 1
1.5 1.5 1
1 1.5 1
0.5 1.5 1
4.5 1.5 0.5
4 1.5 0.5
3.5 1.5 0.5
3 1.5 0.5
2.5 1.5 0.5
2 1.5 0.5
1.5 1.5 0.5
1 1.5 0.5
0.5 1.5 0.5
4.5 2 4.5
4 2 4.5
3.5 2 4.5
3 2 4.5
2.5 2 4.5
2 2 4.5
1.5 2 4.5
1 2 4.5
0.5 2 4.5
4.5 2 4
4 2 4
3.5 2 4
3 2 4
2.5 2 4
2 2 4
1.5 2 4
1 2 4
0.5 2 4
4.5 2 3.5
4 2 3.5
3.5 2 3.5
3 2 3.5
2.5 2 3.5
2 2 3.5
1.5 2 3.5
1 2 3.5
0.5 2 3.5
4.5 2 3
4 2 3
3.5 2 3
3 2 3
2.5 2 3
2 2 3
1.5 2 3
1 2 3
0.5 2 3
4.5 2 2.5
4 2 2.5
3.5 2 2.5
3 2 2.5
2.5 2 2.5
2 2 2.5
1.5 2 2.5
1 2 2.5
0.5 2 2.5
4.5 2 2
4 2 2
3.5 2 2
3 2 2
2.5 2 2
2 2 2
1.5 2 2
1 2 2
0.5 2 2
4.5 2 1.5
4 2 1.5
3.5 2 1.5
3 2 1.5
2.5 2 1.5
2 2 1.5
1.5 2 1.5
1 2 1.5
0.5 2 1.5
4.5 2 1
4 2 1
3.5 2 1
3 2 1
2.5 2 1
2 2 1
1.5 2 1
1 2 1
0.5 2 1
4.5 2 0.5
4 2 0.5
3.5 2 0.5
3 2 0.5
2.5 2 0.5
2 2 0.5
1.5 2 0.5
1 2 0.5
0.5 2 0.5
4.5 2.5 4.5
4 2.5 4.5
3.5 2.5 4.5
3 2.5 4.5
2.5 2.5 4.5
2 2.5 4.5
1.5 2.5 4.5
1 2.5 4.5
0.5 2.5 4.5
4.5 2.5 4
4 2.5 4
3.5 2.5 4
3 2.5 4
2.5 2.5 4
2 2.5 4
1.5 2.5 4
1 2.5 4
0.5 2.5 4
4.5 2.5 3.5
4 2.5 3.5
3.5 2.5 3.5
3 2.5 3.5
2.5 2.5 3.5
2 2.5 3.5
1.5 2.5 3.5
1 2.5 3.5
0.5 2.5 3.5
4.5 2.5 3
4 2.5 3
3.5 2.5 3
3 2.5 3
2.5 2.5 3
2 2.5 3
1.5 2.5 3
1 2.5 3
0.5 2.5 3
4.5 2.5 2.5
4 2.5 2.5
3.5 2.5 2.5
3 2.5 2.5
2.5 2.5 2.5
2 2.5 2.5
1.5 2.5 2.5
1 2.5 2.5
0.5 2.5 2.5
4.5 2.5 2
4 2.5 2
3.5 2.5 2
3 2.5 2
2.5 2.5 2
2 2.5 2
1.5 2.5 2
1 2.5 2
0.5 2.5 2
4.5 2.5 1.5
4 2.5 1.5
3.5 2.5 1.5
3 2.5 1.5
2.5 2.5 1.5
2 2.5 1.5
1.5 2.5 1.5
1 2.5 1.5
0.5 2.5 1.5
4.5 2.5 1
4 2.5 1
3.5 2.5 1
3 2.5 1
2.5 2.5 1
2 2.5 1
1.5 2.5 1
1 2.5 1
0.5 2.5 1
4.5 2.5 0.5
4 2.5 0.5
3.5 2.5 0.5
3 2.5 0.5
2.5 2.5 0.5
2 2.5 0.5
1.5 2.5 0.5
1 2.5 0.5
0.5 2.5 0.5
4.5 3 4.5
4 3 4.5
3.5 3 4.5
3 3 4.5
2.5 3 4.5
2 3 4.5
1.5 3 4.5
1 3 4.5
0.5 3 4.5
4.5 3 4
4 3 4
3.5 3 4
3 3 4
2.5 3 4
2 3 4
1.5 3 4
1 3 4
0.5 3 4
4.5 3 3.5
4 3 3.5
3.5 3 3.5
3 3 3.5
2.5 3 3.5
2 3 3.5
1.5 3 3.5
1 3 3.5
0.5 3 3.5
4.5 3 3
4 3 3
3.5 3 3
3 3 3
2.5 3 3
2 3 3
1.5 3 3
1 3 3
0.5 3 3
4.5 3 2.5
4 3 2.5
3.5 3 2.5
3 3 2.5
2.5 3 2.5
2 3 2.5
1.5 3 2.5
1 3 2.5
0.5 3 2.5
4.5 3 2
4 3 2
3.5 3 2
3 3 2
2.5 3 2
2 3 2
1.5 3 2
1 3 2
0.5 3 2
4.5 3 1.5
4 3 1.5
3.5 3 1.5
3 3 1.5
2.5 3 1.5
2 3 1.5
1.5 3 1.5
1 3 1.5
0.5 3 1.5
4.5 3 1
4 3 1
3.5 3 1
3 3 1
2.5 3 1
2 3 1
1.5 3 1
1 3 1
0.5 3 1
4.5 3 0.5
4 3 0.5
3.5 3 0.5
3 3 0.5
2.5 3 0.5
2 3 0.5
1.5 3 0.5
1 3 0.5
0.5 3 0.5
4.5 3.5 4.5
4 3.5 4.5
3.5 3.5 4.5
3 3.5 4.5
2.5 3.5 4.5
2 3.5 4.5
1.5 3.5 4.5
1 3.5 4.5
0.5 3.5 4.5
4.5 3.5 4
4 3.5 4
3.5 3.5 4
3 3.5 4
2.5 3.5 4
2 3.5 4
1.5 3.5 4
1 3.5 4
0.5 3.5 4
4.5 3.5 3.5
4 3.5 3.5
3.5 3.5 3.5
3 3.5 3.5
2.5 3.5 3.5
2 3.5 3.5
1.5 3.5 3.5
1 3.5 3.5
0.5 3.5 3.5
4.5 3.5 3
4 3.5 3
3.5 3.5 3
3 3.5 3
2.5 3.5 3
2 3.5 3
1.5 3.5 3
1 3.5 3
0.5 3.5 3
4.5 3.5 2.5
4 3.5 2.5
3.5 3.5 2.5
3 3.5 2.5
2.5 3.5 2.5
2 3.5 2.5
1.5 3.5 2.5
1 3.5 2.5
0.5 3.5 2.5
4.5 3.5 2
4 3.5 2
3.5 3.5 2
3 3.5 2
2.5 3.5 2
2 3.5 2
1.5 3.5 2
1 3.5 2
0.5 3.5 2
4.5 3.5 1.5
4 3.5 1.5
3.5 3.5 1.5
3 3.5 1.5
2.5 3.5 1.5
2 3.5 1.5
1.5 3.5 1.5
1 3.5 1.5
0.5 3.5 1.5
4.5 3.5 1
4 3.5 1
3.5 3.5 1
3 3.5 1
2.5 3.5 1
2 3.5 1
1.5 3.5 1
1 3.5 1
0.5 3.5 1
4.5 3.5 0.5
4 3.5 0.5
3.5 3.5 0.5
3 3.5 0.5
2.5 3.5 0.5
2 3.5 0.5
1.5 3.5 0.5
1 3.5 0.5
0.5 3.5 0.5
4.5 4 4.5
4 4 4.5
3.5 4 4.5
3 4 4.5
2.5 4 4.5
2 4 4.5
1.5 4 4.5
1 4 4.5
0.5 4 4.5
4.5 4 4
4 4 4
3.5 4 4
3 4 4
2.5 4 4
2 4 4
1.5 4 4
1 4 4
0.5 4 4
4.5 4 3.5
4 4 3.5
3.5 4 3.5
3 4 3.5
2.5 4 3.5
2 4 3.5
1.5 4 3.5
1 4 3.5
0.5 4 3.5
4.5 4 3
4 4 3
3.5 4 3
3 4 3
2.5 4 3
2 4 3
1.5 4 3
1 4 3
0.5 4 3
4.5 4 2.5
4 4 2.5
3.5 4 2.5
3 4 2.5
2.5 4 2.5
2 4 2.5
1.5 4 2.5
1 4 2.5
0.5 4 2.5
4.5 4 2
4 4 2
3.5 4 2
3 4 2
2.5 4 2
2 4 2
1.5 4 2
1 4 2
0.5 4 2
4.5 4 1.5
4 4 1.5
3.5 4 1.5
3 4 1.5
2.5 4 1.5
2 4 1.5
1.5 4 1.5
1 4 1.5
0.5 4 1.5
4.5 4 1
4 4 1
3.5 4 1
3 4 1
2.5 4 1
2 4 1
1.5 4 1
1 4 1
0.5 4 1
4.5 4 0.5
4 4 0.5
3.5 4 0.5
3 4 0.5
2.5 4 0.5
2 4 0.5
1.5 4 0.5
1 4 0.5
0.5 4 0.5
4.5 4.5 4.5
4 4.5 4.5
3.5 4.5 4.5
3 4.5 4.5
2.5 4.5 4.5
2 4.5 4.5
1.5 4.5 4.5
1 4.5 4.5
0.5 4.5 4.5
4.5 4.5 4
4 4.5 4
3.5 4.5 4
3 4.5 4
2.5 4.5 4
2 4.5 4
1.5 4.5 4
1 4.5 4
0.5 4.5 4
4.5 4.5 3.5
4 4.5 3.5
3.5 4.5 3.5
3 4.5 3.5
2.5 4.5 3.5
2 4.5 3.5
1.5 4.5 3.5
1 4.5 3.5
0.5 4.5 3.5
4.5 4.5 3
4 4.5 3
3.5 4.5 3
3 4.5 3
2.5 4.5 3
2 4.5 3
1.5 4.5 3
1 4.5 3
0.5 4.5 3
4.5 4.5 2.5
4 4.5 2.5
3.5 4.5 2.5
3 4.5 2.5
2.5 4.5 2.5
2 4.5 2.5
1.5 4.5 2.5
1 4.5 2.5
0.5 4.5 2.5
4.5 4.5 2
4 4.5 2
3.5 4.5 2
3 4.5 2
2.5 4.5 2
2 4.5 2
1.5 4.5 2
1 4.5 2
0.5 4.5 2
4.5 4.5 1.5
4 4.5 1.5
3.5 4.5 1.5
3 4.5 1.5
2.5 4.5 1.5
2 4.5 1.5
1.5 4.5 1.5
1 4.5 1.5
0.5 4.5 1.5
4.5 4.5 1
4 4.5 1
3.5 4.5 1
3 4.5 1
2.5 4.5 1
2 4.5 1
1.5 4.5 1
1 4.5 1
0.5 4.5 1
4.5 4.5 0.5
4 4.5 0.5
3.5 4.5 0.5
3 4.5 0.5
2.5 4.5 0.5
2 4.5 0.5
1.5 4.5 0.5
1 4.5 0.5
0.5 4.5 0.5
</DataArray>
</Points>
</Piece>
</UnstructuredGrid>
</VTKFile>
