<?xml version="1.0"?>
<VTKFile type="UnstructuredGrid" version="0.1" byte_order="LittleEndian" >
<UnstructuredGrid>
<Piece NumberOfPoints="12" NumberOfCells="2" >
<PointData Tensors="Vector" >
<DataArray type="Float64" Name="displacement" NumberOfComponents="3" format="ascii" >
-6.05525E-13 -1.8371E-12 -4.9714E-12
0.00427768 -6.26054E-13 -4.88123E-12
6.05525E-13 -0.003235 4.9714E-12
-0.00298721 -0.000241187 4.88123E-12
0.000412232 -0.0659604 -0.0259299
0.00228533 -0.198308 -0.0345892
0.00341567 -0.0627407 -0.0261826
0.00357338 -0.19604 -0.0351599
0.00147397 -0.064845 0.0269778
0.000236599 -0.200216 0.0361544
-0.00221995 -0.0623799 0.0263347
0.00023902 -0.197608 0.0359947
</DataArray>
<DataArray type="Float64" Name="Stress" NumberOfComponents="6" format="ascii" >
-136.96 -351.24 -666.39 5.1577 -502.6 3.4253
-90.179 -237.35 -625.55 -104.6 -485.7 -5.9076
87.59 92.495 590.38 39.038 -477.81 11.352
131.85 204.25 624.59 -70.874 -475.57 4.5053
-20.122 -69.957 -364.09 58.031 52.721 1.5786
-20.387 -119.09 -196.57 13.815 71.055 2.1841
-28.379 -85.643 -375 -37.094 54.978 -5.961
-19.324 -114.56 -197.76 -23.448 69.281 -2.7092
55.452 196.13 447.31 54.231 53.086 -5.4913
56.941 33.43 232.26 15.711 47.815 -9.21
48.634 181.99 439.15 -41.147 49.739 0.24094
63.176 43.046 243.15 -21.905 50.777 9.9118
</DataArray>
</PointData>
<Cells>
<DataArray type="UInt32" Name="connectivity" NumberOfComponents="1" format="ascii" >
4 6 10 8 5 7 11 9 
0 1 3 2 4 6 10 8 
</DataArray>
<DataArray type="UInt32" Name="offsets" NumberOfComponents="1" format="ascii" >
8
16
</DataArray>
<DataArray type="UInt8" Name="types" NumberOfComponents="1" format="ascii" >
12
12
</DataArray>
</Cells>
<Points>
<DataArray type="Float64" Name="coordinates" NumberOfComponents="3" format="ascii" >
0 0 0
5 0 0
0 5 0
5 5 0
0 0 10
0 0 20
5 0 10
5 0 20
0 5 10
0 5 20
5 5 10
5 5 20
</DataArray>
</Points>
</Piece>
</UnstructuredGrid>
</VTKFile>
