<?xml version="1.0"?>
<VTKFile type="UnstructuredGrid" version="0.1" byte_order="LittleEndian" >
<UnstructuredGrid>
<Piece NumberOfPoints="4961" NumberOfCells="4000" >
<PointData Tensors="Vector" >
<DataArray type="Float64" Name="displacement" NumberOfComponents="3" format="ascii" >
0.000206115999697237 -0.0329802000009186 -0.0129649500024857
0.003846675 -0.031370350000313 -0.0130913000024406
0.00357338 -0.19604 -0.0351599
0.00228533 -0.198308 -0.0345892
-0.00260358 -0.0313105435 0.0131673500024406
0.00023902 -0.197608 0.0359947
0.000236599 -0.200216 0.0361544
0.000736985000302762 -0.03404 0.0134889000024857
-6.05525E-13 -1.8371E-12 -4.9714E-12
0.00427768 -6.26054E-13 -4.88123E-12
6.05525E-13 -0.003235 4.9714E-12
-0.00298721 -0.000241187 4.88123E-12
0.000570171899727514 -0.032819215000858 -0.0129775850024812
0.00093422779975779 -0.0326582300007974 -0.0129902200024767
0.00129828369978807 -0.0324972450007369 -0.0130028550024722
0.00166233959981834 -0.0323362600006763 -0.0130154900024677
0.00202639549984862 -0.0321752750006158 -0.0130281250024632
0.00239045139987889 -0.0320142900005552 -0.0130407600024586
0.00275450729990917 -0.0318533050004947 -0.0130533950024541
0.00311856319993945 -0.0316923200004341 -0.0130660300024496
0.00348261909996972 -0.0315313350003736 -0.0130786650024451
0.0038035745 -0.0345073850002817 -0.0144004300021966
0.003760474 -0.0376444200002504 -0.0157095600019525
0.0037173735 -0.0407814550002191 -0.0170186900017084
0.003674273 -0.0439184900001878 -0.0183278200014644
0.0036311725 -0.0470555250001565 -0.0196369500012203
0.003588072 -0.0501925600001252 -0.0209460800009762
0.0035449715 -0.0533295950000939 -0.0222552100007322
0.003501871 -0.0564666300000626 -0.0235643400004881
0.0034587705 -0.0596036650000313 -0.0248734700002441
0.00341567 -0.0627407 -0.0261826
0.0034235555 -0.069405665 -0.026631465
0.003431441 -0.07607063 -0.02708033
0.0034393265 -0.082735595 -0.027529195
0.003447212 -0.08940056 -0.02797806
0.0034550975 -0.096065525 -0.028426925
0.003462983 -0.10273049 -0.02887579
0.0034708685 -0.109395455 -0.029324655
0.003478754 -0.11606042 -0.02977352
0.0034866395 -0.122725385 -0.030222385
0.003494525 -0.12939035 -0.03067125
0.0035024105 -0.136055315 -0.031120115
0.003510296 -0.14272028 -0.03156898
0.0035181815 -0.149385245 -0.032017845
0.003526067 -0.15605021 -0.03246671
0.0035339525 -0.162715175 -0.032915575
0.003541838 -0.16938014 -0.03336444
0.0035497235 -0.176045105 -0.033813305
0.003557609 -0.18271007 -0.03426217
0.0035654945 -0.189375035 -0.034711035
0.003444575 -0.1962668 -0.03510283
0.00331577 -0.1964936 -0.03504576
0.003186965 -0.1967204 -0.03498869
0.00305816 -0.1969472 -0.03493162
0.002929355 -0.197174 -0.03487455
0.00280055 -0.1974008 -0.03481748
0.002671745 -0.1976276 -0.03476041
0.00254294 -0.1978544 -0.03470334
0.002414135 -0.1980812 -0.03464627
0.0021916751 -0.19169062 -0.034156235
0.0020980202 -0.18507324 -0.03372327
0.0020043653 -0.17845586 -0.033290305
0.0019107104 -0.17183848 -0.03285734
0.0018170555 -0.1652211 -0.032424375
0.0017234006 -0.15860372 -0.03199141
0.0016297457 -0.15198634 -0.031558445
0.0015360908 -0.14536896 -0.03112548
0.0014424359 -0.13875158 -0.030692515
0.001348781 -0.1321342 -0.03025955
0.0012551261 -0.12551682 -0.029826585
0.0011614712 -0.11889944 -0.02939362
0.0010678163 -0.11228206 -0.028960655
0.0009741614 -0.10566468 -0.02852769
0.0008805065 -0.0990473 -0.028094725
0.0007868516 -0.09242992 -0.02766176
0.0006931967 -0.08581254 -0.027228795
0.0005995418 -0.07919516 -0.02679583
0.0005058869 -0.07257778 -0.026362865
0.000412232 -0.0659604 -0.0259299
0.000391620399969724 -0.0626623800000919 -0.0246334050002486
0.000371008799939448 -0.0593643600001837 -0.0233369100004971
0.000350397199909171 -0.0560663400002756 -0.0220404150007457
0.000329785599878895 -0.0527683200003674 -0.0207439200009943
0.000309173999848619 -0.0494703000004593 -0.0194474250012429
0.000288562399818342 -0.0461722800005511 -0.0181509300014914
0.000267950799788066 -0.042874260000643 -0.01685443500174
0.00024733919975779 -0.0395762400007348 -0.0155579400019886
0.000226727599727514 -0.0362782200008267 -0.0142614450022371
-0.00226952349996972 -0.03158348915 0.0131995050024451
-0.00193546699993945 -0.0318564348 0.0132316600024496
-0.00160141049990917 -0.03212938045 0.0132638150024541
-0.00126735399987889 -0.0324023261 0.0132959700024586
-0.000933297499848619 -0.03267527175 0.0133281250024632
-0.000599240999818343 -0.0329482174 0.0133602800024677
-0.000265184499788066 -0.03322116305 0.0133924350024722
6.887200024221E-5 -0.0334941087 0.0134245900024767
0.000402928500272486 -0.03376705435 0.0134567450024812
0.0001160715 -0.190846595 0.0355117
-6.87699999999995E-6 -0.18408519 0.0350287
-0.0001298255 -0.177323785 0.0345457
-0.000252774 -0.17056238 0.0340627
-0.0003757225 -0.163800975 0.0335797
-0.000498671 -0.15703957 0.0330967
-0.0006216195 -0.150278165 0.0326137
-0.000744568 -0.14351676 0.0321307
-0.0008675165 -0.136755355 0.0316477
-0.000990465 -0.12999395 0.0311647
-0.0011134135 -0.123232545 0.0306817
-0.001236362 -0.11647114 0.0301987
-0.0013593105 -0.109709735 0.0297157
-0.001482259 -0.10294833 0.0292327
-0.0016052075 -0.096186925 0.0287497
-0.001728156 -0.08942552 0.0282667
-0.0018511045 -0.082664115 0.0277837
-0.001974053 -0.07590271 0.0273007
-0.0020970015 -0.069141305 0.0268177
-0.00221995 -0.0623799 0.0263347
-0.002258313 -0.05927296435 0.0250179650002441
-0.002296676 -0.0561660287 0.0237012300004881
-0.002335039 -0.05305909305 0.0223844950007322
-0.002373402 -0.0499521574 0.0210677600009762
-0.002411765 -0.04684522175 0.0197510250012203
-0.002450128 -0.0437382861 0.0184342900014644
-0.002488491 -0.04063135045 0.0171175550017084
-0.002526854 -0.0375244148 0.0158008200019525
-0.002565217 -0.03441747915 0.0144840850021966
0.0002368411 -0.1999552 0.03613843
0.0002370832 -0.1996944 0.03612246
0.0002373253 -0.1994336 0.03610649
0.0002375674 -0.1991728 0.03609052
0.0002378095 -0.198912 0.03607455
0.0002380516 -0.1986512 0.03605858
0.0002382937 -0.1983904 0.03604261
0.0002385358 -0.1981296 0.03602664
0.0002387779 -0.1978688 0.03601067
0.000810683500272486 -0.0371205 0.0148377900022371
0.00088438200024221 -0.040201 0.0161866800019886
0.000958080500211934 -0.0432815 0.01753557000174
0.00103177900018166 -0.046362 0.0188844600014914
0.00110547750015138 -0.0494425 0.0202333500012429
0.00117917600012111 -0.052523 0.0215822400009943
0.00125287450009083 -0.0556035 0.0229311300007457
0.00132657300006055 -0.058684 0.0242800200004971
0.00140027150003028 -0.0617645 0.0256289100002486
0.00147397 -0.064845 0.0269778
0.00141210145 -0.07161355 0.02743663
0.0013502329 -0.0783821 0.02789546
0.00128836435 -0.08515065 0.02835429
0.0012264958 -0.0919192 0.02881312
0.00116462725 -0.09868775 0.02927195
0.0011027587 -0.1054563 0.02973078
0.00104089015 -0.11222485 0.03018961
0.0009790216 -0.1189934 0.03064844
0.00091715305 -0.12576195 0.03110727
0.0008552845 -0.1325305 0.0315661
0.00079341595 -0.13929905 0.03202493
0.0007315474 -0.1460676 0.03248376
0.00066967885 -0.15283615 0.03294259
0.0006078103 -0.1596047 0.03340142
0.00054594175 -0.16637325 0.03386025
0.0004840732 -0.1731418 0.03431908
0.00042220465 -0.17991035 0.03477791
0.0003603361 -0.1866789 0.03523674
0.00029846755 -0.19344745 0.03569557
0.0020804569 -0.1984988 -0.02751484
0.0018755838 -0.1986896 -0.02044048
0.0016707107 -0.1988804 -0.01336612
0.0014658376 -0.1990712 -0.00629176
0.0012609645 -0.199262 0.000782600000000001
0.0010560914 -0.1994528 0.00785696
0.0008512183 -0.1996436 0.01493132
0.0006463452 -0.1998344 0.02200568
0.0004414721 -0.2000252 0.02908004
0.00068389810024221 -0.0339340200000919 0.0108435150019886
0.000630811200181657 -0.0338280400001837 0.00819813000149142
0.000577724300121105 -0.0337220600002756 0.00555274500099428
0.000524637400060553 -0.0336160800003674 0.00290736000049714
0.0004715505 -0.0335101000004593 0.000261975
0.000418463599939448 -0.0334041200005511 -0.00238341000049714
0.000365376699878895 -0.033298140000643 -0.00502879500099428
0.000312289799818343 -0.0331921600007348 -0.00767418000149142
0.00025920289975779 -0.0330861800008267 -0.0103195650019886
0.000572456 -0.1974512 0.02887924
0.000905892 -0.1972944 0.02176378
0.001239328 -0.1971376 0.01464832
0.001572764 -0.1969808 0.00753286
0.0019062 -0.196824 0.000417399999999998
0.002239636 -0.1966672 -0.00669806
0.002573072 -0.1965104 -0.01381352
0.002906508 -0.1963536 -0.02092898
0.003239944 -0.1961968 -0.02804444
0.0032016495 -0.0313643693502817 -0.0104654350019525
0.002556624 -0.0313583887002504 -0.00783957000146437
0.0019115985 -0.0313524080502191 -0.00521370500097625
0.001266573 -0.0313464274001878 -0.00258784000048812
0.0006215475 -0.0313404467501565 3.80249999999997E-5
-2.34779999999999E-5 -0.0313344661001252 0.00266389000048812
-0.0006685035 -0.0313284854500939 0.00528975500097625
-0.001313529 -0.0313225048000626 0.00791562000146437
-0.0019585545 -0.0313165241500313 0.0105414850019525
0.000185504399666961 -0.0296821800010104 -0.0116684550027343
0.000164892799636685 -0.0263841600011023 -0.0103719600029828
0.000144281199606409 -0.0230861400011941 -0.00907546500323141
0.000123669599576133 -0.019788120001286 -0.00777897000347998
0.000103057999545856 -0.0164901000013778 -0.00648247500372855
8.244639951558E-5 -0.0131920800014697 -0.00518598000397712
6.18347994853038E-5 -0.00989406000156154 -0.00388948500422569
4.12231994550275E-5 -0.00659604000165339 -0.00259299000447426
2.06115994247512E-5 -0.00329802000174524 -0.00129649500472283
0.000427767999455027 -1.7159954E-12 -4.962383E-12
0.00085553599951558 -1.5948908E-12 -4.953366E-12
0.00128330399957613 -1.4737862E-12 -4.944349E-12
0.00171107199963669 -1.3526816E-12 -4.935332E-12
0.00213883999969724 -1.231577E-12 -4.926315E-12
0.00256660799975779 -1.1104724E-12 -4.917298E-12
0.00299437599981834 -9.893678E-13 -4.908281E-12
0.0034221439998789 -8.682632E-13 -4.899264E-12
0.00384991199993945 -7.471586E-13 -4.890247E-12
0.0042345795 -0.00313703500059475 -0.00130913000463717
0.004191479 -0.00627407000056345 -0.00261826000439311
0.0041483785 -0.00941110500053215 -0.00392739000414905
0.004105278 -0.0125481400005008 -0.00523652000390498
0.0040621775 -0.0156851750004695 -0.00654565000366092
0.004019077 -0.0188222100004382 -0.00785478000341686
0.0039759765 -0.0219592450004069 -0.0091639100031728
0.003932876 -0.0250962800003756 -0.0104730400029287
0.0038897755 -0.0282333150003443 -0.0117821700026847
7.36985005752487E-5 -0.0063155 0.00134889000472283
0.000147397000544972 -0.009396 0.00269778000447426
0.000221095500514696 -0.0124765 0.00404667000422569
0.00029479400048442 -0.015557 0.00539556000397712
0.000368492500454144 -0.0186375 0.00674445000372855
0.000442191000423867 -0.021718 0.00809334000347998
0.000515889500393591 -0.0247985 0.00944223000323141
0.000589588000363315 -0.027879 0.0107911200029828
0.000663286500333039 -0.0309595 0.0121400100027343
-0.00268848899993945 -0.0005405683 4.890247E-12
-0.0023897679998789 -0.0008399496 4.899264E-12
-0.00209104699981834 -0.0011393309 4.908281E-12
-0.00179232599975779 -0.0014387122 4.917298E-12
-0.00149360499969724 -0.0017380935 4.926315E-12
-0.00119488399963669 -0.0020374748 4.935332E-12
-0.000896162999576133 -0.0023368561 4.944349E-12
-0.00059744199951558 -0.0026362374 4.953366E-12
-0.000298720999455027 -0.0029356187 4.962383E-12
-0.002641943 -0.02820360785 0.0118506150026847
-0.002680306 -0.0250966722 0.0105338800029287
-0.002718669 -0.02198973655 0.0092171450031728
-0.002757032 -0.0188828009 0.00790041000341686
-0.002795395 -0.01577586525 0.00658367500366092
-0.002833758 -0.0126689296 0.00526694000390498
-0.002872121 -0.00956199395 0.00395020500414905
-0.002910484 -0.0064550583 0.00263347000439311
-0.002948847 -0.00334812265 0.00131673500463717
0.003551191 -2.41187005634486E-5 -3.904984E-12
0.002824702 -4.82374005008432E-5 -2.928738E-12
0.002098213 -7.23561004382378E-5 -1.952492E-12
0.001371724 -9.64748003756324E-5 -9.76246E-13
0.000645235 -0.000120593500313027 0
-8.1254E-5 -0.000144712200250422 9.76246E-13
-0.000807743 -0.000168830900187816 1.952492E-12
-0.001534232 -0.000192949600125211 2.928738E-12
-0.002260721 -0.000217068300062605 3.904984E-12
4.8442E-13 -0.00291150000018371 3.97712E-12
3.63315E-13 -0.00258800000036742 2.98284E-12
2.4221E-13 -0.00226450000055113 1.98856E-12
1.21105E-13 -0.00194100000073484 9.9428E-13
0 -0.00161750000091855 0
-1.21105E-13 -0.00129400000110226 -9.9428E-13
-2.4221E-13 -0.00097050000128597 -1.98856E-12
-3.63315E-13 -0.00064700000146968 -2.98284E-12
-4.8442E-13 -0.00032350000165339 -3.97712E-12
0.000584412289754762 -0.0361011365007722 -0.0142753435022331
0.000942096979782011 -0.0359240530007177 -0.014289242002229
0.00129978166980926 -0.0357469695006632 -0.014303140502225
0.00165746635983651 -0.0355698860006087 -0.0143170390022209
0.00201515104986376 -0.0353928025005542 -0.0143309375022168
0.00237283573989101 -0.0352157190004997 -0.0143448360022128
0.00273052042991825 -0.0350386355004452 -0.0143587345022087
0.0030882051199455 -0.0348615520003907 -0.0143726330022047
0.00344588980997275 -0.0346844685003362 -0.0143865315022006
0.000598652679782011 -0.0393830580006864 -0.015573102001985
0.000949966159806232 -0.039189876000638 -0.0155882640019813
0.00130127963983045 -0.0389966940005895 -0.0156034260019777
0.00165259311985467 -0.0388035120005411 -0.0156185880019741
0.0020039065998789 -0.0386103300004926 -0.0156337500019705
0.00235522007990312 -0.0384171480004442 -0.0156489120019669
0.00270653355992734 -0.0382239660003957 -0.0156640740019633
0.00305784703995156 -0.0380307840003473 -0.0156792360019597
0.00340916051997578 -0.0378376020002989 -0.0156943980019561
0.000612893069809259 -0.0426649795006006 -0.0168708605017368
0.000957835339830453 -0.0424556990005582 -0.0168872860017337
0.00130277760985165 -0.0422464185005158 -0.0169037115017305
0.00164771987987284 -0.0420371380004734 -0.0169201370017274
0.00199266214989403 -0.0418278575004311 -0.0169365625017242
0.00233760441991523 -0.0416185770003887 -0.0169529880017211
0.00268254668993642 -0.0414092965003463 -0.0169694135017179
0.00302748895995761 -0.0412000160003039 -0.0169858390017147
0.00337243122997881 -0.0409907355002615 -0.0170022645017116
0.000627133459836508 -0.0459469010005148 -0.0181686190014887
0.000965704519854674 -0.0457215220004785 -0.018186308001486
0.00130427557987284 -0.0454961430004421 -0.0182039970014833
0.00164284663989101 -0.0452707640004058 -0.0182216860014806
0.00198141769990917 -0.0450453850003695 -0.0182393750014779
0.00231998875992734 -0.0448200060003331 -0.0182570640014752
0.0026585598199455 -0.0445946270002968 -0.0182747530014725
0.00299713087996367 -0.0443692480002605 -0.0182924420014698
0.00333570193998183 -0.0441438690002241 -0.0183101310014671
0.000641373849863757 -0.049228822500429 -0.0194663775012406
0.000973573699878895 -0.0489873450003987 -0.0194853300012383
0.00130577354989403 -0.0487458675003684 -0.0195042825012361
0.00163797339990917 -0.0485043900003382 -0.0195232350012338
0.00197017324992431 -0.0482629125003079 -0.0195421875012316
0.00230237309993945 -0.0480214350002776 -0.0195611400012293
0.00263457294995459 -0.0477799575002473 -0.0195800925012271
0.00296677279996972 -0.0475384800002171 -0.0195990450012248
0.00329897264998486 -0.0472970025001868 -0.0196179975012226
0.000655614239891005 -0.0525107440003432 -0.0207641360009925
0.000981442879903116 -0.052253168000319 -0.0207843520009907
0.00130727151991523 -0.0519955920002948 -0.0208045680009889
0.00163310015992734 -0.0517380160002705 -0.0208247840009871
0.00195892879993945 -0.0514804400002463 -0.0208450000009853
0.00228475743995156 -0.0512228640002221 -0.0208652160009835
0.00261058607996367 -0.0509652880001979 -0.0208854320009817
0.00293641471997578 -0.0507077120001737 -0.0209056480009799
0.00326224335998789 -0.0504501360001494 -0.020925864000978
0.000669854629918254 -0.0557926655002574 -0.0220618945007444
0.000989312059927337 -0.0555189910002392 -0.022083374000743
0.00130876948993642 -0.0552453165002211 -0.0221048535007417
0.0016282269199455 -0.0549716420002029 -0.0221263330007403
0.00194768434995459 -0.0546979675001847 -0.0221478125007389
0.00226714177996367 -0.0544242930001666 -0.0221692920007376
0.00258659920997275 -0.0541506185001484 -0.0221907715007362
0.00290605663998183 -0.0538769440001302 -0.0222122510007349
0.00322551406999092 -0.0536032695001121 -0.0222337305007335
0.000684095019945503 -0.0590745870001716 -0.0233596530004962
0.000997181239951558 -0.0587848140001595 -0.0233823960004953
0.00131026745995761 -0.0584950410001474 -0.0234051390004944
0.00162335367996367 -0.0582052680001353 -0.0234278820004935
0.00193643989996972 -0.0579154950001232 -0.0234506250004926
0.00224952611997578 -0.057625722000111 -0.0234733680004917
0.00256261233998183 -0.0573359490000989 -0.0234961110004908
0.00287569855998789 -0.0570461760000868 -0.0235188540004899
0.00318878477999394 -0.0567564030000747 -0.023541597000489
0.000698335409972751 -0.0623565085000858 -0.0246574115002481
0.00100505041997578 -0.0620506370000797 -0.0246814180002477
0.00131176542997881 -0.0617447655000737 -0.0247054245002472
0.00161848043998183 -0.0614388940000676 -0.0247294310002468
0.00192519544998486 -0.0611330225000616 -0.0247534375002463
0.00223191045998789 -0.0608271510000555 -0.0247774440002459
0.00253862546999092 -0.0605212795000495 -0.0248014505002454
0.00284534047999394 -0.0602154080000434 -0.024825457000245
0.00315205548999697 -0.0599095365000374 -0.0248494635002445
0.0007125758 -0.06563843 -0.02595517
0.0010129196 -0.06531646 -0.02598044
0.0013132634 -0.06499449 -0.02600571
0.0016136072 -0.06467252 -0.02603098
0.001913951 -0.06435055 -0.02605625
0.0022142948 -0.06402858 -0.02608152
0.0025146386 -0.06370661 -0.02610679
0.0028149824 -0.06338464 -0.02613206
0.0031153262 -0.06306267 -0.02615733
0.00079765376 -0.0722605685 -0.026389725
0.00108942062 -0.071943357 -0.026416585
0.00138118748 -0.0716261455 -0.026443445
0.00167295434 -0.071308934 -0.026470305
0.0019647212 -0.0709917225 -0.026497165
0.00225648806 -0.070674511 -0.026524025
0.00254825492 -0.0703572995 -0.026550885
0.00284002178 -0.070040088 -0.026577745
0.00313178864 -0.0697228765 -0.026604605
0.00088273172 -0.078882707 -0.02682428
0.00116592164 -0.078570254 -0.02685273
0.00144911156 -0.078257801 -0.02688118
0.00173230148 -0.077945348 -0.02690963
0.0020154914 -0.077632895 -0.02693808
0.00229868132 -0.077320442 -0.02696653
0.00258187124 -0.077007989 -0.02699498
0.00286506116 -0.076695536 -0.02702343
0.00314825108 -0.076383083 -0.02705188
0.00096780968 -0.0855048455 -0.027258835
0.00124242266 -0.085197151 -0.027288875
0.00151703564 -0.0848894565 -0.027318915
0.00179164862 -0.084581762 -0.027348955
0.0020662616 -0.0842740675 -0.027378995
0.00234087458 -0.083966373 -0.027409035
0.00261548756 -0.0836586785 -0.027439075
0.00289010054 -0.083350984 -0.027469115
0.00316471352 -0.0830432895 -0.027499155
0.00105288764 -0.092126984 -0.02769339
0.00131892368 -0.091824048 -0.02772502
0.00158495972 -0.091521112 -0.02775665
0.00185099576 -0.091218176 -0.02778828
0.0021170318 -0.09091524 -0.02781991
0.00238306784 -0.090612304 -0.02785154
0.00264910388 -0.090309368 -0.02788317
0.00291513992 -0.090006432 -0.0279148
0.00318117596 -0.089703496 -0.02794643
0.0011379656 -0.0987491225 -0.028127945
0.0013954247 -0.098450945 -0.028161165
0.0016528838 -0.0981527675 -0.028194385
0.0019103429 -0.09785459 -0.028227605
0.002167802 -0.0975564125 -0.028260825
0.0024252611 -0.097258235 -0.028294045
0.0026827202 -0.0969600575 -0.028327265
0.0029401793 -0.09666188 -0.028360485
0.0031976384 -0.0963637025 -0.028393705
0.00122304356 -0.105371261 -0.0285625
0.00147192572 -0.105077842 -0.02859731
0.00172080788 -0.104784423 -0.02863212
0.00196969004 -0.104491004 -0.02866693
0.0022185722 -0.104197585 -0.02870174
0.00246745436 -0.103904166 -0.02873655
0.00271633652 -0.103610747 -0.02877136
0.00296521868 -0.103317328 -0.02880617
0.00321410084 -0.103023909 -0.02884098
0.00130812152 -0.1119933995 -0.028997055
0.00154842674 -0.111704739 -0.029033455
0.00178873196 -0.1114160785 -0.029069855
0.00202903718 -0.111127418 -0.029106255
0.0022693424 -0.1108387575 -0.029142655
0.00250964762 -0.110550097 -0.029179055
0.00274995284 -0.1102614365 -0.029215455
0.00299025806 -0.109972776 -0.029251855
0.00323056328 -0.1096841155 -0.029288255
0.00139319948 -0.118615538 -0.02943161
0.00162492776 -0.118331636 -0.0294696
0.00185665604 -0.118047734 -0.02950759
0.00208838432 -0.117763832 -0.02954558
0.0023201126 -0.11747993 -0.02958357
0.00255184088 -0.117196028 -0.02962156
0.00278356916 -0.116912126 -0.02965955
0.00301529744 -0.116628224 -0.02969754
0.00324702572 -0.116344322 -0.02973553
0.00147827744 -0.1252376765 -0.029866165
0.00170142878 -0.124958533 -0.029905745
0.00192458012 -0.1246793895 -0.029945325
0.00214773146 -0.124400246 -0.029984905
0.0023708828 -0.1241211025 -0.030024485
0.00259403414 -0.123841959 -0.030064065
0.00281718548 -0.1235628155 -0.030103645
0.00304033682 -0.123283672 -0.030143225
0.00326348816 -0.1230045285 -0.030182805
0.0015633554 -0.131859815 -0.03030072
0.0017779298 -0.13158543 -0.03034189
0.0019925042 -0.131311045 -0.03038306
0.0022070786 -0.13103666 -0.03042423
0.002421653 -0.130762275 -0.0304654
0.0026362274 -0.13048789 -0.03050657
0.0028508018 -0.130213505 -0.03054774
0.0030653762 -0.12993912 -0.03058891
0.0032799506 -0.129664735 -0.03063008
0.00164843336 -0.1384819535 -0.030735275
0.00185443082 -0.138212327 -0.030778035
0.00206042828 -0.1379427005 -0.030820795
0.00226642574 -0.137673074 -0.030863555
0.0024724232 -0.1374034475 -0.030906315
0.00267842066 -0.137133821 -0.030949075
0.00288441812 -0.1368641945 -0.030991835
0.00309041558 -0.136594568 -0.031034595
0.00329641304 -0.1363249415 -0.031077355
0.00173351132 -0.145104092 -0.03116983
0.00193093184 -0.144839224 -0.03121418
0.00212835236 -0.144574356 -0.03125853
0.00232577288 -0.144309488 -0.03130288
0.0025231934 -0.14404462 -0.03134723
0.00272061392 -0.143779752 -0.03139158
0.00291803444 -0.143514884 -0.03143593
0.00311545496 -0.143250016 -0.03148028
0.00331287548 -0.142985148 -0.03152463
0.00181858928 -0.1517262305 -0.031604385
0.00200743286 -0.151466121 -0.031650325
0.00219627644 -0.1512060115 -0.031696265
0.00238512002 -0.150945902 -0.031742205
0.0025739636 -0.1506857925 -0.031788145
0.00276280718 -0.150425683 -0.031834085
0.00295165076 -0.1501655735 -0.031880025
0.00314049434 -0.149905464 -0.031925965
0.00332933792 -0.1496453545 -0.031971905
0.00190366724 -0.158348369 -0.03203894
0.00208393388 -0.158093018 -0.03208647
0.00226420052 -0.157837667 -0.032134
0.00244446716 -0.157582316 -0.03218153
0.0026247338 -0.157326965 -0.03222906
0.00280500044 -0.157071614 -0.03227659
0.00298526708 -0.156816263 -0.03232412
0.00316553372 -0.156560912 -0.03237165
0.00334580036 -0.156305561 -0.03241918
0.0019887452 -0.1649705075 -0.032473495
0.0021604349 -0.164719915 -0.032522615
0.0023321246 -0.1644693225 -0.032571735
0.0025038143 -0.16421873 -0.032620855
0.002675504 -0.1639681375 -0.032669975
0.0028471937 -0.163717545 -0.032719095
0.0030188834 -0.1634669525 -0.032768215
0.0031905731 -0.16321636 -0.032817335
0.0033622628 -0.1629657675 -0.032866455
0.00207382316 -0.171592646 -0.03290805
0.00223693592 -0.171346812 -0.03295876
0.00240004868 -0.171100978 -0.03300947
0.00256316144 -0.170855144 -0.03306018
0.0027262742 -0.17060931 -0.03311089
0.00288938696 -0.170363476 -0.0331616
0.00305249972 -0.170117642 -0.03321231
0.00321561248 -0.169871808 -0.03326302
0.00337872524 -0.169625974 -0.03331373
0.00215890112 -0.1782147845 -0.033342605
0.00231343694 -0.177973709 -0.033394905
0.00246797276 -0.1777326335 -0.033447205
0.00262250858 -0.177491558 -0.033499505
0.0027770444 -0.1772504825 -0.033551805
0.00293158022 -0.177009407 -0.033604105
0.00308611604 -0.1767683315 -0.033656405
0.00324065186 -0.176527256 -0.033708705
0.00339518768 -0.1762861805 -0.033761005
0.00224397908 -0.184836923 -0.03377716
0.00238993796 -0.184600606 -0.03383105
0.00253589684 -0.184364289 -0.03388494
0.00268185572 -0.184127972 -0.03393883
0.0028278146 -0.183891655 -0.03399272
0.00297377348 -0.183655338 -0.03404661
0.00311973236 -0.183419021 -0.0341005
0.00326569124 -0.183182704 -0.03415439
0.00341165012 -0.182946387 -0.03420828
0.00232905704 -0.1914590615 -0.034211715
0.00246643898 -0.191227503 -0.034267195
0.00260382092 -0.1909959445 -0.034322675
0.00274120286 -0.190764386 -0.034378155
0.0028785848 -0.1905328275 -0.034433635
0.00301596674 -0.190301269 -0.034489115
0.00315334868 -0.1900697105 -0.034544595
0.00329073062 -0.189838152 -0.034600075
0.00342811256 -0.1896065935 -0.034655555
0.000473093450245238 -0.036850197915 0.0148024195022331
0.000135503400217989 -0.03657989583 0.014767049002229
-0.00020208664980926 -0.036309593745 0.014731678502225
-0.000539676699836508 -0.03603929166 0.0146963080022209
-0.000877266749863757 -0.035768989575 0.0146609375022168
-0.00121485679989101 -0.03549868749 0.0146255670022128
-0.00155244684991825 -0.035228385405 0.0145901965022087
-0.0018900368999455 -0.03495808332 0.0145548260022047
-0.00222762694997275 -0.034687781235 0.0145194555022006
0.000543258400217989 -0.03993334148 0.016148094001985
0.000202134800193768 -0.03966568296 0.0161095080019813
-0.000138988799830453 -0.03939802444 0.0160709220019777
-0.000480112399854674 -0.03913036592 0.0160323360019741
-0.000821235999878895 -0.0388627074 0.0159937500019705
-0.00116235959990312 -0.03859504888 0.0159551640019669
-0.00150348319992734 -0.03832739036 0.0159165780019633
-0.00184460679995156 -0.03805973184 0.0158779920019597
-0.00218573039997578 -0.03779207332 0.0158394060019561
0.00061342335019074 -0.043016485045 0.0174937685017368
0.000268766200169547 -0.04275147009 0.0174519670017337
-7.58909498516463E-5 -0.042486455135 0.0174101655017305
-0.00042054809987284 -0.04222144018 0.0173683640017274
-0.000765205249894033 -0.041956425225 0.0173265625017242
-0.00110986239991523 -0.04169141027 0.0172847610017211
-0.00145451954993642 -0.041426395315 0.0172429595017179
-0.00179917669995761 -0.04116138036 0.0172011580017147
-0.00214383384997881 -0.040896365405 0.0171593565017116
0.000683588300163492 -0.04609962861 0.0188394430014887
0.000335397600145326 -0.04583725722 0.018794426001486
-1.27930998728398E-5 -0.04557488583 0.0187494090014833
-0.000360983799891006 -0.04531251444 0.0187043920014806
-0.000709174499909171 -0.04505014305 0.0186593750014779
-0.00105736519992734 -0.04478777166 0.0186143580014752
-0.0014055558999455 -0.04452540027 0.0185693410014725
-0.00175374659996367 -0.04426302888 0.0185243240014698
-0.00210193729998183 -0.04400065749 0.0184793070014671
0.000753753250136243 -0.049182772175 0.0201851175012406
0.000402029000121105 -0.04892304435 0.0201368850012383
5.03047501059669E-5 -0.048663316525 0.0200886525012361
-0.000301419499909171 -0.0484035887 0.0200404200012338
-0.000653143749924309 -0.048143860875 0.0199921875012316
-0.00100486799993945 -0.04788413305 0.0199439550012293
-0.00135659224995459 -0.047624405225 0.0198957225012271
-0.00170831649996972 -0.0473646774 0.0198474900012248
-0.00206004074998486 -0.047104949575 0.0197992575012226
0.000823918200108994 -0.05226591574 0.0215307920009925
0.000468660400096884 -0.05200883148 0.0214793440009907
0.000113402600084774 -0.05175174722 0.0214278960009889
-0.000241855199927337 -0.05149466296 0.0213764480009871
-0.000597112999939448 -0.0512375787 0.0213250000009853
-0.000952370799951558 -0.05098049444 0.0212735520009835
-0.00130762859996367 -0.05072341018 0.0212221040009817
-0.00166288639997578 -0.05046632592 0.0211706560009799
-0.00201814419998789 -0.05020924166 0.021119208000978
0.000894083150081746 -0.055349059305 0.0228764665007444
0.000535291800072663 -0.05509461861 0.022821803000743
0.00017650045006358 -0.054840177915 0.0227671395007417
-0.000182290899945503 -0.05458573722 0.0227124760007403
-0.000541082249954586 -0.054331296525 0.0226578125007389
-0.000899873599963669 -0.05407685583 0.0226031490007376
-0.00125866494997275 -0.053822415135 0.0225484855007362
-0.00161745629998183 -0.05356797444 0.0224938220007349
-0.00197624764999092 -0.053313533745 0.0224391585007335
0.000964248100054497 -0.05843220287 0.0242221410004962
0.000601923200048442 -0.05818040574 0.0241642620004953
0.000239598300042387 -0.05792860861 0.0241063830004944
-0.000122726599963668 -0.05767681148 0.0240485040004935
-0.000485051499969724 -0.05742501435 0.0239906250004926
-0.000847376399975779 -0.05717321722 0.0239327460004917
-0.00120970129998183 -0.05692142009 0.0238748670004908
-0.00157202619998789 -0.05666962296 0.0238169880004899
-0.00193435109999394 -0.05641782583 0.023759109000489
0.00103441305002725 -0.061515346435 0.0255678155002481
0.000668554600024221 -0.06126619287 0.0255067210002477
0.000302696150021193 -0.061017039305 0.0254456265002472
-6.31622999818342E-5 -0.06076788574 0.0253845320002468
-0.000429020749984862 -0.060518732175 0.0253234375002463
-0.00079487919998789 -0.06026957861 0.0252623430002459
-0.00116073764999092 -0.060020425045 0.0252012485002454
-0.00152659609999394 -0.05977127148 0.025140154000245
-0.00189245454999697 -0.059522117915 0.0250790595002445
0.001104578 -0.06459849 0.02691349
0.000735186 -0.06435198 0.02684918
0.000365794 -0.06410547 0.02678487
-3.59800000000009E-6 -0.06385896 0.02672056
-0.00037299 -0.06361245 0.02665625
-0.000742382 -0.06336594 0.02659194
-0.001111774 -0.06311943 0.02652763
-0.001481166 -0.06287292 0.02646332
-0.001850558 -0.06262641 0.02639901
0.001061191155 -0.0713663255 0.027374737
0.00071028086 -0.071119101 0.027312844
0.000359370565 -0.0708718765 0.027250951
8.46027000000007E-6 -0.070624652 0.027189058
-0.000342450025 -0.0703774275 0.027127165
-0.00069336032 -0.070130203 0.027065272
-0.001044270615 -0.0698829785 0.027003379
-0.00139518091 -0.069635754 0.026941486
-0.001746091205 -0.0693885295 0.026879593
0.00101780431 -0.078134161 0.027835984
0.00068537572 -0.077886222 0.027776508
0.00035294713 -0.077638283 0.027717032
2.05185400000001E-5 -0.077390344 0.027657556
-0.00031191005 -0.077142405 0.02759808
-0.00064433864 -0.076894466 0.027538604
-0.00097676723 -0.076646527 0.027479128
-0.00130919582 -0.076398588 0.027419652
-0.00164162441 -0.076150649 0.027360176
0.000974417465 -0.0849019965 0.028297231
0.00066047058 -0.084653343 0.028240172
0.000346523695 -0.0844046895 0.028183113
3.25768100000001E-5 -0.084156036 0.028126054
-0.000281370075 -0.0839073825 0.028068995
-0.00059531696 -0.083658729 0.028011936
-0.000909263845 -0.0834100755 0.027954877
-0.00122321073 -0.083161422 0.027897818
-0.001537157615 -0.0829127685 0.027840759
0.00093103062 -0.091669832 0.028758478
0.00063556544 -0.091420464 0.028703836
0.00034010026 -0.091171096 0.028649194
4.463508E-5 -0.090921728 0.028594552
-0.0002508301 -0.09067236 0.02853991
-0.00054629528 -0.090422992 0.028485268
-0.00084176046 -0.090173624 0.028430626
-0.00113722564 -0.089924256 0.028375984
-0.00143269082 -0.089674888 0.028321342
0.000887643775 -0.0984376675 0.029219725
0.0006106603 -0.098187585 0.0291675
0.000333676825 -0.0979375025 0.029115275
5.669335E-5 -0.09768742 0.02906305
-0.000220290125 -0.0974373375 0.029010825
-0.0004972736 -0.097187255 0.0289586
-0.000774257075 -0.0969371725 0.028906375
-0.00105124055 -0.09668709 0.02885415
-0.001328224025 -0.0964370075 0.028801925
0.00084425693 -0.105205503 0.029680972
0.00058575516 -0.104954706 0.029631164
0.00032725339 -0.104703909 0.029581356
6.87516199999999E-5 -0.104453112 0.029531548
-0.00018975015 -0.104202315 0.02948174
-0.00044825192 -0.103951518 0.029431932
-0.00070675369 -0.103700721 0.029382124
-0.00096525546 -0.103449924 0.029332316
-0.00122375723 -0.103199127 0.029282508
0.000800870085 -0.1119733385 0.030142219
0.00056085002 -0.111721827 0.030094828
0.000320829955 -0.1114703155 0.030047437
8.080989E-5 -0.111218804 0.030000046
-0.000159210175 -0.1109672925 0.029952655
-0.00039923024 -0.110715781 0.029905264
-0.000639250305 -0.1104642695 0.029857873
-0.00087927037 -0.110212758 0.029810482
-0.001119290435 -0.1099612465 0.029763091
0.00075748324 -0.118741174 0.030603466
0.00053594488 -0.118488948 0.030558492
0.00031440652 -0.118236722 0.030513518
9.286816E-5 -0.117984496 0.030468544
-0.0001286702 -0.11773227 0.03042357
-0.00035020856 -0.117480044 0.030378596
-0.00057174692 -0.117227818 0.030333622
-0.00079328528 -0.116975592 0.030288648
-0.00101482364 -0.116723366 0.030243674
0.000714096395 -0.1255090095 0.031064713
0.00051103974 -0.125256069 0.031022156
0.000307983085 -0.1250031285 0.030979599
0.00010492643 -0.124750188 0.030937042
-9.8130225E-5 -0.1244972475 0.030894485
-0.00030118688 -0.124244307 0.030851928
-0.000504243535 -0.1239913665 0.030809371
-0.00070730019 -0.123738426 0.030766814
-0.000910356845 -0.1234854855 0.030724257
0.00067070955 -0.132276845 0.03152596
0.0004861346 -0.13202319 0.03148582
0.00030155965 -0.131769535 0.03144568
0.0001169847 -0.13151588 0.03140554
-6.759025E-5 -0.131262225 0.0313654
-0.0002521652 -0.13100857 0.03132526
-0.00043674015 -0.130754915 0.03128512
-0.0006213151 -0.13050126 0.03124498
-0.00080589005 -0.130247605 0.03120484
0.000627322705 -0.1390446805 0.031987207
0.00046122946 -0.138790311 0.031949484
0.000295136215 -0.1385359415 0.031911761
0.00012904297 -0.138281572 0.031874038
-3.7050275E-5 -0.1380272025 0.031836315
-0.00020314352 -0.137772833 0.031798592
-0.000369236765 -0.1375184635 0.031760869
-0.00053533001 -0.137264094 0.031723146
-0.000701423255 -0.1370097245 0.031685423
0.00058393586 -0.145812516 0.032448454
0.00043632432 -0.145557432 0.032413148
0.00028871278 -0.145302348 0.032377842
0.00014110124 -0.145047264 0.032342536
-6.51030000000002E-6 -0.14479218 0.03230723
-0.00015412184 -0.144537096 0.032271924
-0.00030173338 -0.144282012 0.032236618
-0.00044934492 -0.144026928 0.032201312
-0.00059695646 -0.143771844 0.032166006
0.000540549015 -0.1525803515 0.032909701
0.00041141918 -0.152324553 0.032876812
0.000282289345 -0.1520687545 0.032843923
0.00015315951 -0.151812956 0.032811034
2.4029675E-5 -0.1515571575 0.032778145
-0.00010510016 -0.151301359 0.032745256
-0.000234229995 -0.1510455605 0.032712367
-0.00036335983 -0.150789762 0.032679478
-0.000492489665 -0.1505339635 0.032646589
0.00049716217 -0.159348187 0.033370948
0.00038651404 -0.159091674 0.033340476
0.00027586591 -0.158835161 0.033310004
0.00016521778 -0.158578648 0.033279532
5.456965E-5 -0.158322135 0.03324906
-5.607848E-5 -0.158065622 0.033218588
-0.00016672661 -0.157809109 0.033188116
-0.00027737474 -0.157552596 0.033157644
-0.00038802287 -0.157296083 0.033127172
0.000453775325 -0.1661160225 0.033832195
0.0003616089 -0.165858795 0.03380414
0.000269442475 -0.1656015675 0.033776085
0.00017727605 -0.16534434 0.03374803
8.5109625E-5 -0.1650871125 0.033719975
-7.05679999999999E-6 -0.164829885 0.03369192
-9.9223225E-5 -0.1645726575 0.033663865
-0.00019138965 -0.16431543 0.03363581
-0.000283556075 -0.1640582025 0.033607755
0.00041038848 -0.172883858 0.034293442
0.00033670376 -0.172625916 0.034267804
0.00026301904 -0.172367974 0.034242166
0.00018933432 -0.172110032 0.034216528
0.0001156496 -0.17185209 0.03419089
4.196488E-5 -0.171594148 0.034165252
-3.171984E-5 -0.171336206 0.034139614
-0.00010540456 -0.171078264 0.034113976
-0.00017908928 -0.170820322 0.034088338
0.000367001635 -0.1796516935 0.034754689
0.00031179862 -0.179393037 0.034731468
0.000256595605 -0.1791343805 0.034708247
0.00020139259 -0.178875724 0.034685026
0.000146189575 -0.1786170675 0.034661805
9.098656E-5 -0.178358411 0.034638584
3.57835449999999E-5 -0.1780997545 0.034615363
-1.941947E-5 -0.177841098 0.034592142
-7.46224850000001E-5 -0.1775824415 0.034568921
0.00032361479 -0.186419529 0.035215936
0.00028689348 -0.186160158 0.035195132
0.00025017217 -0.185900787 0.035174328
0.00021345086 -0.185641416 0.035153524
0.00017672955 -0.185382045 0.03513272
0.00014000824 -0.185122674 0.035111916
0.00010328693 -0.184863303 0.035091112
6.656562E-5 -0.184603932 0.035070308
2.984431E-5 -0.184344561 0.035049504
0.000280227945 -0.1931873645 0.035677183
0.00026198834 -0.192927279 0.035658796
0.000243748735 -0.1926671935 0.035640409
0.00022550913 -0.192407108 0.035622022
0.000207269525 -0.1921470225 0.035603635
0.00018902992 -0.191886937 0.035585248
0.000170790315 -0.1916268515 0.035566861
0.00015255071 -0.191366766 0.035548474
0.000134311105 -0.1911066805 0.035530087
0.000285123189782011 -0.036362448000744 -0.0113515215017897
0.000311043479806232 -0.0396387160006614 -0.0123834780015908
0.000336963769830453 -0.0429149840005787 -0.013415434501392
0.000362884059854674 -0.046191252000496 -0.0144473910011931
0.000388804349878895 -0.0494675200004134 -0.0154793475009943
0.000414724639903116 -0.0527437880003307 -0.0165113040007954
0.000440644929927337 -0.056020056000248 -0.0175432605005966
0.000466565219951558 -0.0592963240001653 -0.0185752170003977
0.000492485509975779 -0.0625725920000827 -0.0196071735001989
0.0005184058 -0.06584886 -0.02063913
0.000596508355 -0.072481357 -0.0209829155
0.00067461091 -0.079113854 -0.021326701
0.000752713465 -0.085746351 -0.0216704865
0.00083081602 -0.092378848 -0.022014272
0.000908918575 -0.099011345 -0.0223580575
0.00098702113 -0.105643842 -0.022701843
0.001065123685 -0.112276339 -0.0230456285
0.00114322624 -0.118908836 -0.023389414
0.001221328795 -0.125541333 -0.0237331995
0.00129943135 -0.13217383 -0.024076985
0.001377533905 -0.138806327 -0.0244207705
0.00145563646 -0.145438824 -0.024764556
0.001533739015 -0.152071321 -0.0251083415
0.00161184157 -0.158703818 -0.025452127
0.001689944125 -0.165336315 -0.0257959125
0.00176804668 -0.171968812 -0.026139698
0.001846149235 -0.178601309 -0.0264834835
0.00192425179 -0.185233806 -0.026827269
0.002002354345 -0.191866303 -0.0271710545
0.000343518779836508 -0.0364466760006614 -0.00844159800134228
0.000374747759854674 -0.0397011920005879 -0.00920901600119313
0.00040597673987284 -0.0429557080005144 -0.00997643400104399
0.000437205719891006 -0.0462102240004409 -0.0107438520008949
0.000468434699909171 -0.0494647400003674 -0.0115112700007457
0.000499663679927337 -0.0527192560002939 -0.0122786880005966
0.000530892659945503 -0.0559737720002205 -0.0130461060004474
0.000562121639963668 -0.059228288000147 -0.0138135240002983
0.000593350619981834 -0.0624828040000735 -0.0145809420001491
0.0006245796 -0.06573732 -0.01534836
0.00068712981 -0.072384934 -0.015602966
0.00074968002 -0.079032548 -0.015857572
0.00081223023 -0.085680162 -0.016112178
0.00087478044 -0.092327776 -0.016366784
0.00093733065 -0.09897539 -0.01662139
0.00099988086 -0.105623004 -0.016875996
0.00106243107 -0.112270618 -0.017130602
0.00112498128 -0.118918232 -0.017385208
0.00118753149 -0.125565846 -0.017639814
0.0012500817 -0.13221346 -0.01789442
0.00131263191 -0.138861074 -0.018149026
0.00137518212 -0.145508688 -0.018403632
0.00143773233 -0.152156302 -0.018658238
0.00150028254 -0.158803916 -0.018912844
0.00156283275 -0.16545153 -0.01916745
0.00162538296 -0.172099144 -0.019422056
0.00168793317 -0.178746758 -0.019676662
0.00175048338 -0.185394372 -0.019931268
0.00181303359 -0.192041986 -0.020185874
0.000401914369891006 -0.0365309040005787 -0.00553167450089485
0.000438452039903116 -0.0397636680005144 -0.00603455400079542
0.000474989709915226 -0.0429964320004501 -0.006537433500696
0.000511527379927337 -0.0462291960003858 -0.00704031300059657
0.000548065049939447 -0.0494619600003215 -0.00754319250049714
0.000584602719951558 -0.0526947240002572 -0.00804607200039771
0.000621140389963669 -0.0559274880001929 -0.00854895150029828
0.000657678059975779 -0.0591602520001286 -0.00905183100019885
0.000694215729987889 -0.0623930160000643 -0.00955471050009943
0.0007307534 -0.06562578 -0.01005759
0.000777751265 -0.072288511 -0.0102230165
0.00082474913 -0.078951242 -0.010388443
0.000871746995 -0.085613973 -0.0105538695
0.00091874486 -0.092276704 -0.010719296
0.000965742725 -0.098939435 -0.0108847225
0.00101274059 -0.105602166 -0.011050149
0.001059738455 -0.112264897 -0.0112155755
0.00110673632 -0.118927628 -0.011381002
0.001153734185 -0.125590359 -0.0115464285
0.00120073205 -0.13225309 -0.011711855
0.001247729915 -0.138915821 -0.0118772815
0.00129472778 -0.145578552 -0.012042708
0.001341725645 -0.152241283 -0.0122081345
0.00138872351 -0.158904014 -0.012373561
0.001435721375 -0.165566745 -0.0125389875
0.00148271924 -0.172229476 -0.012704414
0.001529717105 -0.178892207 -0.0128698405
0.00157671497 -0.185554938 -0.013035267
0.001623712835 -0.192217669 -0.0132006935
0.000460309959945503 -0.036615132000496 -0.00262175100044743
0.000502156319951558 -0.0398261440004409 -0.00286009200039771
0.000544002679957613 -0.0430371560003858 -0.003098433000348
0.000585849039963668 -0.0462481680003307 -0.00333677400029828
0.000627695399969724 -0.0494591800002756 -0.00357511500024857
0.000669541759975779 -0.0526701920002205 -0.00381345600019886
0.000711388119981834 -0.0558812040001653 -0.00405179700014914
0.000753234479987889 -0.0590922160001102 -0.00429013800009943
0.000795080839993945 -0.0623032280000551 -0.00452847900004971
0.0008369272 -0.06551424 -0.00476682
0.00086837272 -0.072192088 -0.004843067
0.00089981824 -0.078869936 -0.004919314
0.00093126376 -0.085547784 -0.004995561
0.00096270928 -0.092225632 -0.005071808
0.0009941548 -0.09890348 -0.005148055
0.00102560032 -0.105581328 -0.005224302
0.00105704584 -0.112259176 -0.005300549
0.00108849136 -0.118937024 -0.005376796
0.00111993688 -0.125614872 -0.005453043
0.0011513824 -0.13229272 -0.00552929
0.00118282792 -0.138970568 -0.005605537
0.00121427344 -0.145648416 -0.005681784
0.00124571896 -0.152326264 -0.005758031
0.00127716448 -0.159004112 -0.005834278
0.00130861 -0.16568196 -0.005910525
0.00134005552 -0.172359808 -0.005986772
0.00137150104 -0.179037656 -0.006063019
0.00140294656 -0.185715504 -0.006139266
0.00143439208 -0.192393352 -0.006215513
0.00051870555 -0.0366993600004134 0.0002881725
0.0005658606 -0.0398886200003674 0.00031437
0.00061301565 -0.0430778800003215 0.0003405675
0.0006601707 -0.0462671400002756 0.000366765
0.00070732575 -0.0494564000002296 0.0003929625
0.0007544808 -0.0526456600001837 0.00041916
0.00080163585 -0.0558349200001378 0.0004453575
0.0008487909 -0.0590241800000919 0.000471555
0.00089594595 -0.0622134400000459 0.0004977525
0.000943101 -0.0654027 0.00052395
0.000958994175 -0.072095665 0.000536882500000001
0.00097488735 -0.07878863 0.000549815000000001
0.000990780525 -0.085481595 0.000562747500000001
0.0010066737 -0.09217456 0.000575680000000001
0.001022566875 -0.098867525 0.000588612500000001
0.00103846005 -0.10556049 0.000601545000000001
0.001054353225 -0.112253455 0.000614477500000001
0.0010702464 -0.11894642 0.000627410000000001
0.001086139575 -0.125639385 0.000640342500000001
0.00110203275 -0.13233235 0.000653275000000001
0.001117925925 -0.139025315 0.000666207500000001
0.0011338191 -0.14571828 0.000679140000000001
0.001149712275 -0.152411245 0.000692072500000001
0.00116560545 -0.15910421 0.000705005000000001
0.001181498625 -0.165797175 0.000717937500000001
0.0011973918 -0.17249014 0.000730870000000001
0.001213284975 -0.179183105 0.000743802500000001
0.00122917815 -0.18587607 0.000756735000000001
0.001245071325 -0.192569035 0.000769667500000001
0.000577101140054497 -0.0367835880003307 0.00319809600044743
0.000629564880048442 -0.0399510960002939 0.00348883200039771
0.000682028620042387 -0.0431186040002572 0.003779568000348
0.000734492360036331 -0.0462861120002205 0.00407030400029828
0.000786956100030276 -0.0494536200001837 0.00436104000024857
0.000839419840024221 -0.052621128000147 0.00465177600019886
0.000891883580018166 -0.0557886360001102 0.00494251200014914
0.000944347320012111 -0.0589561440000735 0.00523324800009943
0.000996811060006055 -0.0621236520000367 0.00552398400004972
0.0010492748 -0.06529116 0.00581472
0.00104961563 -0.071999242 0.005916832
0.00104995646 -0.078707324 0.006018944
0.00105029729 -0.085415406 0.006121056
0.00105063812 -0.092123488 0.006223168
0.00105097895 -0.09883157 0.00632528
0.00105131978 -0.105539652 0.006427392
0.00105166061 -0.112247734 0.006529504
0.00105200144 -0.118955816 0.006631616
0.00105234227 -0.125663898 0.006733728
0.0010526831 -0.13237198 0.00683584
0.00105302393 -0.139080062 0.006937952
0.00105336476 -0.145788144 0.007040064
0.00105370559 -0.152496226 0.007142176
0.00105404642 -0.159204308 0.007244288
0.00105438725 -0.16591239 0.0073464
0.00105472808 -0.172620472 0.007448512
0.00105506891 -0.179328554 0.007550624
0.00105540974 -0.186036636 0.007652736
0.00105575057 -0.192744718 0.007754848
0.000635496730108995 -0.036867816000248 0.00610801950089485
0.000693269160096884 -0.0400135720002205 0.00666329400079542
0.000751041590084774 -0.0431593280001929 0.007218568500696
0.000808814020072663 -0.0463050840001653 0.00777384300059657
0.000866586450060553 -0.0494508400001378 0.00832911750049714
0.000924358880048442 -0.0525965960001102 0.00888439200039771
0.000982131310036331 -0.0557423520000827 0.00943966650029828
0.00103990374002422 -0.0588881080000551 0.00999494100019886
0.00109767617001211 -0.0620338640000276 0.0105502155000994
0.0011554486 -0.06517962 0.01110549
0.001140237085 -0.071902819 0.0112967815
0.00112502557 -0.078626018 0.011488073
0.001109814055 -0.085349217 0.0116793645
0.00109460254 -0.092072416 0.011870656
0.001079391025 -0.098795615 0.0120619475
0.00106417951 -0.105518814 0.012253239
0.001048967995 -0.112242013 0.0124445305
0.00103375648 -0.118965212 0.012635822
0.001018544965 -0.125688411 0.0128271135
0.00100333345 -0.13241161 0.013018405
0.000988121935 -0.139134809 0.0132096965
0.00097291042 -0.145858008 0.013400988
0.000957698905 -0.152581207 0.0135922795
0.00094248739 -0.159304406 0.013783571
0.000927275875 -0.166027605 0.0139748625
0.00091206436 -0.172750804 0.014166154
0.000896852845 -0.179474003 0.0143574455
0.00088164133 -0.186197202 0.014548737
0.000866429815 -0.192920401 0.0147400285
0.000693892320163492 -0.0369520440001653 0.00901794300134228
0.000756973440145326 -0.040076048000147 0.00983775600119314
0.00082005456012716 -0.0432000520001286 0.010657569001044
0.000883135680108995 -0.0463240560001102 0.0114773820008949
0.000946216800090829 -0.0494480600000919 0.0122971950007457
0.00100929792007266 -0.0525720640000735 0.0131170080005966
0.0010723790400545 -0.0556960680000551 0.0139368210004474
0.00113546016003633 -0.0588200720000367 0.0147566340002983
0.00119854128001817 -0.0619440760000184 0.0155764470001491
0.0012616224 -0.06506808 0.01639626
0.00123085854 -0.071806396 0.016676731
0.00120009468 -0.078544712 0.016957202
0.00116933082 -0.085283028 0.017237673
0.00113856696 -0.092021344 0.017518144
0.0011078031 -0.09875966 0.017798615
0.00107703924 -0.105497976 0.018079086
0.00104627538 -0.112236292 0.018359557
0.00101551152 -0.118974608 0.018640028
0.00098474766 -0.125712924 0.018920499
0.0009539838 -0.13245124 0.01920097
0.00092321994 -0.139189556 0.019481441
0.00089245608 -0.145927872 0.019761912
0.00086169222 -0.152666188 0.020042383
0.00083092836 -0.159404504 0.020322854
0.0008001645 -0.16614282 0.020603325
0.00076940064 -0.172881136 0.020883796
0.00073863678 -0.179619452 0.021164267
0.00070787292 -0.186357768 0.021444738
0.00067710906 -0.193096084 0.021725209
0.000752287910217989 -0.0370362720000827 0.0119278665017897
0.000820677720193768 -0.0401385240000735 0.0130122180015908
0.000889067530169547 -0.0432407760000643 0.014096569501392
0.000957457340145326 -0.0463430280000551 0.0151809210011931
0.00102584715012111 -0.0494452800000459 0.0162652725009943
0.00109423696009688 -0.0525475320000367 0.0173496240007954
0.00116262677007266 -0.0556497840000276 0.0184339755005966
0.00123101658004844 -0.0587520360000184 0.0195183270003977
0.00129940639002422 -0.0618542880000092 0.0206026785001989
0.0013677962 -0.06495654 0.02168703
0.001321479995 -0.071709973 0.0220566805
0.00127516379 -0.078463406 0.022426331
0.001228847585 -0.085216839 0.0227959815
0.00118253138 -0.091970272 0.023165632
0.001136215175 -0.098723705 0.0235352825
0.00108989897 -0.105477138 0.023904933
0.001043582765 -0.112230571 0.0242745835
0.00099726656 -0.118984004 0.024644234
0.000950950355 -0.125737437 0.0250138845
0.00090463415 -0.13249087 0.025383535
0.000858317945 -0.139244303 0.0257531855
0.00081200174 -0.145997736 0.026122836
0.000765685535 -0.152751169 0.0264924865
0.00071936933 -0.159504602 0.026862137
0.000673053125 -0.166258035 0.0272317875
0.00062673692 -0.173011468 0.027601438
0.000580420715 -0.179764901 0.0279710885
0.00053410451 -0.186518334 0.028340739
0.000487788305 -0.193271767 0.0287103895
0.00316669535 -0.0344983944152535 -0.0115119785017572
0.0031317412 -0.0376324194802254 -0.012558522001562
0.00309678705 -0.0407664445451972 -0.0136050655013667
0.0030618329 -0.043900469610169 -0.0146516090011715
0.00302687875 -0.0470344946751409 -0.0156981525009762
0.0029919246 -0.0501685197401127 -0.016744696000781
0.00295697045 -0.0533025448050845 -0.0177912395005858
0.0029220163 -0.0564365698700563 -0.0188377830003905
0.00288706215 -0.0595705949350282 -0.0198843265001953
0.002852108 -0.06270462 -0.02093087
0.0028714998 -0.069379229 -0.0212865485
0.0028908916 -0.076053838 -0.021642227
0.0029102834 -0.082728447 -0.0219979055
0.0029296752 -0.089403056 -0.022353584
0.002949067 -0.096077665 -0.0227092625
0.0029684588 -0.102752274 -0.023064941
0.0029878506 -0.109426883 -0.0234206195
0.0030072424 -0.116101492 -0.023776298
0.0030266342 -0.122776101 -0.0241319765
0.003046026 -0.12945071 -0.024487655
0.0030654178 -0.136125319 -0.0248433335
0.0030848096 -0.142799928 -0.025199012
0.0031042014 -0.149474537 -0.0255546905
0.0031235932 -0.156149146 -0.025910369
0.003142985 -0.162823755 -0.0262660475
0.0031623768 -0.169498364 -0.026621726
0.0031817686 -0.176172973 -0.0269774045
0.0032011604 -0.182847582 -0.027333083
0.0032205522 -0.189522191 -0.0276887615
0.0025298162 -0.0344894038302254 -0.00862352700131793
0.0025030084 -0.0376204189602003 -0.00940748400117149
0.0024762006 -0.0407514340901753 -0.0101914410010251
0.0024493928 -0.0438824492201503 -0.0109753980008786
0.002422585 -0.0470134643501252 -0.0117593550007322
0.0023957772 -0.0501444794801002 -0.0125433120005857
0.0023689694 -0.0532754946100751 -0.0133272690004393
0.0023421616 -0.0564065097400501 -0.0141112260002929
0.0023153538 -0.059537524870025 -0.0148951830001464
0.002288546 -0.06266854 -0.01567914
0.0023194441 -0.069352793 -0.015941632
0.0023503422 -0.076037046 -0.016204124
0.0023812403 -0.082721299 -0.016466616
0.0024121384 -0.089405552 -0.016729108
0.0024430365 -0.096089805 -0.0169916
0.0024739346 -0.102774058 -0.017254092
0.0025048327 -0.109458311 -0.017516584
0.0025357308 -0.116142564 -0.017779076
0.0025666289 -0.122826817 -0.018041568
0.002597527 -0.12951107 -0.01830406
0.0026284251 -0.136195323 -0.018566552
0.0026593232 -0.142879576 -0.018829044
0.0026902213 -0.149563829 -0.019091536
0.0027211194 -0.156248082 -0.019354028
0.0027520175 -0.162932335 -0.01961652
0.0027829156 -0.169616588 -0.019879012
0.0028138137 -0.176300841 -0.020141504
0.0028447118 -0.182985094 -0.020403996
0.0028756099 -0.189669347 -0.020666488
0.00189293705 -0.0344804132451972 -0.00573507550087862
0.0018742756 -0.0376084184401753 -0.006256446000781
0.00185561415 -0.0407364236351534 -0.00677781650068337
0.0018369527 -0.0438644288301315 -0.00729918700058575
0.00181829125 -0.0469924340251096 -0.00782055750048812
0.0017996298 -0.0501204392200877 -0.0083419280003905
0.00178096835 -0.0532484444150657 -0.00886329850029287
0.0017623069 -0.0563764496100438 -0.00938466900019525
0.00174364545 -0.0595044548050219 -0.00990603950009763
0.001724984 -0.06263246 -0.01042741
0.0017673884 -0.069326357 -0.0105967155
0.0018097928 -0.076020254 -0.010766021
0.0018521972 -0.082714151 -0.0109353265
0.0018946016 -0.089408048 -0.011104632
0.001937006 -0.096101945 -0.0112739375
0.0019794104 -0.102795842 -0.011443243
0.0020218148 -0.109489739 -0.0116125485
0.0020642192 -0.116183636 -0.011781854
0.0021066236 -0.122877533 -0.0119511595
0.002149028 -0.12957143 -0.012120465
0.0021914324 -0.136265327 -0.0122897705
0.0022338368 -0.142959224 -0.012459076
0.0022762412 -0.149653121 -0.0126283815
0.0023186456 -0.156347018 -0.012797687
0.00236105 -0.163040915 -0.0129669925
0.0024034544 -0.169734812 -0.013136298
0.0024458588 -0.176428709 -0.0133056035
0.0024882632 -0.183122606 -0.013474909
0.0025306676 -0.189816503 -0.0136442145
0.0012560579 -0.034471422660169 -0.00284662400043931
0.0012455428 -0.0375964179201502 -0.0031054080003905
0.0012350277 -0.0407214131801315 -0.00336419200034169
0.0012245126 -0.0438464084401127 -0.00362297600029287
0.0012139975 -0.0469714037000939 -0.00388176000024406
0.0012034824 -0.0500963989600751 -0.00414054400019525
0.0011929673 -0.0532213942200563 -0.00439932800014644
0.0011824522 -0.0563463894800376 -0.00465811200009763
0.0011719371 -0.0594713847400188 -0.00491689600004881
0.001161422 -0.06259638 -0.00517568
0.0012153327 -0.069299921 -0.005251799
0.0012692434 -0.076003462 -0.005327918
0.0013231541 -0.082707003 -0.005404037
0.0013770648 -0.089410544 -0.005480156
0.0014309755 -0.096114085 -0.005556275
0.0014848862 -0.102817626 -0.005632394
0.0015387969 -0.109521167 -0.005708513
0.0015927076 -0.116224708 -0.005784632
0.0016466183 -0.122928249 -0.005860751
0.001700529 -0.12963179 -0.00593687
0.0017544397 -0.136335331 -0.006012989
0.0018083504 -0.143038872 -0.006089108
0.0018622611 -0.149742413 -0.006165227
0.0019161718 -0.156445954 -0.006241346
0.0019700825 -0.163149495 -0.006317465
0.0020239932 -0.169853036 -0.006393584
0.0020779039 -0.176556577 -0.006469703
0.0021318146 -0.183260118 -0.006545822
0.0021857253 -0.189963659 -0.006621941
0.00061917875 -0.0344624320751409 4.18274999999997E-5
0.00061681 -0.0375844174001252 4.56299999999996E-5
0.00061444125 -0.0407064027251096 4.94324999999996E-5
0.0006120725 -0.0438283880500939 5.32349999999996E-5
0.00060970375 -0.0469503733750783 5.70374999999995E-5
0.000607335 -0.0500723587000626 6.08399999999995E-5
0.00060496625 -0.053194344025047 6.46424999999995E-5
0.0006025975 -0.0563163293500313 6.84449999999994E-5
0.00060022875 -0.0594383146750156 7.22474999999994E-5
0.00059786 -0.0625603 7.60499999999994E-5
0.000663277 -0.069273485 9.31174999999993E-5
0.000728694 -0.07598667 0.000110184999999999
0.000794111 -0.082699855 0.000127252499999999
0.000859528 -0.08941304 0.000144319999999999
0.000924945 -0.096126225 0.000161387499999999
0.000990362 -0.10283941 0.000178454999999999
0.001055779 -0.109552595 0.000195522499999999
0.001121196 -0.11626578 0.000212589999999999
0.001186613 -0.122978965 0.000229657499999999
0.00125203 -0.12969215 0.000246724999999999
0.001317447 -0.136405335 0.000263792499999999
0.001382864 -0.14311852 0.000280859999999999
0.001448281 -0.149831705 0.000297927499999999
0.001513698 -0.15654489 0.000314994999999999
0.001579115 -0.163258075 0.000332062499999999
0.001644532 -0.16997126 0.000349129999999999
0.001709949 -0.176684445 0.000366197499999998
0.001775366 -0.18339763 0.000383264999999998
0.001840783 -0.190110815 0.000400332499999998
-1.77004000000002E-5 -0.0344534414901127 0.00293027900043931
-1.19228E-5 -0.0375724168801002 0.0031966680003905
-6.14519999999999E-6 -0.0406913922700876 0.00346305700034169
-3.67599999999937E-7 -0.0438103676600751 0.00372944600029287
5.40999999999992E-6 -0.0469293430500626 0.00399583500024406
1.11876E-5 -0.0500483184400501 0.00426222400019525
1.69651999999998E-5 -0.0531672938300376 0.00452861300014644
2.27427999999999E-5 -0.056286269220025 0.00479500200009763
2.85203999999998E-5 -0.0594052446100125 0.00506139100004881
3.42980000000001E-5 -0.06252422 0.00532778
0.0001112213 -0.069247049 0.005438034
0.0001881446 -0.075969878 0.005548288
0.0002650679 -0.082692707 0.005658542
0.0003419912 -0.089415536 0.005768796
0.0004189145 -0.096138365 0.00587905
0.0004958378 -0.102861194 0.005989304
0.0005727611 -0.109584023 0.006099558
0.0006496844 -0.116306852 0.006209812
0.0007266077 -0.123029681 0.006320066
0.000803531 -0.12975251 0.00643032
0.0008804543 -0.136475339 0.006540574
0.0009573776 -0.143198168 0.006650828
0.0010343009 -0.149920997 0.006761082
0.0011112242 -0.156643826 0.006871336
0.0011881475 -0.163366655 0.00698159
0.0012650708 -0.170089484 0.007091844
0.0013419941 -0.176812313 0.007202098
0.0014189174 -0.183535142 0.007312352
0.0014958407 -0.190257971 0.007422606
-0.00065457955 -0.0344444509050845 0.00581873050087862
-0.0006406556 -0.0375604163600751 0.006347706000781
-0.00062673165 -0.0406763818150657 0.00687668150068337
-0.0006128077 -0.0437923472700563 0.00740565700058575
-0.00059888375 -0.046908312725047 0.00793463250048812
-0.0005849598 -0.0500242781800376 0.0084636080003905
-0.00057103585 -0.0531402436350282 0.00899258350029287
-0.0005571119 -0.0562562090900188 0.00952155900019525
-0.00054318795 -0.0593721745450094 0.0100505345000976
-0.000529264 -0.06248814 0.01057951
-0.0004408344 -0.069220613 0.0107829505
-0.0003524048 -0.075953086 0.010986391
-0.0002639752 -0.082685559 0.0111898315
-0.0001755456 -0.089418032 0.011393272
-8.71160000000002E-5 -0.096150505 0.0115967125
1.31359999999997E-6 -0.102882978 0.011800153
8.97431999999999E-5 -0.109615451 0.0120035935
0.0001781728 -0.116347924 0.012207034
0.0002666024 -0.123080397 0.0124104745
0.000355032 -0.12981287 0.012613915
0.0004434616 -0.136545343 0.0128173555
0.0005318912 -0.143277816 0.013020796
0.0006203208 -0.150010289 0.0132242365
0.0007087504 -0.156742762 0.013427677
0.00079718 -0.163475235 0.0136311175
0.0008856096 -0.170207708 0.013834558
0.0009740392 -0.176940181 0.0140379985
0.0010624688 -0.183672654 0.014241439
0.0011508984 -0.190405127 0.0144448795
-0.0012914587 -0.0344354603200563 0.00870718200131793
-0.0012693884 -0.0375484158400501 0.00949874400117149
-0.0012473181 -0.0406613713600438 0.0102903060010251
-0.0012252478 -0.0437743268800376 0.0110818680008786
-0.0012031775 -0.0468872824000313 0.0118734300007322
-0.0011811072 -0.050000237920025 0.0126649920005857
-0.0011590369 -0.0531131934400188 0.0134565540004393
-0.0011369666 -0.0562261489600125 0.0142481160002929
-0.0011148963 -0.0593391044800063 0.0150396780001464
-0.001092826 -0.06245206 0.01583124
-0.0009928901 -0.069194177 0.016127867
-0.0008929542 -0.075936294 0.016424494
-0.0007930183 -0.082678411 0.016721121
-0.0006930824 -0.089420528 0.017017748
-0.0005931465 -0.096162645 0.017314375
-0.0004932106 -0.102904762 0.017611002
-0.0003932747 -0.109646879 0.017907629
-0.0002933388 -0.116388996 0.018204256
-0.0001934029 -0.123131113 0.018500883
-9.3467E-5 -0.12987323 0.01879751
6.46890000000006E-6 -0.136615347 0.019094137
0.0001064048 -0.143357464 0.019390764
0.0002063407 -0.150099581 0.019687391
0.0003062766 -0.156841698 0.019984018
0.0004062125 -0.163583815 0.020280645
0.0005061484 -0.170325932 0.020577272
0.0006060843 -0.177068049 0.020873899
0.0007060202 -0.183810166 0.021170526
0.0008059561 -0.190552283 0.021467153
-0.00192833785 -0.0344264697350282 0.0115956335017572
-0.0018981212 -0.037536415320025 0.012649782001562
-0.00186790455 -0.0406463609050219 0.0137039305013667
-0.0018376879 -0.0437563064900188 0.0147580790011715
-0.00180747125 -0.0468662520750157 0.0158122275009762
-0.0017772546 -0.0499761976600125 0.016866376000781
-0.00174703795 -0.0530861432450094 0.0179205245005857
-0.0017168213 -0.0561960888300063 0.0189746730003905
-0.00168660465 -0.0593060344150031 0.0200288215001952
-0.001656388 -0.06241598 0.02108297
-0.0015449458 -0.069167741 0.0214727835
-0.0014335036 -0.075919502 0.021862597
-0.0013220614 -0.082671263 0.0222524105
-0.0012106192 -0.089423024 0.022642224
-0.001099177 -0.096174785 0.0230320375
-0.0009877348 -0.102926546 0.023421851
-0.0008762926 -0.109678307 0.0238116645
-0.0007648504 -0.116430068 0.024201478
-0.0006534082 -0.123181829 0.0245912915
-0.000541966 -0.12993359 0.024981105
-0.0004305238 -0.136685351 0.0253709185
-0.0003190816 -0.143437112 0.025760732
-0.0002076394 -0.150188873 0.0261505455
-9.61972000000002E-5 -0.156940634 0.026540359
1.52449999999999E-5 -0.163692395 0.0269301725
0.0001266872 -0.170444156 0.027319986
0.0002381294 -0.177195917 0.0277097995
0.0003495716 -0.183947678 0.028099613
0.0004610138 -0.190699439 0.0284894265
0.000553447559782011 -0.0329139989357722 -0.010334152001985
0.000847692219806232 -0.0327418178707177 -0.0103487390019813
0.00114193687983045 -0.0325696368056632 -0.0103633260019777
0.00143618153985467 -0.0323974557406087 -0.0103779130019741
0.0017304261998789 -0.0322252746755542 -0.0103925000019705
0.00202467085990312 -0.0320530936104997 -0.0104070870019669
0.00231891551992734 -0.0318809125454452 -0.0104216740019633
0.00261316017995156 -0.0317087314803907 -0.0104362610019597
0.00290740483997578 -0.0315365504153362 -0.0104508480019561
0.000536723219836508 -0.0330087828706864 -0.00769071900148871
0.000761156639854674 -0.032825405740638 -0.00770725800148601
0.00098559005987284 -0.0326420286105895 -0.0077237970014833
0.00121002347989101 -0.0324586514805411 -0.0077403360014806
0.00143445689990917 -0.0322752743504926 -0.00775687500147789
0.00165889031992734 -0.0320918972204442 -0.00777341400147519
0.0018833237399455 -0.0319085200903957 -0.00778995300147248
0.00210775715996367 -0.0317251429603473 -0.00780649200146978
0.00233219057998183 -0.0315417658302989 -0.00782303100146707
0.000519998879891005 -0.0331035668056006 -0.00504728600099248
0.000674621059903116 -0.0329089936105582 -0.00506577700099067
0.000829243239915226 -0.0327144204155158 -0.00508426800098887
0.000983865419927337 -0.0325198472204734 -0.00510275900098707
0.00113848759993945 -0.032325274025431 -0.00512125000098526
0.00129310977995156 -0.0321307008303887 -0.00513974100098346
0.00144773195996367 -0.0319361276353463 -0.00515823200098166
0.00160235413997578 -0.0317415544403039 -0.00517672300097985
0.00175697631998789 -0.0315469812452615 -0.00519521400097805
0.000503274539945503 -0.0331983507405148 -0.00240385300049624
0.000588085479951558 -0.0329925814804785 -0.00242429600049534
0.000672896419957613 -0.0327868122204421 -0.00244473900049443
0.000757707359963668 -0.0325810429604058 -0.00246518200049353
0.000842518299969724 -0.0323752737003695 -0.00248562500049263
0.000927329239975779 -0.0321695044403331 -0.00250606800049173
0.00101214017998183 -0.0319637351802968 -0.00252651100049083
0.00109695111998789 -0.0317579659202605 -0.00254695400048993
0.00118176205999394 -0.0315521966602241 -0.00256739700048903
0.0004865502 -0.033293134675429 0.00023958
0.0005015499 -0.0330761693503987 0.000217185
0.0005165496 -0.0328592040253684 0.00019479
0.0005315493 -0.0326422387003382 0.000172395
0.000546549 -0.0324252733753079 0.00015
0.0005615487 -0.0322083080502776 0.000127605
0.0005765484 -0.0319913427252473 0.00010521
0.0005915481 -0.0317743774002171 8.28149999999998E-5
0.0006065478 -0.0315574120751868 6.04199999999997E-5
0.000469825860054497 -0.0333879186103432 0.00288301300049624
0.000415014320048442 -0.033159757220319 0.00285866600049534
0.000360202780042387 -0.0329315958302948 0.00283431900049443
0.000305391240036331 -0.0327034344402705 0.00280997200049353
0.000250579700030276 -0.0324752730502463 0.00278562500049263
0.000195768160024221 -0.0322471116602221 0.00276127800049173
0.000140956620018166 -0.0320189502701979 0.00273693100049083
8.61450800121105E-5 -0.0317907888801736 0.00271258400048993
3.1333540006055E-5 -0.0315626274901494 0.00268823700048903
0.000453101520108995 -0.0334827025452574 0.00552644600099248
0.000328478740096884 -0.0332433450902392 0.00550014700099067
0.000203855960084773 -0.0330039876352211 0.00547384800098887
7.92331800726629E-5 -0.0327646301802029 0.00544754900098707
-4.53895999394475E-5 -0.0325252727251847 0.00542125000098526
-0.000170012379951558 -0.0322859152701666 0.00539495100098346
-0.000294635159963669 -0.0320465578151484 0.00536865200098166
-0.000419257939975779 -0.0318072003601302 0.00534235300097985
-0.00054388071998789 -0.0315678429051121 0.00531605400097805
0.000436377180163492 -0.0335774864801716 0.00816987900148871
0.000241943160145326 -0.0333269329601595 0.00814162800148601
4.75091401271603E-5 -0.0330763794401474 0.0081133770014833
-0.000146924879891006 -0.0328258259201353 0.0080851260014806
-0.000341358899909171 -0.0325752724001232 0.00805687500147789
-0.000535792919927337 -0.032324718880111 0.00802862400147519
-0.000730226939945503 -0.0320741653600989 0.00800037300147249
-0.000924660959963669 -0.0318236118400868 0.00797212200146978
-0.00111909497998183 -0.0315730583200747 0.00794387100146707
0.000419652840217989 -0.0336722704150858 0.010813312001985
0.000155407580193768 -0.0334105208300797 0.0107831090019813
-0.000108837679830453 -0.0331487712450737 0.0107529060019777
-0.000373082939854674 -0.0328870216600676 0.0107227030019741
-0.000637328199878895 -0.0326252720750616 0.0106925000019705
-0.000901573459903116 -0.0323635224900555 0.0106622970019669
-0.00116581871992734 -0.0321017729050495 0.0106320940019633
-0.00143006397995156 -0.0318400233200434 0.0106018910019597
-0.00169430923997578 -0.0315782737350374 0.0105716880019561
0.00219640561 -0.1982686 -0.0275678
0.00231235432 -0.1980384 -0.02762076
0.00242830303 -0.1978082 -0.02767372
0.00254425174 -0.197578 -0.02772668
0.00266020045 -0.1973478 -0.02777964
0.00277614916 -0.1971176 -0.0278326
0.00289209787 -0.1968874 -0.02788556
0.00300804658 -0.1966572 -0.02793852
0.00312399529 -0.196427 -0.02799148
0.00197867622 -0.198456 -0.02048933
0.00208176864 -0.1982224 -0.02053818
0.00218486106 -0.1979888 -0.02058703
0.00228795348 -0.1977552 -0.02063588
0.0023910459 -0.1975216 -0.02068473
0.00249413832 -0.197288 -0.02073358
0.00259723074 -0.1970544 -0.02078243
0.00270032316 -0.1968208 -0.02083128
0.00280341558 -0.1965872 -0.02088013
0.00176094683 -0.1986434 -0.01341086
0.00185118296 -0.1984064 -0.0134556
0.00194141909 -0.1981694 -0.01350034
0.00203165522 -0.1979324 -0.01354508
0.00212189135 -0.1976954 -0.01358982
0.00221212748 -0.1974584 -0.01363456
0.00230236361 -0.1972214 -0.0136793
0.00239259974 -0.1969844 -0.01372404
0.00248283587 -0.1967474 -0.01376878
0.00154321744 -0.1988308 -0.00633239
0.00162059728 -0.1985904 -0.00637302
0.00169797712 -0.19835 -0.00641365
0.00177535696 -0.1981096 -0.00645428
0.0018527368 -0.1978692 -0.00649491
0.00193011664 -0.1976288 -0.00653554
0.00200749648 -0.1973884 -0.00657617
0.00208487632 -0.197148 -0.0066168
0.00216225616 -0.1969076 -0.00665743
0.00132548805 -0.1990182 0.000746080000000001
0.0013900116 -0.1987744 0.000709560000000001
0.00145453515 -0.1985306 0.00067304
0.0015190587 -0.1982868 0.00063652
0.00158358225 -0.198043 0.0006
0.0016481058 -0.1977992 0.00056348
0.00171262935 -0.1975554 0.000526959999999999
0.0017771529 -0.1973116 0.000490439999999999
0.00184167645 -0.1970678 0.000453919999999999
0.00110775866 -0.1992056 0.00782455
0.00115942592 -0.1989584 0.00779214
0.00121109318 -0.1987112 0.00775973
0.00126276044 -0.198464 0.00772732
0.0013144277 -0.1982168 0.00769491
0.00136609496 -0.1979696 0.0076625
0.00141776222 -0.1977224 0.00763009
0.00146942948 -0.1974752 0.00759768
0.00152109674 -0.197228 0.00756527
0.00089002927 -0.199393 0.01490302
0.00092884024 -0.1991424 0.01487472
0.00096765121 -0.1988918 0.01484642
0.00100646218 -0.1986412 0.01481812
0.00104527315 -0.1983906 0.01478982
0.00108408412 -0.19814 0.01476152
0.00112289509 -0.1978894 0.01473322
0.00116170606 -0.1976388 0.01470492
0.00120051703 -0.1973882 0.01467662
0.00067229988 -0.1995804 0.02198149
0.00069825456 -0.1993264 0.0219573
0.00072420924 -0.1990724 0.02193311
0.00075016392 -0.1988184 0.02190892
0.0007761186 -0.1985644 0.02188473
0.00080207328 -0.1983104 0.02186054
0.00082802796 -0.1980564 0.02183635
0.00085398264 -0.1978024 0.02181216
0.00087993732 -0.1975484 0.02178797
0.00045457049 -0.1997678 0.02905996
0.00046766888 -0.1995104 0.02903988
0.00048076727 -0.199253 0.0290198
0.00049386566 -0.1989956 0.02899972
0.00050696405 -0.1987382 0.02897964
0.00052006244 -0.1984808 0.02895956
0.00053316083 -0.1982234 0.02893948
0.00054625922 -0.197966 0.0289194
0.00055935761 -0.1977086 0.02889932
0.0035193483899667 -0.0283782015004109 -0.0117707985026896
0.00314892127993339 -0.0285230880004775 -0.0117594270026946
0.00277849416990009 -0.0286679745005442 -0.0117480555026996
0.00240806705986678 -0.0288128610006108 -0.0117366840027045
0.00203763994983348 -0.0289577475006774 -0.0117253125027095
0.00166721283980018 -0.029102634000744 -0.0117139410027144
0.00129678572976687 -0.0292475205008106 -0.0117025695027194
0.000926358619733569 -0.0293924070008772 -0.0116911980027244
0.000555931509700265 -0.0295372935009438 -0.0116798265027293
0.00355607767996367 -0.0252250680004483 -0.0104629320029341
0.00317927935992734 -0.025353856000521 -0.0104528240029396
0.00280248103989101 -0.0254826440005936 -0.010442716002945
0.00242568271985467 -0.0256114320006663 -0.0104326080029504
0.00204888439981834 -0.0257402200007389 -0.0104225000029558
0.00167208607978201 -0.0258690080008116 -0.0104123920029612
0.00129528775974568 -0.0259977960008843 -0.0104022840029666
0.000918489439709348 -0.0261265840009569 -0.010392176002972
0.000541691119673016 -0.0262553720010296 -0.0103820680029774
0.00359280696996064 -0.0220719345004857 -0.00915506550317866
0.00320963743992128 -0.0221846240005644 -0.00914622100318452
0.00282646790988192 -0.0222973135006431 -0.00913737650319038
0.00244329837984256 -0.0224100030007218 -0.00912853200319624
0.0020601288498032 -0.0225226925008005 -0.0091196875032021
0.00167695931976385 -0.0226353820008792 -0.00911084300320797
0.00129378978972449 -0.022748071500958 -0.00910199850321383
0.000910620259685127 -0.0228607610010367 -0.00909315400321969
0.000527450729645768 -0.0229734505011154 -0.00908430950322555
0.00362953625995761 -0.018918801000523 -0.00784719900342317
0.00323999551991523 -0.0190153920006078 -0.00783961800342948
0.00285045477987284 -0.0191119830006926 -0.0078320370034358
0.00246091403983045 -0.0192085740007773 -0.00782445600344211
0.00207137329978807 -0.0193051650008621 -0.00781687500344842
0.00168183255974568 -0.0194017560009469 -0.00780929400345473
0.00129229181970329 -0.0194983470010316 -0.00780171300346104
0.000902751079660906 -0.0195949380011164 -0.00779413200346736
0.000513210339618519 -0.0196915290012012 -0.00778655100347367
0.00366626554995459 -0.0157656675005604 -0.00653933250366768
0.00327035359990917 -0.0158461600006512 -0.00653301500367445
0.00287444164986376 -0.015926652500742 -0.00652669750368121
0.00247852969981834 -0.0160071450008329 -0.00652038000368797
0.00208261774977293 -0.0160876375009237 -0.00651406250369474
0.00168670579972751 -0.0161681300010145 -0.0065077450037015
0.0012907938496821 -0.0162486225011053 -0.00650142750370826
0.000894881899636685 -0.0163291150011962 -0.00649511000371502
0.000498969949591271 -0.016409607501287 -0.00648879250372179
0.00370299483995156 -0.0126125340005977 -0.0052314660039122
0.00330071167990312 -0.0126769280006946 -0.00522641200391941
0.00289842851985467 -0.0127413220007915 -0.00522135800392663
0.00249614535980623 -0.0128057160008884 -0.00521630400393384
0.00209386219975779 -0.0128701100009853 -0.00521125000394105
0.00169157903970935 -0.0129345040010821 -0.00520619600394827
0.00128929587966091 -0.012998898001179 -0.00520114200395548
0.000887012719612464 -0.0130632920012759 -0.00519608800396269
0.000484729559564022 -0.0131276860013728 -0.00519103400396991
0.00373972412994853 -0.00945940050063509 -0.00392359950415671
0.00333106975989706 -0.00950769600073802 -0.00391980900416437
0.00292241538984559 -0.00955599150084096 -0.00391601850417204
0.00251376101979412 -0.0096042870009439 -0.0039122280041797
0.00210510664974265 -0.00965258250104684 -0.00390843750418737
0.00169645227969118 -0.00970087800114978 -0.00390464700419503
0.00128779790963971 -0.00974917350125272 -0.0039008565042027
0.000879143539588243 -0.00979746900135566 -0.00389706600421036
0.000470489169536773 -0.0098457645014586 -0.00389327550421803
0.0037764534199455 -0.00630626700067244 -0.00261573300440122
0.00336142783989101 -0.00633846400078144 -0.00261320600440934
0.00294640225983651 -0.00637066100089043 -0.00261067900441745
0.00253137667978201 -0.00640285800099942 -0.00260815200442557
0.00211635109972751 -0.00643505500110842 -0.00260562500443368
0.00170132551967302 -0.00646725200121741 -0.0026030980044418
0.00128629993961852 -0.00649944900132641 -0.00260057100444991
0.000871274359564022 -0.0065316460014354 -0.00259804400445803
0.000456248779509525 -0.00656384300154439 -0.00259551700446614
0.00381318270994248 -0.0031531335007098 -0.00130786650464573
0.00339178591988495 -0.00316923200082485 -0.0013066030046543
0.00297038912982743 -0.0031853305009399 -0.00130533950466287
0.0025489923397699 -0.00320142900105495 -0.00130407600467143
0.00212759554971238 -0.00321752750117 -0.00130281250468
0.00170619875965485 -0.00323362600128505 -0.00130154900468857
0.00128480196959733 -0.0032497245014001 -0.00130028550469713
0.000863405179539801 -0.00326582300151515 -0.0012990220047057
0.000442008389482276 -0.00328192150163019 -0.00129775850471426
-0.0023114200499667 -0.028479197065 0.0118795545026896
-0.00198089709993339 -0.02875478628 0.0119084940026946
-0.00165037414990009 -0.029030375495 0.0119374335026996
-0.00131985119986678 -0.02930596471 0.0119663730027045
-0.000989328249833481 -0.029581553925 0.0119953125027095
-0.000658805299800177 -0.02985714314 0.0120242520027144
-0.000328282349766873 -0.030132732355 0.0120531915027194
2.24060026643094E-6 -0.03040832157 0.0120821310027244
0.000332763550299735 -0.030683910785 0.0121110705027293
-0.00235331659996367 -0.02537490498 0.0105596040029341
-0.00202632719992734 -0.02565313776 0.0105853280029396
-0.00169933779989101 -0.02593137054 0.010611052002945
-0.00137234839985467 -0.02620960332 0.0106367760029504
-0.00104535899981834 -0.0264878361 0.0106625000029558
-0.000718369599782011 -0.02676606888 0.0106882240029612
-0.000391380199745679 -0.02704430166 0.0107139480029666
-6.4390799709348E-5 -0.02732253444 0.010739672002972
0.000262598600326984 -0.02760076722 0.0107653960029774
-0.00239521314996064 -0.022270612895 0.00923965350317866
-0.00207175729992128 -0.02255148924 0.00926216200318452
-0.00174830144988192 -0.022832365585 0.00928467050319038
-0.00142484559984256 -0.02311324193 0.00930717900319624
-0.0011013897498032 -0.023394118275 0.0093296875032021
-0.000777933899763845 -0.02367499462 0.00935219600320797
-0.000454478049724486 -0.023955870965 0.00937470450321383
-0.000131022199685127 -0.02423674731 0.00939721300321969
0.000192433650354232 -0.024517623655 0.00941972150322555
-0.00243710969995761 -0.01916632081 0.00791970300342317
-0.00211718739991523 -0.01944984072 0.00793899600342948
-0.00179726509987284 -0.01973336063 0.0079582890034358
-0.00147734279983045 -0.02001688054 0.00797758200344211
-0.00115742049978807 -0.02030040045 0.00799687500344842
-0.00083749819974568 -0.02058392036 0.00801616800345473
-0.000517575899703293 -0.02086744027 0.00803546100346104
-0.000197653599660906 -0.02115096018 0.00805475400346736
0.000122268700381481 -0.02143448009 0.00807404700347367
-0.00247900624995459 -0.016062028725 0.00659975250366769
-0.00216261749990917 -0.0163481922 0.00661583000367445
-0.00184622874986376 -0.016634355675 0.00663190750368121
-0.00152983999981834 -0.01692051915 0.00664798500368797
-0.00121345124977293 -0.017206682625 0.00666406250369474
-0.000897062499727514 -0.0174928461 0.0066801400037015
-0.000580673749682099 -0.017779009575 0.00669621750370826
-0.000264284999636685 -0.01806517305 0.00671229500371502
5.21037504087294E-5 -0.018351336525 0.00672837250372179
-0.00252090279995156 -0.01295773664 0.0052798020039122
-0.00220804759990312 -0.01324654368 0.00529266400391941
-0.00189519239985467 -0.01353535072 0.00530552600392663
-0.00158233719980623 -0.01382415776 0.00531838800393384
-0.00126948199975779 -0.0141129648 0.00533125000394105
-0.000956626799709348 -0.01440177184 0.00534411200394827
-0.000643771599660906 -0.01469057888 0.00535697400395548
-0.000330916399612464 -0.01497938592 0.00536983600396269
-1.80611995640219E-5 -0.01526819296 0.00538269800396991
-0.00256279934994853 -0.009853444555 0.00395985150415671
-0.00225347769989706 -0.01014489516 0.00396949800416437
-0.00194415604984559 -0.010436345765 0.00397914450417204
-0.00163483439979412 -0.01072779637 0.0039887910041797
-0.00132551274974265 -0.011019246975 0.00399843750418737
-0.00101619109969118 -0.01131069758 0.00400808400419503
-0.000706869449639713 -0.011602148185 0.0040177305042027
-0.000397547799588243 -0.01189359879 0.00402737700421036
-8.82261495367733E-5 -0.012185049395 0.00403702350421803
-0.0026046958999455 -0.00674915247 0.00263990100440122
-0.00229890779989101 -0.00704324664 0.00264633200440934
-0.00199311969983651 -0.00733734081 0.00265276300441745
-0.00168733159978201 -0.00763143498 0.00265919400442557
-0.00138154349972751 -0.00792552915 0.00266562500443368
-0.00107575539967302 -0.00821962332 0.0026720560044418
-0.000769967299618519 -0.00851371749 0.00267848700444991
-0.000464179199564022 -0.00880781166 0.00268491800445803
-0.000158391099509525 -0.00910190583 0.00269134900446614
-0.00264659244994248 -0.003644860385 0.00131995050464573
-0.00234433789988495 -0.00394159812 0.0013231660046543
-0.00204208334982743 -0.004238335855 0.00132638150466287
-0.0017398287997699 -0.00453507359 0.00132959700467143
-0.00143757424971238 -0.004831811325 0.00133281250468
-0.00113531969965485 -0.00512854906 0.00133602800468857
-0.000833065149597326 -0.005425286795 0.00133924350469713
-0.000530810599539801 -0.00572202453 0.0013424590047057
-0.000228556049482276 -0.006018762265 0.00134567450471426
0.00323660365 -0.0282303442853099 -0.00941889150214774
0.0032715578 -0.0250963192203381 -0.00837234800234299
0.00330651195 -0.0219622941553662 -0.00732580450253824
0.0033414661 -0.0188282690903944 -0.00627926100273349
0.00337642025 -0.0156942440254226 -0.00523271750292874
0.0034113744 -0.0125602189604508 -0.00418617400312399
0.00344632855 -0.00942619389547893 -0.00313963050331924
0.0034812827 -0.0062921688305071 -0.00209308700351449
0.00351623685 -0.00315814376553528 -0.00104654350370973
0.0025834318 -0.0282273735702755 -0.00705561300161081
0.0026102396 -0.0250963584403005 -0.00627165600175724
0.0026370474 -0.0219653433103255 -0.00548769900190368
0.0026638552 -0.0188343281803506 -0.00470374200205012
0.002690663 -0.0157033130503756 -0.00391978500219655
0.0027174708 -0.0125722979204007 -0.00313582800234299
0.0027442786 -0.00944128279042572 -0.00235187100248943
0.0027710864 -0.00631026766045076 -0.00156791400263586
0.0027978942 -0.0031792525304758 -0.000783957002782301
0.00193025995 -0.028224402855241 -0.00469233450107387
0.0019489214 -0.0250963976602629 -0.0041709640011715
0.00196758285 -0.0219683924652849 -0.00364959350126912
0.0019862443 -0.0188403872703068 -0.00312822300136674
0.00200490575 -0.0157123820753287 -0.00260685250146437
0.0020235672 -0.0125843768803506 -0.00208548200156199
0.00204222865 -0.0094563716853725 -0.00156411150165962
0.0020608901 -0.00632836649039441 -0.00104274100175724
0.00207955155 -0.00320036129541632 -0.000521370501854867
0.0012770881 -0.0282214321402066 -0.00232905600053694
0.0012876032 -0.0250964368802254 -0.00207027200058575
0.0012981183 -0.0219714416202442 -0.00181148800063456
0.0013086334 -0.0188464463602629 -0.00155270400068337
0.0013191485 -0.0157214511002817 -0.00129392000073218
0.0013296636 -0.0125964558403005 -0.001035136000781
0.0013401787 -0.00947146058031929 -0.000776352000829809
0.0013506938 -0.00634646532033807 -0.000517568000878621
0.0013612089 -0.00322147006035685 -0.000258784000927434
0.00062391625 -0.0282184614251722 3.42224999999997E-5
0.000626285 -0.0250964761001878 3.04199999999998E-5
0.00062865375 -0.0219744907752035 2.66174999999998E-5
0.0006310225 -0.0188525054502191 2.28149999999998E-5
0.00063339125 -0.0157305201252348 1.90124999999998E-5
0.00063576 -0.0126085348002504 1.52099999999999E-5
0.00063812875 -0.00948654947526607 1.14074999999999E-5
0.0006404975 -0.00636456415028172 7.60499999999994E-6
0.00064286625 -0.00324257882529738 3.80249999999997E-6
-2.92556000000002E-5 -0.0282154907101377 0.00239750100053694
-3.50332000000001E-5 -0.0250965153201503 0.00213111200058575
-4.08108E-5 -0.0219775399301628 0.00186472300063456
-4.65883999999999E-5 -0.0188585645401753 0.00159833400068337
-5.23660000000002E-5 -0.0157395891501878 0.00133194500073218
-5.81436000000001E-5 -0.0126206137602003 0.001065556000781
-6.39212000000003E-5 -0.00950163837021286 0.000799167000829809
-6.96988000000003E-5 -0.00638266298022538 0.000532778000878621
-7.54764000000003E-5 -0.0032636875902379 0.000266389000927434
-0.00068242745 -0.0282125199951033 0.00476077950107387
-0.0006963514 -0.0250965545401127 0.0042318040011715
-0.00071027535 -0.0219805890851221 0.00370282850126912
-0.0007241993 -0.0188646236301315 0.00317385300136674
-0.00073812325 -0.0157486581751409 0.00264487750146437
-0.0007520472 -0.0126326927201503 0.00211590200156199
-0.00076597115 -0.00951672726515965 0.00158692650165962
-0.0007798951 -0.00640076181016903 0.00105795100175724
-0.00079381905 -0.00328479635517842 0.000528975501854867
-0.0013355993 -0.0282095492800689 0.00712405800161081
-0.0013576696 -0.0250965937600751 0.00633249600175724
-0.0013797399 -0.0219836382400814 0.00554093400190368
-0.0014018102 -0.0188706827200876 0.00474937200205012
-0.0014238805 -0.0157577272000939 0.00395781000219655
-0.0014459508 -0.0126447716801002 0.00316624800234299
-0.0014680211 -0.00953181616010643 0.00237468600248943
-0.0014900914 -0.00641886064011269 0.00158312400263586
-0.0015121617 -0.00330590512011895 0.000791562002782301
-0.00198877115 -0.0282065785650344 0.00948733650214774
-0.0020189878 -0.0250966329800376 0.00843318800234299
-0.00204920445 -0.0219866873950407 0.00737903950253824
-0.0020794211 -0.0188767418100438 0.00632489100273349
-0.00210963775 -0.015766796225047 0.00527074250292874
-0.0021398544 -0.0126568506400501 0.00421659400312399
-0.00217007105 -0.00954690505505322 0.00316244550331924
-0.0022002877 -0.00643695947005634 0.00210829700351449
-0.00223050435 -0.00332701388505947 0.00105414850370973
0.000233282609733569 -0.0298099120009094 -0.00928760850218742
0.000207362319709348 -0.026533644000992 -0.00825565200238627
0.000181442029685127 -0.0232573760010747 -0.00722369550258513
0.000155521739660906 -0.0199811080011574 -0.00619173900278398
0.000129601449636685 -0.01670484000124 -0.00515978250298284
0.000103681159612464 -0.0134285720013227 -0.0041278260031817
7.7760869588243E-5 -0.0101523040014054 -0.00309586950338055
5.1840579564022E-5 -0.00687603600148805 -0.00206391300357941
2.5920289539801E-5 -0.00359976800157072 -0.00103195650377826
0.000281060819800177 -0.0299376440008083 -0.00690676200164056
0.000249831839782011 -0.0266831280008818 -0.0061393440017897
0.000218602859763845 -0.0234286120009553 -0.00537192600193885
0.00018737387974568 -0.0201740960010288 -0.00460450800208799
0.000156144899727514 -0.0169195800011023 -0.00383709000223713
0.000124915919709348 -0.0136650640011757 -0.00306967200238627
9.36869396911823E-5 -0.0104105480012492 -0.00230225400253541
6.24579596730165E-5 -0.00715603200132271 -0.00153483600268456
3.12289796548507E-5 -0.0039015160013962 -0.000767418002833698
0.000328839029866784 -0.0300653760007073 -0.00452591550109371
0.000292301359854674 -0.0268326120007716 -0.00402303600119314
0.000255763689842563 -0.0235998480008359 -0.00352015650129256
0.000219226019830453 -0.0203670840009002 -0.00301727700139199
0.000182688349818343 -0.0171343200009645 -0.00251439750149142
0.000146150679806232 -0.0139015560010288 -0.00201151800159085
0.000109613009794122 -0.0106687920010931 -0.00150863850169028
7.3075339782011E-5 -0.00743602800115737 -0.0010057590017897
3.65376697699005E-5 -0.00420326400122167 -0.000502879501889132
0.000376617239933392 -0.0301931080006062 -0.00214506900054685
0.000334770879927337 -0.0269820960006614 -0.00190672800059657
0.000292924519921282 -0.0237710840007165 -0.00166838700064628
0.000251078159915226 -0.0205600720007716 -0.001430046000696
0.000209231799909171 -0.0173490600008267 -0.00119170500074571
0.000167385439903116 -0.0141380480008818 -0.000953364000795424
0.000125539079897061 -0.0109270360009369 -0.000715023000845138
8.36927198910055E-5 -0.00771602400099203 -0.000476682000894852
4.18463598849502E-5 -0.00450501200104715 -0.000238341000944566
0.00042439545 -0.0303208400005052 0.0002357775
0.0003772404 -0.0271315800005511 0.00020958
0.00033008535 -0.0239423200005971 0.0001833825
0.0002829303 -0.020753060000643 0.000157185
0.00023577525 -0.0175638000006889 0.0001309875
0.0001886202 -0.0143745400007348 0.00010479
0.00014146515 -0.0111852800007808 7.85925000000001E-5
9.43101E-5 -0.00799602000082669 5.2395E-5
4.715505E-5 -0.00480676000087262 2.61975E-5
0.000472173660066608 -0.0304485720004042 0.00261662400054685
0.000419709920072663 -0.0272810640004409 0.00232588800059657
0.000367246180078718 -0.0241135560004776 0.00203515200064628
0.000314782440084773 -0.0209460480005144 0.001744416000696
0.000262318700090829 -0.0177785400005511 0.00145368000074571
0.000209854960096884 -0.0146110320005879 0.00116294400079542
0.000157391220102939 -0.0114435240006246 0.000872208000845138
0.000104927480108994 -0.00827601600066136 0.000581472000894852
5.24637401150497E-5 -0.0051085080006981 0.000290736000944566
0.000519951870133216 -0.0305763040003031 0.00499747050109371
0.000462179440145326 -0.0274305480003307 0.00444219600119314
0.000404407010157436 -0.0242847920003582 0.00388692150129256
0.000346634580169547 -0.0211390360003858 0.00333164700139199
0.000288862150181658 -0.0179932800004133 0.00277637250149142
0.000231089720193768 -0.0148475240004409 0.00222109800159085
0.000173317290205879 -0.0117017680004685 0.00166582350169028
0.000115544860217989 -0.00855601200049601 0.0011105490017897
5.77724302300995E-5 -0.00541025600052357 0.000555274501889132
0.000567730080199823 -0.0307040360002021 0.00737831700164056
0.000504648960217989 -0.0275800320002205 0.0065585040017897
0.000441567840236155 -0.0244560280002388 0.00573869100193885
0.00037848672025432 -0.0213320240002572 0.00491887800208799
0.000315405600272486 -0.0182080200002756 0.00409906500223713
0.000252324480290652 -0.0150840160002939 0.00327925200238627
0.000189243360308818 -0.0119600120003123 0.00245943900253541
0.000126162240326983 -0.00883600800033068 0.00163962600268456
6.30811203451492E-5 -0.00571200400034905 0.000819813002833698
0.000615508290266431 -0.030831768000101 0.00975916350218742
0.000547118480290652 -0.0277295160001102 0.00867481200238627
0.000478728670314873 -0.0246272640001194 0.00759046050258513
0.000410338860339094 -0.0215250120001286 0.00650610900278398
0.000341949050363315 -0.0184227600001378 0.00542175750298284
0.000273559240387536 -0.015320508000147 0.0043374060031817
0.000205169430411757 -0.0122182560001562 0.00325305450338055
0.000136779620435978 -0.00911600400016534 0.00216870300357941
6.8389810460199E-5 -0.00601375200017452 0.00108435150377826
0.00319607189995156 -5.40568306724427E-5 -3.9121976E-12
0.00284095279990312 -8.39949607814369E-5 -3.9194112E-12
0.00248583369985467 -0.000113933090890431 -3.9266248E-12
0.00213071459980623 -0.000143871220999425 -3.9338384E-12
0.00177559549975779 -0.000173809351108419 -3.941052E-12
0.00142047639970935 -0.000203747481217413 -3.9482656E-12
0.00106535729966091 -0.000233685611326408 -3.9554792E-12
0.000710238199612464 -0.000263623741435402 -3.9626928E-12
0.000355119099564022 -0.000293561871544396 -3.9699064E-12
0.00254223179996367 -0.000108113660597727 -2.9341482E-12
0.00225976159992734 -0.000167989920694611 -2.9395584E-12
0.00197729139989101 -0.000227866180791494 -2.9449686E-12
0.00169482119985467 -0.000287742440888378 -2.9503788E-12
0.00141235099981834 -0.000347618700985262 -2.955789E-12
0.00112988079978201 -0.000407494961082145 -2.9611992E-12
0.000847410599745679 -0.000467371221179029 -2.9666094E-12
0.000564940399709348 -0.000527247481275913 -2.9720196E-12
0.000282470199673016 -0.000587123741372796 -2.9774298E-12
0.00188839169997578 -0.000162170490523011 -1.9560988E-12
0.00167857039995156 -0.000251984880607784 -1.9597056E-12
0.00146874909992734 -0.000341799270692557 -1.9633124E-12
0.00125892779990312 -0.000431613660777331 -1.9669192E-12
0.00104910649987889 -0.000521428050862104 -1.970526E-12
0.000839285199854674 -0.000611242440946877 -1.9741328E-12
0.000629463899830453 -0.00070105683103165 -1.9777396E-12
0.000419642599806232 -0.000790871221116424 -1.9813464E-12
0.000209821299782011 -0.000880685611201197 -1.9849532E-12
0.00123455159998789 -0.000216227320448295 -9.780494E-13
0.00109737919997578 -0.000335979840520958 -9.798528E-13
0.000960206799963668 -0.000455732360593621 -9.816562E-13
0.000823034399951558 -0.000575484880666283 -9.834596E-13
0.000685861999939447 -0.000695237400738946 -9.85263E-13
0.000548689599927337 -0.000814989920811609 -9.870664E-13
0.000411517199915226 -0.000934742440884272 -9.888698E-13
0.000274344799903116 -0.00105449496095693 -9.906732E-13
0.000137172399891005 -0.0011742474810296 -9.924766E-13
0.0005807115 -0.000270284150373579 7.39557098644699E-32
0.000516188 -0.000419974800434132 4.93038065763132E-32
0.0004516645 -0.000569665450494684 4.93038065763132E-32
0.000387141 -0.000719356100555236 -9.86076131526265E-32
0.0003226175 -0.000869046750615789 0
0.000258094 -0.00101873740067634 9.86076131526265E-32
0.0001935705 -0.00116842805073689 0
0.000129047 -0.00131811870079745 -1.97215226305253E-31
6.45235E-5 -0.001467809350858 0
-7.31285999878898E-5 -0.000324340980298863 9.780494E-13
-6.5003199975779E-5 -0.000503969760347305 9.798528E-13
-5.68777999636684E-5 -0.000683598540395747 9.816562E-13
-4.87523999515581E-5 -0.000863227320444189 9.834596E-13
-4.06269999394475E-5 -0.00104285610049263 9.85263E-13
-3.2501599927337E-5 -0.00122248488054107 9.870664E-13
-2.43761999152265E-5 -0.00140211366058951 9.888698E-13
-1.6250799903116E-5 -0.00158174244063796 9.906732E-13
-8.12539989100549E-6 -0.0017613712206864 9.924766E-13
-0.000726968699975779 -0.000378397810224148 1.9560988E-12
-0.000646194399951558 -0.000587964720260479 1.9597056E-12
-0.000565420099927337 -0.00079753163029681 1.9633124E-12
-0.000484645799903116 -0.00100709854033314 1.9669192E-12
-0.000403871499878895 -0.00121666545036947 1.970526E-12
-0.000323097199854674 -0.0014262323604058 1.9741328E-12
-0.000242322899830453 -0.00163579927044214 1.9777396E-12
-0.000161548599806232 -0.00184536618047847 1.9813464E-12
-8.0774299782011E-5 -0.0020549330905148 1.9849532E-12
-0.00138080879996367 -0.000432454640149432 2.9341482E-12
-0.00122738559992734 -0.000671959680173653 2.9395584E-12
-0.00107396239989101 -0.000911464720197874 2.9449686E-12
-0.000920539199854674 -0.00115096976022209 2.9503788E-12
-0.000767115999818343 -0.00139047480024632 2.955789E-12
-0.000613692799782011 -0.00162997984027054 2.9611992E-12
-0.00046026959974568 -0.00186948488029476 2.9666094E-12
-0.000306846399709348 -0.00210898992031898 2.9720196E-12
-0.000153423199673016 -0.0023484949603432 2.9774298E-12
-0.00203464889995156 -0.000486511470074716 3.9121976E-12
-0.00180857679990312 -0.000755954640086826 3.9194112E-12
-0.00158250469985467 -0.00102539781009894 3.9266248E-12
-0.00135643259980623 -0.00129484098011105 3.9338384E-12
-0.00113036049975779 -0.00156428415012316 3.941052E-12
-0.000904288399709348 -0.00183372732013527 3.9482656E-12
-0.000678216299660906 -0.00210317049014738 3.9554792E-12
-0.000452144199612464 -0.00237261366015949 3.9626928E-12
-0.000226072099564022 -0.0026420568301716 3.9699064E-12
0.00057328040580381 -0.036176042642195 -0.0113675672017865
0.000861437621825609 -0.0359896372836459 -0.0113836129017832
0.00114959483784741 -0.0358032319250969 -0.01139965860178
0.00143775205386921 -0.0356168265665478 -0.0114157043017767
0.00172590926989101 -0.0354304212079988 -0.0114317500017735
0.0020140664859128 -0.0352440158494497 -0.0114477957017702
0.0023022237019346 -0.0350576104909007 -0.011463841401767
0.0025903809179564 -0.0348712051323516 -0.0114798871017637
0.0028785381339782 -0.0346847997738026 -0.0114959328017605
0.000593113251825609 -0.0394380863486178 -0.012400982401588
0.000875183023844986 -0.0392374566965742 -0.0124184868015851
0.00115725279586436 -0.0390368270445306 -0.0124359912015822
0.00143932256788374 -0.038836197392487 -0.0124534956015793
0.00172139233990312 -0.0386355677404434 -0.0124710000015764
0.00200346211192249 -0.0384349380883998 -0.0124885044015735
0.00228553188394187 -0.0382343084363562 -0.0125060088015707
0.00256760165596125 -0.0380336787843126 -0.0125235132015678
0.00284967142798062 -0.037833049132269 -0.0125410176015649
0.000612946097847408 -0.0427001300550405 -0.0134343976013895
0.000888928425864362 -0.0424852761095024 -0.0134533607013869
0.00116491075388132 -0.0422704221639642 -0.0134723238013844
0.00144089308189827 -0.0420555682184261 -0.0134912869013819
0.00171687540991523 -0.0418407142728879 -0.0135102500013794
0.00199285773793218 -0.0416258603273498 -0.0135292131013768
0.00226884006594914 -0.0414110063818117 -0.0135481762013743
0.00254482239396609 -0.0411961524362735 -0.0135671393013718
0.00282080472198305 -0.0409812984907353 -0.0135861024013693
0.000632778943869206 -0.0459621737614633 -0.014467812801191
0.000902673827883739 -0.0457330955224306 -0.0144882346011888
0.00117256871189827 -0.0455040172833979 -0.0145086564011866
0.0014424635959128 -0.0452749390443652 -0.0145290782011845
0.00171235847992734 -0.0450458608053325 -0.0145495000011823
0.00198225336394187 -0.0448167825662998 -0.0145699218011802
0.0022521482479564 -0.0445877043272671 -0.014590343601178
0.00252204313197093 -0.0443586260882344 -0.0146107654011758
0.00279193801598547 -0.0441295478492017 -0.0146311872011737
0.000652611789891005 -0.0492242174678861 -0.0155012280009925
0.000916419229903116 -0.0489809149353589 -0.0155231085009907
0.00118022666991523 -0.0487376124028316 -0.0155449890009889
0.00144403410992734 -0.0484943098703044 -0.0155668695009871
0.00170784154993945 -0.0482510073377771 -0.0155887500009853
0.00197164898995156 -0.0480077048052499 -0.0156106305009835
0.00223545642996367 -0.0477644022727226 -0.0156325110009817
0.00249926386997578 -0.0475210997401954 -0.0156543915009799
0.00276307130998789 -0.0472777972076681 -0.015676272000978
0.000672444635912804 -0.0524862611743089 -0.016534643200794
0.000930164631922493 -0.0522287343482871 -0.0165579824007925
0.00118788462793218 -0.0519712075222653 -0.0165813216007911
0.00144560462394187 -0.0517136806962435 -0.0166046608007897
0.00170332461995156 -0.0514561538702217 -0.0166280000007882
0.00196104461596125 -0.0511986270441999 -0.0166513392007868
0.00221876461197093 -0.0509411002181781 -0.0166746784007853
0.00247648460798062 -0.0506835733921563 -0.0166980176007839
0.00273420460399031 -0.0504260465661345 -0.0167213568007824
0.000692277481934603 -0.0557483048807317 -0.0175680584005955
0.00094391003394187 -0.0554765537612153 -0.0175928563005944
0.00119554258594914 -0.055204802641699 -0.0176176542005933
0.0014471751379564 -0.0549330515221826 -0.0176424521005922
0.00169880768996367 -0.0546613004026663 -0.0176672500005912
0.00195044024197093 -0.0543895492831499 -0.0176920479005901
0.0022020727939782 -0.0541177981636336 -0.017716845800589
0.00245370534598547 -0.0538460470441172 -0.0177416437005879
0.00270533789799273 -0.0535742959246009 -0.0177664416005868
0.000712110327956402 -0.0590103485871544 -0.018601473600397
0.000957655435961246 -0.0587243731741435 -0.0186277302003963
0.00120320054396609 -0.0584383977611326 -0.0186539868003955
0.00144874565197093 -0.0581524223481217 -0.0186802434003948
0.00169429075997578 -0.0578664469351108 -0.0187065000003941
0.00193983586798062 -0.0575804715220999 -0.0187327566003934
0.00218538097598547 -0.057294496109089 -0.0187590132003927
0.00243092608399031 -0.0570085206960781 -0.0187852698003919
0.00267647119199516 -0.0567225452830672 -0.0188115264003912
0.000731943173978201 -0.0622723922935772 -0.0196348888001985
0.000971400837980623 -0.0619721925870718 -0.0196626041001981
0.00121085850198305 -0.0616719928805663 -0.0196903194001978
0.00145031616598547 -0.0613717931740609 -0.0197180347001974
0.00168977382998789 -0.0610715934675554 -0.0197457500001971
0.00192923149399031 -0.06077139376105 -0.0197734653001967
0.00216868915799273 -0.0604711940545445 -0.0198011806001963
0.00240814682199516 -0.0601709943480391 -0.019828895900196
0.00264760448599758 -0.0598707946415336 -0.0198566112001956
0.00075177602 -0.065534436 -0.020668304
0.00098514624 -0.065220012 -0.020697478
0.00121851646 -0.064905588 -0.020726652
0.00145188668 -0.064591164 -0.020755826
0.0016852569 -0.06427674 -0.020785
0.00191862712 -0.063962316 -0.020814174
0.00215199734 -0.063647892 -0.020843348
0.00238536756 -0.063333468 -0.020872522
0.00261873778 -0.063019044 -0.020901696
0.0008240074995 -0.0721711442 -0.0210132788
0.001051506644 -0.0718609314 -0.0210436421
0.0012790057885 -0.0715507186 -0.0210740054
0.001506504933 -0.0712405058 -0.0211043687
0.0017340040775 -0.070930293 -0.021134732
0.001961503222 -0.0706200802 -0.0211650953
0.0021890023665 -0.0703098674 -0.0211954586
0.002416501511 -0.0699996546 -0.0212258219
0.0026440006555 -0.0696894418 -0.0212561852
0.000896238979 -0.0788078524 -0.0213582536
0.001117867048 -0.0785018508 -0.0213898062
0.001339495117 -0.0781958492 -0.0214213588
0.001561123186 -0.0778898476 -0.0214529114
0.001782751255 -0.077583846 -0.021484464
0.002004379324 -0.0772778444 -0.0215160166
0.002226007393 -0.0769718428 -0.0215475692
0.002447635462 -0.0766658412 -0.0215791218
0.002669263531 -0.0763598396 -0.0216106744
0.0009684704585 -0.0854445606 -0.0217032284
0.001184227452 -0.0851427702 -0.0217359703
0.0013999844455 -0.0848409798 -0.0217687122
0.001615741439 -0.0845391894 -0.0218014541
0.0018314984325 -0.084237399 -0.021834196
0.002047255426 -0.0839356086 -0.0218669379
0.0022630124195 -0.0836338182 -0.0218996798
0.002478769413 -0.0833320278 -0.0219324217
0.0026945264065 -0.0830302374 -0.0219651636
0.001040701938 -0.0920812688 -0.0220482032
0.001250587856 -0.0917836896 -0.0220821344
0.001460473774 -0.0914861104 -0.0221160656
0.001670359692 -0.0911885312 -0.0221499968
0.00188024561 -0.090890952 -0.022183928
0.002090131528 -0.0905933728 -0.0222178592
0.002300017446 -0.0902957936 -0.0222517904
0.002509903364 -0.0899982144 -0.0222857216
0.002719789282 -0.0897006352 -0.0223196528
0.0011129334175 -0.098717977 -0.022393178
0.00131694826 -0.098424609 -0.0224282985
0.0015209631025 -0.098131241 -0.022463419
0.001724977945 -0.097837873 -0.0224985395
0.0019289927875 -0.097544505 -0.02253366
0.00213300763 -0.097251137 -0.0225687805
0.0023370224725 -0.096957769 -0.022603901
0.002541037315 -0.096664401 -0.0226390215
0.0027450521575 -0.096371033 -0.022674142
0.001185164897 -0.1053546852 -0.0227381528
0.001383308664 -0.1050655284 -0.0227744626
0.001581452431 -0.1047763716 -0.0228107724
0.001779596198 -0.1044872148 -0.0228470822
0.001977739965 -0.104198058 -0.022883392
0.002175883732 -0.1039089012 -0.0229197018
0.002374027499 -0.1036197444 -0.0229560116
0.002572171266 -0.1033305876 -0.0229923214
0.002770315033 -0.1030414308 -0.0230286312
0.0012573963765 -0.1119913934 -0.0230831276
0.001449669068 -0.1117064478 -0.0231206267
0.0016419417595 -0.1114215022 -0.0231581258
0.001834214451 -0.1111365566 -0.0231956249
0.0020264871425 -0.110851611 -0.023233124
0.002218759834 -0.1105666654 -0.0232706231
0.0024110325255 -0.1102817198 -0.0233081222
0.002603305217 -0.1099967742 -0.0233456213
0.0027955779085 -0.1097118286 -0.0233831204
0.001329627856 -0.1186281016 -0.0234281024
0.001516029472 -0.1183473672 -0.0234667908
0.001702431088 -0.1180666328 -0.0235054792
0.001888832704 -0.1177858984 -0.0235441676
0.00207523432 -0.117505164 -0.023582856
0.002261635936 -0.1172244296 -0.0236215444
0.002448037552 -0.1169436952 -0.0236602328
0.002634439168 -0.1166629608 -0.0236989212
0.002820840784 -0.1163822264 -0.0237376096
0.0014018593355 -0.1252648098 -0.0237730772
0.001582389876 -0.1249882866 -0.0238129549
0.0017629204165 -0.1247117634 -0.0238528326
0.001943450957 -0.1244352402 -0.0238927103
0.0021239814975 -0.124158717 -0.023932588
0.002304512038 -0.1238821938 -0.0239724657
0.0024850425785 -0.1236056706 -0.0240123434
0.002665573119 -0.1233291474 -0.0240522211
0.0028461036595 -0.1230526242 -0.0240920988
0.001474090815 -0.131901518 -0.024118052
0.00164875028 -0.131629206 -0.024159119
0.001823409745 -0.131356894 -0.024200186
0.00199806921 -0.131084582 -0.024241253
0.002172728675 -0.13081227 -0.02428232
0.00234738814 -0.130539958 -0.024323387
0.002522047605 -0.130267646 -0.024364454
0.00269670707 -0.129995334 -0.024405521
0.002871366535 -0.129723022 -0.024446588
0.0015463222945 -0.1385382262 -0.0244630268
0.001715110684 -0.1382701254 -0.0245052831
0.0018838990735 -0.1380020246 -0.0245475394
0.002052687463 -0.1377339238 -0.0245897957
0.0022214758525 -0.137465823 -0.024632052
0.002390264242 -0.1371977222 -0.0246743083
0.0025590526315 -0.1369296214 -0.0247165646
0.002727841021 -0.1366615206 -0.0247588209
0.0028966294105 -0.1363934198 -0.0248010772
0.001618553774 -0.1451749344 -0.0248080016
0.001781471088 -0.1449110448 -0.0248514472
0.001944388402 -0.1446471552 -0.0248948928
0.002107305716 -0.1443832656 -0.0249383384
0.00227022303 -0.144119376 -0.024981784
0.002433140344 -0.1438554864 -0.0250252296
0.002596057658 -0.1435915968 -0.0250686752
0.002758974972 -0.1433277072 -0.0251121208
0.002921892286 -0.1430638176 -0.0251555664
0.0016907852535 -0.1518116426 -0.0251529764
0.001847831492 -0.1515519642 -0.0251976113
0.0020048777305 -0.1512922858 -0.0252422462
0.002161923969 -0.1510326074 -0.0252868811
0.0023189702075 -0.150772929 -0.025331516
0.002476016446 -0.1505132506 -0.0253761509
0.0026330626845 -0.1502535722 -0.0254207858
0.002790108923 -0.1499938938 -0.0254654207
0.0029471551615 -0.1497342154 -0.0255100556
0.001763016733 -0.1584483508 -0.0254979512
0.001914191896 -0.1581928836 -0.0255437754
0.002065367059 -0.1579374164 -0.0255895996
0.002216542222 -0.1576819492 -0.0256354238
0.002367717385 -0.157426482 -0.025681248
0.002518892548 -0.1571710148 -0.0257270722
0.002670067711 -0.1569155476 -0.0257728964
0.002821242874 -0.1566600804 -0.0258187206
0.002972418037 -0.1564046132 -0.0258645448
0.0018352482125 -0.165085059 -0.025842926
0.0019805523 -0.164833803 -0.0258899395
0.0021258563875 -0.164582547 -0.025936953
0.002271160475 -0.164331291 -0.0259839665
0.0024164645625 -0.164080035 -0.02603098
0.00256176865 -0.163828779 -0.0260779935
0.0027070727375 -0.163577523 -0.026125007
0.002852376825 -0.163326267 -0.0261720205
0.0029976809125 -0.163075011 -0.026219034
0.001907479692 -0.1717217672 -0.0261879008
0.002046912704 -0.1714747224 -0.0262361036
0.002186345716 -0.1712276776 -0.0262843064
0.002325778728 -0.1709806328 -0.0263325092
0.00246521174 -0.170733588 -0.026380712
0.002604644752 -0.1704865432 -0.0264289148
0.002744077764 -0.1702394984 -0.0264771176
0.002883510776 -0.1699924536 -0.0265253204
0.003022943788 -0.1697454088 -0.0265735232
0.0019797111715 -0.1783584754 -0.0265328756
0.002113273108 -0.1781156418 -0.0265822677
0.0022468350445 -0.1778728082 -0.0266316598
0.002380396981 -0.1776299746 -0.0266810519
0.0025139589175 -0.177387141 -0.026730444
0.002647520854 -0.1771443074 -0.0267798361
0.0027810827905 -0.1769014738 -0.0268292282
0.002914644727 -0.1766586402 -0.0268786203
0.0030482066635 -0.1764158066 -0.0269280124
0.002051942651 -0.1849951836 -0.0268778504
0.002179633512 -0.1847565612 -0.0269284318
0.002307324373 -0.1845179388 -0.0269790132
0.002435015234 -0.1842793164 -0.0270295946
0.002562706095 -0.184040694 -0.027080176
0.002690396956 -0.1838020716 -0.0271307574
0.002818087817 -0.1835634492 -0.0271813388
0.002945778678 -0.1833248268 -0.0272319202
0.003073469539 -0.1830862044 -0.0272825016
0.0021241741305 -0.1916318918 -0.0272228252
0.002245993916 -0.1913974806 -0.0272745959
0.0023678137015 -0.1911630694 -0.0273263666
0.002489633487 -0.1909286582 -0.0273781373
0.0026114532725 -0.190694247 -0.027429908
0.002733273058 -0.1904598358 -0.0274816787
0.0028550928435 -0.1902254246 -0.0275334494
0.002976912629 -0.1899910134 -0.0275852201
0.0030987324145 -0.1897566022 -0.0276369908
0.000562148521852857 -0.0362509487836178 -0.00845979090133984
0.000780778263869207 -0.0360552215665742 -0.00847798380133741
0.000999408005885556 -0.0358594943495306 -0.00849617670133497
0.0012180377479019 -0.035663767132487 -0.00851436960133254
0.00143666748991825 -0.0354680399154434 -0.0085325625013301
0.0016552972319346 -0.0352723126983998 -0.00855075540132767
0.00187392697395095 -0.0350765854813562 -0.00856894830132524
0.0020925567159673 -0.0348808582643126 -0.0085871412013228
0.00231118645798365 -0.034685131047269 -0.00860533410132037
0.000587573823869207 -0.0394931146965491 -0.00922886280119097
0.000800399887883739 -0.0392850373925104 -0.00924870960118881
0.00101322595189827 -0.0390769600884716 -0.00926855640118664
0.0012260520159128 -0.0388688827844329 -0.00928840320118448
0.00143887807992734 -0.0386608054803941 -0.00930825000118232
0.00165170414394187 -0.0384527281763554 -0.00932809680118015
0.0018645302079564 -0.0382446508723166 -0.00934794360117799
0.00207735627197093 -0.0380365735682778 -0.00936779040117582
0.00229018233598547 -0.0378284962642391 -0.00938763720117366
0.000612999125885556 -0.0427352806094805 -0.0099979347010421
0.000820021511898272 -0.0425148532184466 -0.0100194354010402
0.00102704389791099 -0.0422944258274127 -0.0100409361010383
0.0012340662839237 -0.0420739984363788 -0.0100624368010364
0.00144108866993642 -0.0418535710453448 -0.0100839375010345
0.00164811105594914 -0.0416331436543109 -0.0101054382010326
0.00185513344196185 -0.041412716263277 -0.0101269389010307
0.00206215582797457 -0.0411922888722431 -0.0101484396010288
0.00226917821398728 -0.0409718614812092 -0.010169940301027
0.000638424427901905 -0.0459774465224118 -0.0107670066008932
0.000839643135912804 -0.0457446690443828 -0.0107901612008916
0.0010408618439237 -0.0455118915663537 -0.01081331580089
0.0012420805519346 -0.0452791140883246 -0.0108364704008884
0.0014432992599455 -0.0450463366102956 -0.0108596250008867
0.0016445179679564 -0.0448135591322665 -0.0108827796008851
0.0018457366759673 -0.0445807816542374 -0.0109059342008835
0.0020469553839782 -0.0443480041762084 -0.0109290888008819
0.0022481740919891 -0.0441152266981793 -0.0109522434008802
0.000663849729918254 -0.0492196124353432 -0.0115360785007444
0.000859264759927337 -0.048974484870319 -0.011560887000743
0.00105467978993642 -0.0487293573052948 -0.0115856955007417
0.0012500948199455 -0.0484842297402705 -0.0116105040007403
0.00144550984995459 -0.0482391021752463 -0.0116353125007389
0.00164092487996367 -0.0479939746102221 -0.0116601210007376
0.00183633990997275 -0.0477488470451979 -0.0116849295007362
0.00203175493998183 -0.0475037194801737 -0.0117097380007349
0.00222716996999092 -0.0472585919151494 -0.0117345465007335
0.000689275031934603 -0.0524617783482746 -0.0123051504005955
0.00087888638394187 -0.0522043006962552 -0.0123316128005944
0.00106849773594914 -0.0519468230442358 -0.0123580752005933
0.0012581090879564 -0.0516893453922164 -0.0123845376005922
0.00144772043996367 -0.0514318677401971 -0.0124110000005912
0.00163733179197093 -0.0511743900881777 -0.0124374624005901
0.0018269431439782 -0.0509169124361583 -0.012463924800589
0.00201655449598547 -0.0506594347841389 -0.0124903872005879
0.00220616584799273 -0.0504019571321195 -0.0125168496005868
0.000714700333950952 -0.0557039442612059 -0.0130742223004466
0.000898508007956402 -0.0554341165221914 -0.0131023386004458
0.00108231568196185 -0.0551642887831769 -0.013130454900445
0.0012661233559673 -0.0548944610441623 -0.0131585712004442
0.00144993102997275 -0.0546246333051478 -0.0131866875004434
0.0016337387039782 -0.0543548055661333 -0.0132148038004426
0.00181754637798365 -0.0540849778271187 -0.0132429201004417
0.0020013540519891 -0.0538151500881042 -0.0132710364004409
0.00218516172599455 -0.0535453223490897 -0.0132991527004401
0.000740125635967302 -0.0589461101741373 -0.0138432942002977
0.000918129631970935 -0.0586639323481276 -0.0138730644002972
0.00109613362797457 -0.0583817545221179 -0.0139028346002967
0.0012741376239782 -0.0580995766961082 -0.0139326048002961
0.00145214161998183 -0.0578173988700985 -0.0139623750002956
0.00163014561598547 -0.0575352210440888 -0.013992145200295
0.0018081496119891 -0.0572530432180791 -0.0140219154002945
0.00198615360799273 -0.0569708653920695 -0.014051685600294
0.00216415760399637 -0.0566886875660598 -0.0140814558002934
0.000765550937983651 -0.0621882760870686 -0.0146123661001489
0.000937751255985467 -0.0618937481740638 -0.0146437902001486
0.00110995157398728 -0.061599220261059 -0.0146752143001483
0.0012821518919891 -0.0613046923480541 -0.0147066384001481
0.00145435220999092 -0.0610101644350493 -0.0147380625001478
0.00162655252799273 -0.0607156365220444 -0.0147694866001475
0.00179875284599455 -0.0604211086090396 -0.0148009107001472
0.00197095316399637 -0.0601265806960347 -0.014832334800147
0.00214315348199818 -0.0598320527830299 -0.0148637589001467
0.00079097624 -0.065430442 -0.015381438
0.00095737288 -0.065123564 -0.015414516
0.00112376952 -0.064816686 -0.015447594
0.00129016616 -0.064509808 -0.015480672
0.0014565628 -0.06420293 -0.01551375
0.00162295944 -0.063896052 -0.015546828
0.00178935608 -0.063589174 -0.015579906
0.00195575272 -0.063282296 -0.015612984
0.00212214936 -0.062975418 -0.015646062
0.000850361239 -0.0720817199 -0.0156368326
0.001013592668 -0.0717785058 -0.0156706992
0.001176824097 -0.0714752917 -0.0157045658
0.001340055526 -0.0711720776 -0.0157384324
0.001503286955 -0.0708688635 -0.015772299
0.001666518384 -0.0705656494 -0.0158061656
0.001829749813 -0.0702624353 -0.0158400322
0.001992981242 -0.0699592212 -0.0158738988
0.002156212671 -0.0696560071 -0.0159077654
0.000909746238 -0.0787329978 -0.0158922272
0.001069812456 -0.0784334476 -0.0159268824
0.001229878674 -0.0781338974 -0.0159615376
0.001389944892 -0.0778343472 -0.0159961928
0.00155001111 -0.077534797 -0.016030848
0.001710077328 -0.0772352468 -0.0160655032
0.001870143546 -0.0769356966 -0.0161001584
0.002030209764 -0.0766361464 -0.0161348136
0.002190275982 -0.0763365962 -0.0161694688
0.000969131237 -0.0853842757 -0.0161476218
0.001126032244 -0.0850883894 -0.0161830656
0.001282933251 -0.0847925031 -0.0162185094
0.001439834258 -0.0844966168 -0.0162539532
0.001596735265 -0.0842007305 -0.016289397
0.001753636272 -0.0839048442 -0.0163248408
0.001910537279 -0.0836089579 -0.0163602846
0.002067438286 -0.0833130716 -0.0163957284
0.002224339293 -0.0830171853 -0.0164311722
0.001028516236 -0.0920355536 -0.0164030164
0.001182252032 -0.0917433312 -0.0164392488
0.001335987828 -0.0914511088 -0.0164754812
0.001489723624 -0.0911588864 -0.0165117136
0.00164345942 -0.090866664 -0.016547946
0.001797195216 -0.0905744416 -0.0165841784
0.001950931012 -0.0902822192 -0.0166204108
0.002104666808 -0.0899899968 -0.0166566432
0.002258402604 -0.0896977744 -0.0166928756
0.001087901235 -0.0986868315 -0.016658411
0.00123847182 -0.098398273 -0.016695432
0.001389042405 -0.0981097145 -0.016732453
0.00153961299 -0.097821156 -0.016769474
0.001690183575 -0.0975325975 -0.016806495
0.00184075416 -0.097244039 -0.016843516
0.001991324745 -0.0969554805 -0.016880537
0.00214189533 -0.096666922 -0.016917558
0.002292465915 -0.0963783635 -0.016954579
0.001147286234 -0.1053381094 -0.0169138056
0.001294691608 -0.1050532148 -0.0169516152
0.001442096982 -0.1047683202 -0.0169894248
0.001589502356 -0.1044834256 -0.0170272344
0.00173690773 -0.104198531 -0.017065044
0.001884313104 -0.1039136364 -0.0171028536
0.002031718478 -0.1036287418 -0.0171406632
0.002179123852 -0.1033438472 -0.0171784728
0.002326529226 -0.1030589526 -0.0172162824
0.001206671233 -0.1119893873 -0.0171692002
0.001350911396 -0.1117081566 -0.0172077984
0.001495151559 -0.1114269259 -0.0172463966
0.001639391722 -0.1111456952 -0.0172849948
0.001783631885 -0.1108644645 -0.017323593
0.001927872048 -0.1105832338 -0.0173621912
0.002072112211 -0.1103020031 -0.0174007894
0.002216352374 -0.1100207724 -0.0174393876
0.002360592537 -0.1097395417 -0.0174779858
0.001266056232 -0.1186406652 -0.0174245948
0.001407131184 -0.1183630984 -0.0174639816
0.001548206136 -0.1180855316 -0.0175033684
0.001689281088 -0.1178079648 -0.0175427552
0.00183035604 -0.117530398 -0.017582142
0.001971430992 -0.1172528312 -0.0176215288
0.002112505944 -0.1169752644 -0.0176609156
0.002253580896 -0.1166976976 -0.0177003024
0.002394655848 -0.1164201308 -0.0177396892
0.001325441231 -0.1252919431 -0.0176799894
0.001463350972 -0.1250180402 -0.0177201648
0.001601260713 -0.1247441373 -0.0177603402
0.001739170454 -0.1244702344 -0.0178005156
0.001877080195 -0.1241963315 -0.017840691
0.002014989936 -0.1239224286 -0.0178808664
0.002152899677 -0.1236485257 -0.0179210418
0.002290809418 -0.1233746228 -0.0179612172
0.002428719159 -0.1231007199 -0.0180013926
0.00138482623 -0.131943221 -0.017935384
0.00151957076 -0.131672982 -0.017976348
0.00165431529 -0.131402743 -0.018017312
0.00178905982 -0.131132504 -0.018058276
0.00192380435 -0.130862265 -0.01809924
0.00205854888 -0.130592026 -0.018140204
0.00219329341 -0.130321787 -0.018181168
0.00232803794 -0.130051548 -0.018222132
0.00246278247 -0.129781309 -0.018263096
0.001444211229 -0.1385944989 -0.0181907786
0.001575790548 -0.1383279238 -0.0182325312
0.001707369867 -0.1380613487 -0.0182742838
0.001838949186 -0.1377947736 -0.0183160364
0.001970528505 -0.1375281985 -0.018357789
0.002102107824 -0.1372616234 -0.0183995416
0.002233687143 -0.1369950483 -0.0184412942
0.002365266462 -0.1367284732 -0.0184830468
0.002496845781 -0.1364618981 -0.0185247994
0.001503596228 -0.1452457768 -0.0184461732
0.001632010336 -0.1449828656 -0.0184887144
0.001760424444 -0.1447199544 -0.0185312556
0.001888838552 -0.1444570432 -0.0185737968
0.00201725266 -0.144194132 -0.018616338
0.002145666768 -0.1439312208 -0.0186588792
0.002274080876 -0.1436683096 -0.0187014204
0.002402494984 -0.1434053984 -0.0187439616
0.002530909092 -0.1431424872 -0.0187865028
0.001562981227 -0.1518970547 -0.0187015678
0.001688230124 -0.1516378074 -0.0187448976
0.001813479021 -0.1513785601 -0.0187882274
0.001938727918 -0.1511193128 -0.0188315572
0.002063976815 -0.1508600655 -0.018874887
0.002189225712 -0.1506008182 -0.0189182168
0.002314474609 -0.1503415709 -0.0189615466
0.002439723506 -0.1500823236 -0.0190048764
0.002564972403 -0.1498230763 -0.0190482062
0.001622366226 -0.1585483326 -0.0189569624
0.001744449912 -0.1582927492 -0.0190010808
0.001866533598 -0.1580371658 -0.0190451992
0.001988617284 -0.1577815824 -0.0190893176
0.00211070097 -0.157525999 -0.019133436
0.002232784656 -0.1572704156 -0.0191775544
0.002354868342 -0.1570148322 -0.0192216728
0.002476952028 -0.1567592488 -0.0192657912
0.002599035714 -0.1565036654 -0.0193099096
0.001681751225 -0.1651996105 -0.019212357
0.0018006697 -0.164947691 -0.019257264
0.001919588175 -0.1646957715 -0.019302171
0.00203850665 -0.164443852 -0.019347078
0.002157425125 -0.1641919325 -0.019391985
0.0022763436 -0.163940013 -0.019436892
0.002395262075 -0.1636880935 -0.019481799
0.00251418055 -0.163436174 -0.019526706
0.002633099025 -0.1631842545 -0.019571613
0.001741136224 -0.1718508884 -0.0194677516
0.001856889488 -0.1716026328 -0.0195134472
0.001972642752 -0.1713543772 -0.0195591428
0.002088396016 -0.1711061216 -0.0196048384
0.00220414928 -0.170857866 -0.019650534
0.002319902544 -0.1706096104 -0.0196962296
0.002435655808 -0.1703613548 -0.0197419252
0.002551409072 -0.1701130992 -0.0197876208
0.002667162336 -0.1698648436 -0.0198333164
0.001800521223 -0.1785021663 -0.0197231462
0.001913109276 -0.1782575746 -0.0197696304
0.002025697329 -0.1780129829 -0.0198161146
0.002138285382 -0.1777683912 -0.0198625988
0.002250873435 -0.1775237995 -0.019909083
0.002363461488 -0.1772792078 -0.0199555672
0.002476049541 -0.1770346161 -0.0200020514
0.002588637594 -0.1767900244 -0.0200485356
0.002701225647 -0.1765454327 -0.0200950198
0.001859906222 -0.1851534442 -0.0199785408
0.001969329064 -0.1849125164 -0.0200258136
0.002078751906 -0.1846715886 -0.0200730864
0.002188174748 -0.1844306608 -0.0201203592
0.00229759759 -0.184189733 -0.020167632
0.002407020432 -0.1839488052 -0.0202149048
0.002516443274 -0.1837078774 -0.0202621776
0.002625866116 -0.1834669496 -0.0203094504
0.002735288958 -0.1832260218 -0.0203567232
0.001919291221 -0.1918047221 -0.0202339354
0.002025548852 -0.1915674582 -0.0202819968
0.002131806483 -0.1913301943 -0.0203300582
0.002238064114 -0.1910929304 -0.0203781196
0.002344321745 -0.1908556665 -0.020426181
0.002450579376 -0.1906184026 -0.0204742424
0.002556837007 -0.1903811387 -0.0205223038
0.002663094638 -0.1901438748 -0.0205703652
0.002769352269 -0.1899066109 -0.0206184266
0.000551016637901905 -0.0363258549250405 -0.00555201460089323
0.000700118905912804 -0.0361208058495024 -0.00557235470089161
0.000849221173923704 -0.0359157567739642 -0.00559269480088998
0.000998323441934603 -0.0357107076984261 -0.00561303490088836
0.0011474257099455 -0.0355056586228879 -0.00563337500088674
0.0012965279779564 -0.0353006095473498 -0.00565371510088511
0.0014456302459673 -0.0350955604718117 -0.00567405520088349
0.0015947325139782 -0.0348905113962735 -0.00569439530088187
0.0017438347819891 -0.0346854623207354 -0.00571473540088025
0.000582034395912804 -0.0395481430444805 -0.00605674320079398
0.000725616751922493 -0.0393326180884466 -0.00607893240079254
0.000869199107932181 -0.0391170931324127 -0.0061011216007911
0.00101278146394187 -0.0389015681763787 -0.00612331080078965
0.00115636381995156 -0.0386860432203448 -0.00614550000078821
0.00129994617596125 -0.0384705182643109 -0.00616768920078677
0.00144352853197093 -0.038254993308277 -0.00618987840078533
0.00158711088798062 -0.0380394683522431 -0.00621206760078388
0.00173069324399031 -0.0378239433962092 -0.00623425680078244
0.000613052153923704 -0.0427704311639204 -0.00656147180069473
0.000751114597932181 -0.0425444303273907 -0.00658551010069347
0.000889177041940658 -0.0423184294908611 -0.00660954840069221
0.00102723948594914 -0.0420924286543314 -0.00663358670069095
0.00116530192995761 -0.0418664278178017 -0.00665762500068968
0.00130336437396609 -0.0416404269812721 -0.00668166330068842
0.00144142681797457 -0.0414144261447424 -0.00670570160068716
0.00157948926198305 -0.0411884253082127 -0.0067297399006859
0.00171755170599152 -0.0409624244716831 -0.00675377820068464
0.000644069911934603 -0.0459927192833604 -0.00706620040059549
0.00077661244394187 -0.0457562425663349 -0.0070920878005944
0.000909154975949136 -0.0455197658493095 -0.00711797520059332
0.0010416975079564 -0.0452832891322841 -0.00714386260059224
0.00117424003996367 -0.0450468124152586 -0.00716975000059116
0.00130678257197093 -0.0448103356982332 -0.00719563740059008
0.0014393251039782 -0.0445738589812078 -0.00722152480058899
0.00157186763598547 -0.0443373822641823 -0.00724741220058791
0.00170441016799273 -0.0441009055471569 -0.00727329960058683
0.000675087669945503 -0.0492150074028003 -0.00757092900049624
0.000802110289951558 -0.0489680548052791 -0.00759866550049534
0.000929132909957613 -0.0487211022077579 -0.00762640200049443
0.00105615552996367 -0.0484741496102367 -0.00765413850049353
0.00118317814996972 -0.0482271970127155 -0.00768187500049263
0.00131020076997578 -0.0479802444151943 -0.00770961150049173
0.00143722338998183 -0.0477332918176731 -0.00773734800049083
0.00156424600998789 -0.0474863392201519 -0.00776508450048993
0.00169126862999394 -0.0472393866226308 -0.00779282100048903
0.000706105427956402 -0.0524372955222402 -0.00807565760039699
0.000827608135961246 -0.0521798670442233 -0.00810524320039627
0.000949110843966091 -0.0519224385662063 -0.00813482880039555
0.00107061355197093 -0.0516650100881894 -0.00816441440039483
0.00119211625997578 -0.0514075816101724 -0.00819400000039411
0.00131361896798062 -0.0511501531321555 -0.00822358560039338
0.00143512167598547 -0.0508927246541385 -0.00825317120039266
0.00155662438399031 -0.0506352961761216 -0.00828275680039194
0.00167812709199516 -0.0503778676981046 -0.00831234240039122
0.000737123185967302 -0.0556595836416802 -0.00858038620029774
0.000853105981970935 -0.0553916792831675 -0.0086118209002972
0.000969088777974568 -0.0551237749246547 -0.00864325560029666
0.0010850715739782 -0.054855870566142 -0.00867469030029612
0.00120105436998183 -0.0545879662076293 -0.00870612500029558
0.00131703716598547 -0.0543200618491166 -0.00873755970029504
0.0014330199619891 -0.0540521574906039 -0.0087689944002945
0.00154900275799273 -0.0537842531320912 -0.00880042910029396
0.00166498555399637 -0.0535163487735784 -0.00883186380029342
0.000768140943978201 -0.0588818717611201 -0.0090851148001985
0.000878603827980623 -0.0586034915221116 -0.00911839860019813
0.000989066711983045 -0.0583251112831032 -0.00915168240019777
0.00109952959598547 -0.0580467310440947 -0.00918496620019741
0.00120999247998789 -0.0577683508050862 -0.00921825000019705
0.00132045536399031 -0.0574899705660777 -0.00925153380019669
0.00143091824799273 -0.0572115903270693 -0.00928481760019633
0.00154138113199516 -0.0569332100880608 -0.00931810140019597
0.00165184401599758 -0.0566548298490523 -0.00935138520019561
0.000799158701989101 -0.0621041598805601 -0.00958984340009925
0.000904101673990312 -0.0618153037610558 -0.00962497630009907
0.00100904464599152 -0.0615264476415516 -0.00966010920009889
0.00111398761799273 -0.0612375915220473 -0.00969524210009871
0.00121893058999394 -0.0609487354025431 -0.00973037500009853
0.00132387356199516 -0.0606598792830389 -0.00976550790009835
0.00142881653399637 -0.0603710231635346 -0.00980064080009817
0.00153375950599758 -0.0600821670440304 -0.00983577370009799
0.00163870247799879 -0.0597933109245262 -0.00987090660009781
0.00083017646 -0.065326448 -0.010094572
0.00092959952 -0.065027116 -0.010131554
0.00102902258 -0.064727784 -0.010168536
0.00112844564 -0.064428452 -0.010205518
0.0012278687 -0.06412912 -0.0102425
0.00132729176 -0.063829788 -0.010279482
0.00142671482 -0.063530456 -0.010316464
0.00152613788 -0.063231124 -0.010353446
0.00162556094 -0.062931792 -0.010390428
0.0008767149785 -0.0719922956 -0.0102603864
0.000975678692 -0.0716960802 -0.0102977563
0.0010746424055 -0.0713998648 -0.0103351262
0.001173606119 -0.0711036494 -0.0103724961
0.0012725698325 -0.070807434 -0.010409866
0.001371533546 -0.0705112186 -0.0104472359
0.0014704972595 -0.0702150032 -0.0104846058
0.001569460973 -0.0699187878 -0.0105219757
0.0016684246865 -0.0696225724 -0.0105593456
0.000923253497 -0.0786581432 -0.0104262008
0.001021757864 -0.0783650444 -0.0104639586
0.001120262231 -0.0780719456 -0.0105017164
0.001218766598 -0.0777788468 -0.0105394742
0.001317270965 -0.077485748 -0.010577232
0.001415775332 -0.0771926492 -0.0106149898
0.001514279699 -0.0768995504 -0.0106527476
0.001612784066 -0.0766064516 -0.0106905054
0.001711288433 -0.0763133528 -0.0107282632
0.0009697920155 -0.0853239908 -0.0105920152
0.001067837036 -0.0850340086 -0.0106301609
0.0011658820565 -0.0847440264 -0.0106683066
0.001263927077 -0.0844540442 -0.0107064523
0.0013619720975 -0.084164062 -0.010744598
0.001460017118 -0.0838740798 -0.0107827437
0.0015580621385 -0.0835840976 -0.0108208894
0.001656107159 -0.0832941154 -0.0108590351
0.0017541521795 -0.0830041332 -0.0108971808
0.001016330534 -0.0919898384 -0.0107578296
0.001113916208 -0.0917029728 -0.0107963632
0.001211501882 -0.0914161072 -0.0108348968
0.001309087556 -0.0911292416 -0.0108734304
0.00140667323 -0.090842376 -0.010911964
0.001504258904 -0.0905555104 -0.0109504976
0.001601844578 -0.0902686448 -0.0109890312
0.001699430252 -0.0899817792 -0.0110275648
0.001797015926 -0.0896949136 -0.0110660984
0.0010628690525 -0.098655686 -0.010923644
0.00115999538 -0.098371937 -0.0109625655
0.0012571217075 -0.098088188 -0.011001487
0.001354248035 -0.097804439 -0.0110404085
0.0014513743625 -0.09752069 -0.01107933
0.00154850069 -0.097236941 -0.0111182515
0.0016456270175 -0.096953192 -0.011157173
0.001742753345 -0.096669443 -0.0111960945
0.0018398796725 -0.096385694 -0.011235016
0.001109407571 -0.1053215336 -0.0110894584
0.001206074552 -0.1050409012 -0.0111287678
0.001302741533 -0.1047602688 -0.0111680772
0.001399408514 -0.1044796364 -0.0112073866
0.001496075495 -0.104199004 -0.011246696
0.001592742476 -0.1039183716 -0.0112860054
0.001689409457 -0.1036377392 -0.0113253148
0.001786076438 -0.1033571068 -0.0113646242
0.001882743419 -0.1030764744 -0.0114039336
0.0011559460895 -0.1119873812 -0.0112552728
0.001252153724 -0.1117098654 -0.0112949701
0.0013483613585 -0.1114323496 -0.0113346674
0.001444568993 -0.1111548338 -0.0113743647
0.0015407766275 -0.110877318 -0.011414062
0.001636984262 -0.1105998022 -0.0114537593
0.0017331918965 -0.1103222864 -0.0114934566
0.001829399531 -0.1100447706 -0.0115331539
0.0019256071655 -0.1097672548 -0.0115728512
0.001202484608 -0.1186532288 -0.0114210872
0.001298232896 -0.1183788296 -0.0114611724
0.001393981184 -0.1181044304 -0.0115012576
0.001489729472 -0.1178300312 -0.0115413428
0.00158547776 -0.117555632 -0.011581428
0.001681226048 -0.1172812328 -0.0116215132
0.001776974336 -0.1170068336 -0.0116615984
0.001872722624 -0.1167324344 -0.0117016836
0.001968470912 -0.1164580352 -0.0117417688
0.0012490231265 -0.1253190764 -0.0115869016
0.001344312068 -0.1250477938 -0.0116273747
0.0014396010095 -0.1247765112 -0.0116678478
0.001534889951 -0.1245052286 -0.0117083209
0.0016301788925 -0.124233946 -0.011748794
0.001725467834 -0.1239626634 -0.0117892671
0.0018207567755 -0.1236913808 -0.0118297402
0.001916045717 -0.1234200982 -0.0118702133
0.0020113346585 -0.1231488156 -0.0119106864
0.001295561645 -0.131984924 -0.011752716
0.00139039124 -0.131716758 -0.011793577
0.001485220835 -0.131448592 -0.011834438
0.00158005043 -0.131180426 -0.011875299
0.001674880025 -0.13091226 -0.01191616
0.00176970962 -0.130644094 -0.011957021
0.001864539215 -0.130375928 -0.011997882
0.00195936881 -0.130107762 -0.012038743
0.002054198405 -0.129839596 -0.012079604
0.0013421001635 -0.1386507716 -0.0119185304
0.001436470412 -0.1383857222 -0.0119597793
0.0015308406605 -0.1381206728 -0.0120010282
0.001625210909 -0.1378556234 -0.0120422771
0.0017195811575 -0.137590574 -0.012083526
0.001813951406 -0.1373255246 -0.0121247749
0.0019083216545 -0.1370604752 -0.0121660238
0.002002691903 -0.1367954258 -0.0122072727
0.0020970621515 -0.1365303764 -0.0122485216
0.001388638682 -0.1453166192 -0.0120843448
0.001482549584 -0.1450546864 -0.0121259816
0.001576460486 -0.1447927536 -0.0121676184
0.001670371388 -0.1445308208 -0.0122092552
0.00176428229 -0.144268888 -0.012250892
0.001858193192 -0.1440069552 -0.0122925288
0.001952104094 -0.1437450224 -0.0123341656
0.002046014996 -0.1434830896 -0.0123758024
0.002139925898 -0.1432211568 -0.0124174392
0.0014351772005 -0.1519824668 -0.0122501592
0.001528628756 -0.1517236506 -0.0122921839
0.0016220803115 -0.1514648344 -0.0123342086
0.001715531867 -0.1512060182 -0.0123762333
0.0018089834225 -0.150947202 -0.012418258
0.001902434978 -0.1506883858 -0.0124602827
0.0019958865335 -0.1504295696 -0.0125023074
0.002089338089 -0.1501707534 -0.0125443321
0.0021827896445 -0.1499119372 -0.0125863568
0.001481715719 -0.1586483144 -0.0124159736
0.001574707928 -0.1583926148 -0.0124583862
0.001667700137 -0.1581369152 -0.0125007988
0.001760692346 -0.1578812156 -0.0125432114
0.001853684555 -0.157625516 -0.012585624
0.001946676764 -0.1573698164 -0.0126280366
0.002039668973 -0.1571141168 -0.0126704492
0.002132661182 -0.1568584172 -0.0127128618
0.002225653391 -0.1566027176 -0.0127552744
0.0015282542375 -0.165314162 -0.012581788
0.0016207871 -0.165061579 -0.0126245885
0.0017133199625 -0.164808996 -0.012667389
0.001805852825 -0.164556413 -0.0127101895
0.0018983856875 -0.16430383 -0.01275299
0.00199091855 -0.164051247 -0.0127957905
0.0020834514125 -0.163798664 -0.012838591
0.002175984275 -0.163546081 -0.0128813915
0.0022685171375 -0.163293498 -0.012924192
0.001574792756 -0.1719800096 -0.0127476024
0.001666866272 -0.1717305432 -0.0127907908
0.001758939788 -0.1714810768 -0.0128339792
0.001851013304 -0.1712316104 -0.0128771676
0.00194308682 -0.170982144 -0.012920356
0.002035160336 -0.1707326776 -0.0129635444
0.002127233852 -0.1704832112 -0.0130067328
0.002219307368 -0.1702337448 -0.0130499212
0.002311380884 -0.1699842784 -0.0130931096
0.0016213312745 -0.1786458572 -0.0129134168
0.001712945444 -0.1783995074 -0.0129569931
0.0018045596135 -0.1781531576 -0.0130005694
0.001896173783 -0.1779068078 -0.0130441457
0.0019877879525 -0.177660458 -0.013087722
0.002079402122 -0.1774141082 -0.0131312983
0.0021710162915 -0.1771677584 -0.0131748746
0.002262630461 -0.1769214086 -0.0132184509
0.0023542446305 -0.1766750588 -0.0132620272
0.001667869793 -0.1853117048 -0.0130792312
0.001759024616 -0.1850684716 -0.0131231954
0.001850179439 -0.1848252384 -0.0131671596
0.001941334262 -0.1845820052 -0.0132111238
0.002032489085 -0.184338772 -0.013255088
0.002123643908 -0.1840955388 -0.0132990522
0.002214798731 -0.1838523056 -0.0133430164
0.002305953554 -0.1836090724 -0.0133869806
0.002397108377 -0.1833658392 -0.0134309448
0.0017144083115 -0.1919775524 -0.0132450456
0.001805103788 -0.1917374358 -0.0132893977
0.0018957992645 -0.1914973192 -0.0133337498
0.001986494741 -0.1912572026 -0.0133781019
0.0020771902175 -0.191017086 -0.013422454
0.002167885694 -0.1907769694 -0.0134668061
0.0022585811705 -0.1905368528 -0.0135111582
0.002349276647 -0.1902967362 -0.0135555103
0.0024399721235 -0.1900566196 -0.0135998624
0.000539884753950952 -0.0364007610664633 -0.00264423830044661
0.000619459547956402 -0.0361863901324306 -0.0026667256004458
0.000699034341961852 -0.0359720191983979 -0.00268921290044499
0.000778609135967302 -0.0357576482643652 -0.00271170020044418
0.000858183929972751 -0.0355432773303325 -0.00273418750044337
0.000937758723978201 -0.0353289063962998 -0.00275667480044256
0.00101733351798365 -0.0351145354622671 -0.00277916210044175
0.0010969083119891 -0.0349001645282344 -0.00280164940044093
0.00117648310599455 -0.0346857935942017 -0.00282413670044012
0.000576494967956402 -0.0396031713924118 -0.00288462360039699
0.000650833615961246 -0.0393801987843828 -0.00290915520039627
0.000725172263966091 -0.0391572261763537 -0.00293368680039555
0.000799510911970935 -0.0389342535683246 -0.00295821840039483
0.000873849559975779 -0.0387112809602956 -0.00298275000039411
0.000948188207980623 -0.0384883083522665 -0.00300728160039338
0.00102252685598547 -0.0382653357442374 -0.00303181320039266
0.00109686550399031 -0.0380423631362084 -0.00305634480039194
0.00117120415199516 -0.0378193905281793 -0.00308087640039122
0.000613105181961852 -0.0428055817183604 -0.00312500890034737
0.000682207683966091 -0.0425740074363349 -0.00315158480034674
0.000751310185970329 -0.0423424331543095 -0.0031781607003461
0.000820412687974568 -0.0421108588722841 -0.00320473660034547
0.000889515189978807 -0.0418792845902586 -0.00323131250034484
0.000958617691983045 -0.0416477103082332 -0.00325788840034421
0.00102772019398728 -0.0414161360262078 -0.00328446430034358
0.00109682269599152 -0.0411845617441823 -0.00331104020034295
0.00116592519799576 -0.0409529874621569 -0.00333761610034232
0.000649715395967302 -0.0460079920443089 -0.00336539420029774
0.000713581751970935 -0.0457678160882871 -0.0033940144002972
0.000777448107974568 -0.0455276401322653 -0.00342263460029666
0.000841314463978201 -0.0452874641762435 -0.00345125480029612
0.000905180819981834 -0.0450472882202217 -0.00347987500029558
0.000969047175985467 -0.0448071122641999 -0.00350849520029504
0.0010329135319891 -0.0445669363081781 -0.0035371154002945
0.00109677988799273 -0.0443267603521563 -0.00356573560029396
0.00116064624399637 -0.0440865843961345 -0.00359435580029341
0.000686325609972751 -0.0492104023702574 -0.00360577950024812
0.000744955819975779 -0.0489616247402392 -0.00363644400024767
0.000803586029978807 -0.0487128471102211 -0.00366710850024722
0.000862216239981834 -0.0484640694802029 -0.00369777300024677
0.000920846449984862 -0.0482152918501847 -0.00372843750024632
0.00097947665998789 -0.0479665142201666 -0.00375910200024587
0.00103810686999092 -0.0477177365901484 -0.00378976650024541
0.00109673707999394 -0.0474689589601302 -0.00382043100024496
0.00115536728999697 -0.0472201813301121 -0.00385109550024451
0.000722935823978201 -0.0524128126962059 -0.0038461648001985
0.000776329887980623 -0.0521554333921914 -0.00387887360019813
0.000829723951983045 -0.0518980540881769 -0.00391158240019777
0.000883118015985467 -0.0516406747841623 -0.00394429120019741
0.000936512079987889 -0.0513832954801478 -0.00397700000019705
0.000989906143990311 -0.0511259161761333 -0.00400970880019669
0.00104330020799273 -0.0508685368721187 -0.00404241760019633
0.00109669427199516 -0.0506111575681042 -0.00407512640019597
0.00115008833599758 -0.0503537782640897 -0.00410783520019561
0.000759546037983651 -0.0556152230221544 -0.00408655010014887
0.000807703955985467 -0.0553492420441435 -0.0041213032001486
0.000855861873987284 -0.0550832610661326 -0.00415605630014833
0.000904019791989101 -0.0548172800881217 -0.00419080940014806
0.000952177709990917 -0.0545512991101108 -0.00422556250014779
0.00100033562799273 -0.0542853181320999 -0.00426031560014752
0.00104849354599455 -0.054019337154089 -0.00429506870014725
0.00109665146399637 -0.0537533561760781 -0.00432982180014698
0.00114480938199818 -0.0534873751980672 -0.00436457490014671
0.000796156251989101 -0.058817633348103 -0.00432693540009925
0.000839078023990312 -0.0585430506960957 -0.00436373280009907
0.000881999795991523 -0.0582684680440884 -0.00440053020009889
0.000924921567992734 -0.0579938853920812 -0.00443732760009871
0.000967843339993945 -0.0577193027400739 -0.00447412500009853
0.00101076511199516 -0.0574447200880666 -0.00451092240009835
0.00105368688399637 -0.0571701374360594 -0.00454771980009817
0.00109660865599758 -0.0568955547840521 -0.00458451720009799
0.00113953042799879 -0.0566209721320448 -0.00462131460009781
0.00083276646599455 -0.0620200436740515 -0.00456732070004962
0.000870452091995156 -0.0617368593480478 -0.00460616240004953
0.000908137717995761 -0.0614536750220442 -0.00464500410004944
0.000945823343996367 -0.0611704906960406 -0.00468384580004935
0.000983508969996972 -0.060887306370037 -0.00472268750004926
0.00102119459599758 -0.0606041220440333 -0.00476152920004917
0.00105888022199818 -0.0603209377180297 -0.00480037090004908
0.00109656584799879 -0.060037753392026 -0.00483921260004899
0.00113425147399939 -0.0597545690660224 -0.0048780543000489
0.00086937668 -0.065222454 -0.004807706
0.00090182616 -0.064930668 -0.004848592
0.00093427564 -0.064638882 -0.004889478
0.00096672512 -0.064347096 -0.004930364
0.0009991746 -0.06405531 -0.00497125
0.00103162408 -0.063763524 -0.005012136
0.00106407356 -0.063471738 -0.005053022
0.00109652304 -0.063179952 -0.005093908
0.00112897252 -0.062888166 -0.005134794
0.000903068718 -0.0719028713 -0.0048839402
0.000937764716 -0.0716136546 -0.0049248134
0.000972460714 -0.0713244379 -0.0049656866
0.001007156712 -0.0710352212 -0.0050065598
0.00104185271 -0.0707460045 -0.005047433
0.001076548708 -0.0704567878 -0.0050883062
0.001111244706 -0.0701675711 -0.0051291794
0.001145940704 -0.0698783544 -0.0051700526
0.001180636702 -0.0695891377 -0.0052109258
0.000936760756 -0.0785832886 -0.0049601744
0.000973703272 -0.0782966412 -0.0050010348
0.001010645788 -0.0780099938 -0.0050418952
0.001047588304 -0.0777233464 -0.0050827556
0.00108453082 -0.077436699 -0.005123616
0.001121473336 -0.0771500516 -0.0051644764
0.001158415852 -0.0768634042 -0.0052053368
0.001195358368 -0.0765767568 -0.0052461972
0.001232300884 -0.0762901094 -0.0052870576
0.000970452794 -0.0852637059 -0.0050364086
0.001009641828 -0.0849796278 -0.0050772562
0.001048830862 -0.0846955497 -0.0051181038
0.001088019896 -0.0844114716 -0.0051589514
0.00112720893 -0.0841273935 -0.005199799
0.001166397964 -0.0838433154 -0.0052406466
0.001205586998 -0.0835592373 -0.0052814942
0.001244776032 -0.0832751592 -0.0053223418
0.001283965066 -0.0829910811 -0.0053631894
0.001004144832 -0.0919441232 -0.0051126428
0.001045580384 -0.0916626144 -0.0051534776
0.001087015936 -0.0913811056 -0.0051943124
0.001128451488 -0.0910995968 -0.0052351472
0.00116988704 -0.090818088 -0.005275982
0.001211322592 -0.0905365792 -0.0053168168
0.001252758144 -0.0902550704 -0.0053576516
0.001294193696 -0.0899735616 -0.0053984864
0.001335629248 -0.0896920528 -0.0054393212
0.00103783687 -0.0986245405 -0.005188877
0.00108151894 -0.098345601 -0.005229699
0.00112520101 -0.0980666615 -0.005270521
0.00116888308 -0.097787722 -0.005311343
0.00121256515 -0.0975087825 -0.005352165
0.00125624722 -0.097229843 -0.005392987
0.00129992929 -0.0969509035 -0.005433809
0.00134361136 -0.096671964 -0.005474631
0.00138729343 -0.0963930245 -0.005515453
0.001071528908 -0.1053049578 -0.0052651112
0.001117457496 -0.1050285876 -0.0053059204
0.001163386084 -0.1047522174 -0.0053467296
0.001209314672 -0.1044758472 -0.0053875388
0.00125524326 -0.104199477 -0.005428348
0.001301171848 -0.1039231068 -0.0054691572
0.001347100436 -0.1036467366 -0.0055099664
0.001393029024 -0.1033703664 -0.0055507756
0.001438957612 -0.1030939962 -0.0055915848
0.001105220946 -0.1119853751 -0.0053413454
0.001153396052 -0.1117115742 -0.0053821418
0.001201571158 -0.1114377733 -0.0054229382
0.001249746264 -0.1111639724 -0.0054637346
0.00129792137 -0.1108901715 -0.005504531
0.001346096476 -0.1106163706 -0.0055453274
0.001394271582 -0.1103425697 -0.0055861238
0.001442446688 -0.1100687688 -0.0056269202
0.001490621794 -0.1097949679 -0.0056677166
0.001138912984 -0.1186657924 -0.0054175796
0.001189334608 -0.1183945608 -0.0054583632
0.001239756232 -0.1181233292 -0.0054991468
0.001290177856 -0.1178520976 -0.0055399304
0.00134059948 -0.117580866 -0.005580714
0.001391021104 -0.1173096344 -0.0056214976
0.001441442728 -0.1170384028 -0.0056622812
0.001491864352 -0.1167671712 -0.0057030648
0.001542285976 -0.1164959396 -0.0057438484
0.001172605022 -0.1253462097 -0.0054938138
0.001225273164 -0.1250775474 -0.0055345846
0.001277941306 -0.1248088851 -0.0055753554
0.001330609448 -0.1245402228 -0.0056161262
0.00138327759 -0.1242715605 -0.005656897
0.001435945732 -0.1240028982 -0.0056976678
0.001488613874 -0.1237342359 -0.0057384386
0.001541282016 -0.1234655736 -0.0057792094
0.001593950158 -0.1231969113 -0.0058199802
0.00120629706 -0.132026627 -0.005570048
0.00126121172 -0.131760534 -0.005610806
0.00131612638 -0.131494441 -0.005651564
0.00137104104 -0.131228348 -0.005692322
0.0014259557 -0.130962255 -0.00573308
0.00148087036 -0.130696162 -0.005773838
0.00153578502 -0.130430069 -0.005814596
0.00159069968 -0.130163976 -0.005855354
0.00164561434 -0.129897883 -0.005896112
0.001239989098 -0.1387070443 -0.0056462822
0.001297150276 -0.1384435206 -0.0056870274
0.001354311454 -0.1381799969 -0.0057277726
0.001411472632 -0.1379164732 -0.0057685178
0.00146863381 -0.1376529495 -0.005809263
0.001525794988 -0.1373894258 -0.0058500082
0.001582956166 -0.1371259021 -0.0058907534
0.001640117344 -0.1368623784 -0.0059314986
0.001697278522 -0.1365988547 -0.0059722438
0.001273681136 -0.1453874616 -0.0057225164
0.001333088832 -0.1451265072 -0.0057632488
0.001392496528 -0.1448655528 -0.0058039812
0.001451904224 -0.1446045984 -0.0058447136
0.00151131192 -0.144343644 -0.005885446
0.001570719616 -0.1440826896 -0.0059261784
0.001630127312 -0.1438217352 -0.0059669108
0.001689535008 -0.1435607808 -0.0060076432
0.001748942704 -0.1432998264 -0.0060483756
0.001307373174 -0.1520678789 -0.0057987506
0.001369027388 -0.1518094938 -0.0058394702
0.001430681602 -0.1515511087 -0.0058801898
0.001492335816 -0.1512927236 -0.0059209094
0.00155399003 -0.1510343385 -0.005961629
0.001615644244 -0.1507759534 -0.0060023486
0.001677298458 -0.1505175683 -0.0060430682
0.001738952672 -0.1502591832 -0.0060837878
0.001800606886 -0.1500007981 -0.0061245074
0.001341065212 -0.1587482962 -0.0058749848
0.001404965944 -0.1584924804 -0.0059156916
0.001468866676 -0.1582366646 -0.0059563984
0.001532767408 -0.1579808488 -0.0059971052
0.00159666814 -0.157725033 -0.006037812
0.001660568872 -0.1574692172 -0.0060785188
0.001724469604 -0.1572134014 -0.0061192256
0.001788370336 -0.1569575856 -0.0061599324
0.001852271068 -0.1567017698 -0.0062006392
0.00137475725 -0.1654287135 -0.005951219
0.0014409045 -0.165175467 -0.005991913
0.00150705175 -0.1649222205 -0.006032607
0.001573199 -0.164668974 -0.006073301
0.00163934625 -0.1644157275 -0.006113995
0.0017054935 -0.164162481 -0.006154689
0.00177164075 -0.1639092345 -0.006195383
0.001837788 -0.163655988 -0.006236077
0.00190393525 -0.1634027415 -0.006276771
0.001408449288 -0.1721091308 -0.0060274532
0.001476843056 -0.1718584536 -0.0060681344
0.001545236824 -0.1716077764 -0.0061088156
0.001613630592 -0.1713570992 -0.0061494968
0.00168202436 -0.171106422 -0.006190178
0.001750418128 -0.1708557448 -0.0062308592
0.001818811896 -0.1706050676 -0.0062715404
0.001887205664 -0.1703543904 -0.0063122216
0.001955599432 -0.1701037132 -0.0063529028
0.001442141326 -0.1787895481 -0.0061036874
0.001512781612 -0.1785414402 -0.0061443558
0.001583421898 -0.1782933323 -0.0061850242
0.001654062184 -0.1780452244 -0.0062256926
0.00172470247 -0.1777971165 -0.006266361
0.001795342756 -0.1775490086 -0.0063070294
0.001865983042 -0.1773009007 -0.0063476978
0.001936623328 -0.1770527928 -0.0063883662
0.002007263614 -0.1768046849 -0.0064290346
0.001475833364 -0.1854699654 -0.0061799216
0.001548720168 -0.1852244268 -0.0062205772
0.001621606972 -0.1849788882 -0.0062612328
0.001694493776 -0.1847333496 -0.0063018884
0.00176738058 -0.184487811 -0.006342544
0.001840267384 -0.1842422724 -0.0063831996
0.001913154188 -0.1839967338 -0.0064238552
0.001986040992 -0.1837511952 -0.0064645108
0.002058927796 -0.1835056566 -0.0065051664
0.001509525402 -0.1921503827 -0.0062561558
0.001584658724 -0.1919074134 -0.0062967986
0.001659792046 -0.1916644441 -0.0063374414
0.001734925368 -0.1914214748 -0.0063780842
0.00181005869 -0.1911785055 -0.006418727
0.001885192012 -0.1909355362 -0.0064593698
0.001960325334 -0.1906925669 -0.0065000126
0.002035458656 -0.1904495976 -0.0065406554
0.002110591978 -0.1902066283 -0.0065812982
0.00052875287 -0.0364756672078861 0.000263538
0.00053880019 -0.0362519744153589 0.0002389035
0.00054884751 -0.0360282816228316 0.000214269
0.00055889483 -0.0358045888303044 0.0001896345
0.00056894215 -0.0355808960377771 0.000165
0.00057898947 -0.0353572032452499 0.0001403655
0.00058903679 -0.0351335104527226 0.000115731
0.00059908411 -0.0349098176601954 9.10964999999998E-5
0.00060913143 -0.0346861248676681 6.64619999999997E-5
0.00057095554 -0.0396581997403432 0.000287496
0.00057605048 -0.039427779480319 0.000260622
0.00058114542 -0.0391973592202948 0.000233748
0.00058624036 -0.0389669389602705 0.000206874
0.0005913353 -0.0387365187002463 0.00018
0.00059643024 -0.0385060984402221 0.000153126
0.00060152518 -0.0382756781801979 0.000126252
0.00060662012 -0.0380452579201737 9.93779999999998E-5
0.00061171506 -0.0378148376601494 7.25039999999997E-5
0.00061315821 -0.0428407322728003 0.000311454
0.00061330077 -0.0426035845452791 0.0002823405
0.00061344333 -0.0423664368177579 0.000253227
0.00061358589 -0.0421292890902367 0.0002241135
0.00061372845 -0.0418921413627155 0.000195
0.00061387101 -0.0416549936351943 0.0001658865
0.00061401357 -0.0414178459076731 0.000136773
0.00061415613 -0.041180698180152 0.0001076595
0.00061429869 -0.0409435504526307 7.85459999999997E-5
0.00065536088 -0.0460232648052574 0.000335412
0.00065055106 -0.0457793896102392 0.000304059
0.00064574124 -0.0455355144152211 0.000272706
0.00064093142 -0.0452916392202029 0.000241353
0.0006361216 -0.0450477640251847 0.00021
0.00063131178 -0.0448038888301666 0.000178647
0.00062650196 -0.0445600136351484 0.000147294
0.00062169214 -0.0443161384401302 0.000115941
0.00061688232 -0.0440722632451121 8.45879999999996E-5
0.00069756355 -0.0492057973377145 0.00035937
0.00068780135 -0.0489551946751994 0.0003257775
0.00067803915 -0.0487045920126842 0.000292185
0.00066827695 -0.0484539893501691 0.0002585925
0.00065851475 -0.0482033866876539 0.000225
0.00064875255 -0.0479527840251388 0.0001914075
0.00063899035 -0.0477021813626237 0.000157815
0.00062922815 -0.0474515787001085 0.0001242225
0.00061946595 -0.0472009760375934 9.06299999999996E-5
0.00073976622 -0.0523883298701716 0.000383328
0.00072505164 -0.0521309997401595 0.000347496
0.00071033706 -0.0518736696101474 0.000311664
0.00069562248 -0.0516163394801353 0.000275832
0.0006809079 -0.0513590093501232 0.00024
0.00066619332 -0.051101679220111 0.000204168
0.00065147874 -0.0508443490900989 0.000168336
0.00063676416 -0.0505870189600868 0.000132504
0.00062204958 -0.0503296888300747 9.66719999999996E-5
0.00078196889 -0.0555708624026287 0.000407286
0.00076230193 -0.0553068048051196 0.0003692145
0.00074263497 -0.0550427472076105 0.000331143
0.00072296801 -0.0547786896101014 0.0002930715
0.00070330105 -0.0545146320125924 0.000255
0.00068363409 -0.0542505744150833 0.0002169285
0.00066396713 -0.0539865168175742 0.000178857
0.00064430017 -0.0537224592200651 0.0001407855
0.00062463321 -0.053458401622556 0.000102714
0.00082417156 -0.0587533949350858 0.000431244
0.00079955222 -0.0584826098700797 0.000390933
0.00077493288 -0.0582118248050737 0.000350622
0.00075031354 -0.0579410397400676 0.000310311
0.0007256942 -0.0576702546750616 0.00027
0.00070107486 -0.0573994696100555 0.000229689
0.00067645552 -0.0571286845450495 0.000189378
0.00065183618 -0.0568578994800434 0.000149067
0.00062721684 -0.0565871144150374 0.000108756
0.00086637423 -0.0619359274675429 0.000455202
0.00083680251 -0.0616584149350399 0.0004126515
0.00080723079 -0.0613809024025368 0.000370101
0.00077765907 -0.0611033898700338 0.0003275505
0.00074808735 -0.0608258773375308 0.000285
0.00071851563 -0.0605483648050278 0.0002424495
0.00068894391 -0.0602708522725247 0.000199899
0.00065937219 -0.0599933397400217 0.0001573485
0.00062980047 -0.0597158272075187 0.000114798
0.0009085769 -0.06511846 0.00047916
0.0008740528 -0.06483422 0.00043437
0.0008395287 -0.06454998 0.00038958
0.0008050046 -0.06426574 0.00034479
0.0007704805 -0.0639815 0.0003
0.0007359564 -0.06369726 0.00025521
0.0007014323 -0.06341302 0.00021042
0.0006669082 -0.06312878 0.00016563
0.0006323841 -0.06284454 0.000120839999999999
0.0009294224575 -0.071813447 0.000492506
0.00089985074 -0.071531229 0.0004481295
0.0008702790225 -0.071249011 0.000403753
0.000840707305 -0.070966793 0.0003593765
0.0008111355875 -0.070684575 0.000315
0.00078156387 -0.070402357 0.0002706235
0.0007519921525 -0.070120139 0.000226247
0.000722420435 -0.069837921 0.0001818705
0.0006928487175 -0.069555703 0.000137493999999999
0.000950268015 -0.078508434 0.000505852
0.00092564868 -0.078228238 0.000461889
0.000901029345 -0.077948042 0.000417926
0.00087641001 -0.077667846 0.000373963
0.000851790675 -0.07738765 0.00033
0.00082717134 -0.077107454 0.000286037
0.000802552005 -0.076827258 0.000242074
0.00077793267 -0.076547062 0.000198111
0.000753313335 -0.076266866 0.000154147999999999
0.0009711135725 -0.085203421 0.000519198
0.00095144662 -0.084925247 0.0004756485
0.0009317796675 -0.084647073 0.000432099
0.000912112715 -0.084368899 0.0003885495
0.0008924457625 -0.084090725 0.000345
0.00087277881 -0.083812551 0.0003014505
0.0008531118575 -0.083534377 0.000257901
0.000833444905 -0.083256203 0.0002143515
0.0008137779525 -0.082978029 0.000170801999999999
0.00099195913 -0.091898408 0.000532544
0.00097724456 -0.091622256 0.000489408
0.00096252999 -0.091346104 0.000446272
0.00094781542 -0.091069952 0.000403136
0.00093310085 -0.0907938 0.00036
0.00091838628 -0.090517648 0.000316864
0.00090367171 -0.090241496 0.000273728
0.00088895714 -0.089965344 0.000230591999999999
0.00087424257 -0.089689192 0.000187455999999999
0.0010128046875 -0.098593395 0.000545890000000001
0.0010030425 -0.098319265 0.0005031675
0.0009932803125 -0.098045135 0.000460445
0.000983518125 -0.097771005 0.0004177225
0.0009737559375 -0.097496875 0.000375
0.00096399375 -0.097222745 0.0003322775
0.0009542315625 -0.096948615 0.000289555
0.000944469375 -0.096674485 0.000246832499999999
0.0009347071875 -0.096400355 0.000204109999999999
0.001033650245 -0.105288382 0.000559236000000001
0.00102884044 -0.105016274 0.000516927
0.001024030635 -0.104744166 0.000474618
0.00101922083 -0.104472058 0.000432309
0.001014411025 -0.10419995 0.00039
0.00100960122 -0.103927842 0.000347691
0.001004791415 -0.103655734 0.000305382
0.00099998161 -0.103383626 0.000263072999999999
0.000995171805 -0.103111518 0.000220763999999999
0.0010544958025 -0.111983369 0.000572582000000001
0.00105463838 -0.111713283 0.0005306865
0.0010547809575 -0.111443197 0.000488791
0.001054923535 -0.111173111 0.0004468955
0.0010550661125 -0.110903025 0.000405
0.00105520869 -0.110632939 0.0003631045
0.0010553512675 -0.110362853 0.000321209
0.001055493845 -0.110092767 0.000279313499999999
0.0010556364225 -0.109822681 0.000237417999999999
0.00107534136 -0.118678356 0.000585928000000001
0.00108043632 -0.118410292 0.000544446
0.00108553128 -0.118142228 0.000502964
0.00109062624 -0.117874164 0.000461482
0.0010957212 -0.1176061 0.00042
0.00110081616 -0.117338036 0.000378518
0.00110591112 -0.117069972 0.000337036
0.00111100608 -0.116801908 0.000295553999999999
0.00111610104 -0.116533844 0.000254071999999999
0.0010961869175 -0.125373343 0.000599274000000001
0.00110623426 -0.125107301 0.0005582055
0.0011162816025 -0.124841259 0.000517137
0.001126328945 -0.124575217 0.0004760685
0.0011363762875 -0.124309175 0.000435
0.00114642363 -0.124043133 0.0003939315
0.0011564709725 -0.123777091 0.000352862999999999
0.001166518315 -0.123511049 0.000311794499999999
0.0011765656575 -0.123245007 0.000270725999999999
0.001117032475 -0.13206833 0.000612620000000001
0.0011320322 -0.13180431 0.000571965000000001
0.001147031925 -0.13154029 0.00053131
0.00116203165 -0.13127627 0.000490655
0.001177031375 -0.13101225 0.00045
0.0011920311 -0.13074823 0.000409345
0.001207030825 -0.13048421 0.000368689999999999
0.00122203055 -0.13022019 0.000328034999999999
0.001237030275 -0.12995617 0.000287379999999999
0.0011378780325 -0.138763317 0.000625966000000001
0.00115783014 -0.138501319 0.000585724500000001
0.0011777822475 -0.138239321 0.000545483
0.001197734355 -0.137977323 0.0005052415
0.0012176864625 -0.137715325 0.000465
0.00123763857 -0.137453327 0.0004247585
0.0012575906775 -0.137191329 0.000384516999999999
0.001277542785 -0.136929331 0.000344275499999999
0.0012974948925 -0.136667333 0.000304033999999999
0.00115872359 -0.145458304 0.000639312000000001
0.00118362808 -0.145198328 0.000599484
0.00120853257 -0.144938352 0.000559656
0.00123343706 -0.144678376 0.000519828
0.00125834155 -0.1444184 0.00048
0.00128324604 -0.144158424 0.000440172
0.00130815053 -0.143898448 0.000400343999999999
0.00133305502 -0.143638472 0.000360515999999999
0.00135795951 -0.143378496 0.000320687999999999
0.0011795691475 -0.152153291 0.000652658000000001
0.00120942602 -0.151895337 0.000613243500000001
0.0012392828925 -0.151637383 0.000573829
0.001269139765 -0.151379429 0.0005344145
0.0012989966375 -0.151121475 0.000495
0.00132885351 -0.150863521 0.0004555855
0.0013587103825 -0.150605567 0.000416170999999999
0.001388567255 -0.150347613 0.000376756499999999
0.0014184241275 -0.150089659 0.000337341999999999
0.001200414705 -0.158848278 0.000666004000000001
0.00123522396 -0.158592346 0.000627003000000001
0.001270033215 -0.158336414 0.000588002
0.00130484247 -0.158080482 0.000549001
0.001339651725 -0.15782455 0.00051
0.00137446098 -0.157568618 0.000470999
0.001409270235 -0.157312686 0.000431997999999999
0.00144407949 -0.157056754 0.000392996999999999
0.001478888745 -0.156800822 0.000353995999999999
0.0012212602625 -0.165543265 0.000679350000000001
0.0012610219 -0.165289355 0.000640762500000001
0.0013007835375 -0.165035445 0.000602175
0.001340545175 -0.164781535 0.0005635875
0.0013803068125 -0.164527625 0.000525
0.00142006845 -0.164273715 0.0004864125
0.0014598300875 -0.164019805 0.000447824999999999
0.001499591725 -0.163765895 0.000409237499999999
0.0015393533625 -0.163511985 0.000370649999999999
0.00124210582 -0.172238252 0.000692696000000001
0.00128681984 -0.171986364 0.000654522000000001
0.00133153386 -0.171734476 0.000616348
0.00137624788 -0.171482588 0.000578174
0.0014209619 -0.1712307 0.00054
0.00146567592 -0.170978812 0.000501826
0.00151038994 -0.170726924 0.000463651999999999
0.00155510396 -0.170475036 0.000425477999999999
0.00159981798 -0.170223148 0.000387303999999999
0.0012629513775 -0.178933239 0.000706042000000001
0.00131261778 -0.178683373 0.000668281500000001
0.0013622841825 -0.178433507 0.000630521
0.001411950585 -0.178183641 0.0005927605
0.0014616169875 -0.177933775 0.000555
0.00151128339 -0.177683909 0.0005172395
0.0015609497925 -0.177434043 0.000479478999999999
0.001610616195 -0.177184177 0.000441718499999999
0.0016602825975 -0.176934311 0.000403957999999999
0.001283796935 -0.185628226 0.000719388000000001
0.00133841572 -0.185380382 0.000682041000000001
0.001393034505 -0.185132538 0.000644694
0.00144765329 -0.184884694 0.000607347
0.001502272075 -0.18463685 0.00057
0.00155689086 -0.184389006 0.000532653
0.001611509645 -0.184141162 0.000495305999999999
0.00166612843 -0.183893318 0.000457958999999999
0.001720747215 -0.183645474 0.000420611999999999
0.0013046424925 -0.192323213 0.000732734000000001
0.00136421366 -0.192077391 0.000695800500000001
0.0014237848275 -0.191831569 0.000658867
0.001483355995 -0.191585747 0.0006219335
0.0015429271625 -0.191339925 0.000585
0.00160249833 -0.191094103 0.0005480665
0.0016620694975 -0.190848281 0.000511132999999999
0.001721640665 -0.190602459 0.000474199499999999
0.0017812118325 -0.190356637 0.000437265999999999
0.000517620986049048 -0.0365505733493089 0.00317131430044661
0.000458140832043598 -0.0363175586982871 0.0031445326004458
0.000398660678038148 -0.0360845440472653 0.00311775090044499
0.000339180524032698 -0.0358515293962435 0.00309096920044418
0.000279700370027249 -0.0356185147452217 0.00306418750044337
0.000220220216021799 -0.0353855000941999 0.00303740580044256
0.000160740062016349 -0.0351524854431781 0.00301062410044175
0.000101259908010899 -0.0349194707921563 0.00298384240044093
4.17797540054497E-5 -0.0346864561411345 0.00295706070044012
0.000565416112043598 -0.0397132280882746 0.00345961560039699
0.000501267344038754 -0.0394753601762552 0.00343039920039627
0.000437118576033909 -0.0392374922642358 0.00340118280039555
0.000372969808029065 -0.0389996243522164 0.00337196640039483
0.000308821040024221 -0.0387617564401971 0.00334275000039411
0.000244672272019377 -0.0385238885281777 0.00331353360039338
0.000180523504014533 -0.0382860206161583 0.00328431720039266
0.000116374736009688 -0.0380481527041389 0.00325510080039194
5.2225968004844E-5 -0.0378102847921195 0.00322588440039122
0.000613211238038148 -0.0428758828272402 0.00374791690034737
0.000544393856033909 -0.0426331616542233 0.00371626580034674
0.000475576474029671 -0.0423904404812063 0.00368461470034611
0.000406759092025432 -0.0421477193081894 0.00365296360034547
0.000337941710021193 -0.0419049981351724 0.00362131250034484
0.000269124328016955 -0.0416622769621555 0.00358966140034421
0.000200306946012716 -0.0414195557891385 0.00355801030034358
0.000131489564008477 -0.0411768346161216 0.00352635920034295
6.26721820042386E-5 -0.0409341134431046 0.00349470810034232
0.000661006364032698 -0.0460385375662059 0.00403621820029774
0.000587520368029065 -0.0457909631321914 0.0040021324002972
0.000514034372025432 -0.0455433886981769 0.00396804660029666
0.000440548376021799 -0.0452958142641623 0.00393396080029612
0.000367062380018166 -0.0450482398301478 0.00389987500029558
0.000293576384014533 -0.0448006653961333 0.00386578920029504
0.000220090388010899 -0.0445530909621187 0.0038317034002945
0.000146604392007266 -0.0443055165281042 0.00379761760029396
7.31183960036331E-5 -0.0440579420940897 0.00376353180029341
0.000708801490027249 -0.0492011923051716 0.00432451950024812
0.000630646880024221 -0.0489487646101595 0.00428799900024767
0.000552492270021193 -0.0486963369151474 0.00425147850024722
0.000474337660018166 -0.0484439092201353 0.00421495800024677
0.000396183050015138 -0.0481914815251232 0.00417843750024632
0.00031802844001211 -0.047939053830111 0.00414191700024587
0.000239873830009083 -0.0476866261350989 0.00410539650024541
0.000161719220006055 -0.0474341984400868 0.00406887600024496
8.35646100030275E-5 -0.0471817707450747 0.00403235550024451
0.000756596616021799 -0.0523638470441373 0.0046128208001985
0.000673773392019377 -0.0521065660881276 0.00457386560019813
0.000590950168016955 -0.0518492851321179 0.00453491040019777
0.000508126944014533 -0.0515920041761082 0.00449595520019741
0.000425303720012111 -0.0513347232200985 0.00445700000019705
0.000342480496009688 -0.0510774422640888 0.00441804480019669
0.000259657272007266 -0.0508201613080791 0.00437908960019633
0.000176834048004844 -0.0505628803520695 0.00434013440019597
9.4010824002422E-5 -0.0503055993960598 0.00430117920019561
0.000804391742016349 -0.055526501783103 0.00490112210014887
0.000716899904014533 -0.0552643675660957 0.0048597322001486
0.000629408066012716 -0.0550022333490884 0.00481834230014833
0.000541916228010899 -0.0547400991320812 0.00477695240014806
0.000454424390009083 -0.0544779649150739 0.00473556250014779
0.000366932552007266 -0.0542158306980666 0.00469417260014752
0.00027944071400545 -0.0539536964810594 0.00465278270014725
0.000191948876003633 -0.0536915622640521 0.00461139280014698
0.000104457038001816 -0.0534294280470448 0.00457000290014671
0.000852186868010899 -0.0586891565220686 0.00518942340009925
0.000760026416009688 -0.0584221690440638 0.00514559880009907
0.000667865964008477 -0.058155181566059 0.00510177420009889
0.000575705512007266 -0.0578881940880541 0.00505794960009871
0.000483545060006055 -0.0576212066100493 0.00501412500009853
0.000391384608004844 -0.0573542191320444 0.00497030040009835
0.000299224156003633 -0.0570872316540396 0.00492647580009817
0.000207063704002422 -0.0568202441760347 0.00488265120009799
0.000114903252001211 -0.0565532566980299 0.00483882660009781
0.00089998199400545 -0.0618518112610343 0.00547772470004962
0.000803152928004844 -0.0615799705220319 0.00543146540004953
0.000706323862004239 -0.0613081297830295 0.00538520610004944
0.000609494796003633 -0.0610362890440271 0.00533894680004935
0.000512665730003028 -0.0607644483050246 0.00529268750004926
0.000415836664002422 -0.0604926075660222 0.00524642820004917
0.000319007598001817 -0.0602207668270198 0.00520016890004908
0.000222178532001211 -0.0599489260880174 0.00515390960004899
0.000125349466000606 -0.0596770853490149 0.0051076503000489
0.00094777712 -0.065014466 0.005766026
0.00084627944 -0.064737772 0.005717332
0.00074478176 -0.064461078 0.005668638
0.00064328408 -0.064184384 0.005619944
0.0005417864 -0.06390769 0.00557125
0.00044028872 -0.063630996 0.005522556
0.00033879104 -0.063354302 0.005473862
0.00023729336 -0.063077608 0.005425168
0.00013579568 -0.062800914 0.005376474
0.000955776197 -0.0717240227 0.0058689522
0.000861936764 -0.0714488034 0.0058210724
0.000768097331 -0.0711735841 0.0057731926
0.000674257898 -0.0708983648 0.0057253128
0.000580418465 -0.0706231455 0.005677433
0.000486579032 -0.0703479262 0.0056295532
0.000392739599 -0.0700727069 0.0055816734
0.000298900166 -0.0697974876 0.0055337936
0.000205060733 -0.0695222683 0.0054859138
0.000963775274 -0.0784335794 0.0059718784
0.000877594088 -0.0781598348 0.0059248128
0.000791412902 -0.0778860902 0.0058777472
0.000705231716 -0.0776123456 0.0058306816
0.00061905053 -0.077338601 0.005783616
0.000532869344 -0.0770648564 0.0057365504
0.000446688158 -0.0767911118 0.0056894848
0.000360506972 -0.0765173672 0.0056424192
0.000274325786 -0.0762436226 0.0055953536
0.000971774351 -0.0851431361 0.0060748046
0.000893251412 -0.0848708662 0.0060285532
0.000814728473 -0.0845985963 0.0059823018
0.000736205534 -0.0843263264 0.0059360504
0.000657682595 -0.0840540565 0.005889799
0.000579159656 -0.0837817866 0.0058435476
0.000500636717 -0.0835095167 0.0057972962
0.000422113778 -0.0832372468 0.0057510448
0.000343590839 -0.0829649769 0.0057047934
0.000979773428 -0.0918526928 0.0061777308
0.000908908736 -0.0915818976 0.0061322936
0.000838044044 -0.0913111024 0.0060868564
0.000767179352 -0.0910403072 0.0060414192
0.00069631466 -0.090769512 0.005995982
0.000625449968 -0.0904987168 0.0059505448
0.000554585276 -0.0902279216 0.0059051076
0.000483720584 -0.0899571264 0.0058596704
0.000412855892 -0.0896863312 0.0058142332
0.000987772505 -0.0985622495 0.006280657
0.00092456606 -0.098292929 0.006236034
0.000861359615 -0.0980236085 0.006191411
0.00079815317 -0.097754288 0.006146788
0.000734946725 -0.0974849675 0.006102165
0.00067174028 -0.097215647 0.006057542
0.000608533835 -0.0969463265 0.006012919
0.00054532739 -0.096677006 0.005968296
0.000482120945 -0.0964076855 0.005923673
0.000995771582 -0.1052718062 0.0063835832
0.000940223384 -0.1050039604 0.0063397744
0.000884675186 -0.1047361146 0.0062959656
0.000829126988 -0.1044682688 0.0062521568
0.00077357879 -0.104200423 0.006208348
0.000718030592 -0.1039325772 0.0061645392
0.000662482394 -0.1036647314 0.0061207304
0.000606934196 -0.1033968856 0.0060769216
0.000551385998 -0.1031290398 0.0060331128
0.001003770659 -0.1119813629 0.0064865094
0.000955880708 -0.1117149918 0.0064435148
0.000907990757 -0.1114486207 0.0064005202
0.000860100806 -0.1111822496 0.0063575256
0.000812210855 -0.1109158785 0.006314531
0.000764320904 -0.1106495074 0.0062715364
0.000716430953 -0.1103831363 0.0062285418
0.000668541002 -0.1101167652 0.0061855472
0.000620651051 -0.1098503941 0.0061425526
0.001011769736 -0.1186909196 0.0065894356
0.000971538032 -0.1184260232 0.0065472552
0.000931306328 -0.1181611268 0.0065050748
0.000891074624 -0.1178962304 0.0064628944
0.00085084292 -0.117631334 0.006420714
0.000810611216 -0.1173664376 0.0063785336
0.000770379512 -0.1171015412 0.0063363532
0.000730147808 -0.1168366448 0.0062941728
0.000689916104 -0.1165717484 0.0062519924
0.001019768813 -0.1254004763 0.0066923618
0.000987195356 -0.1251370546 0.0066509956
0.000954621899 -0.1248736329 0.0066096294
0.000922048442 -0.1246102112 0.0065682632
0.000889474985 -0.1243467895 0.006526897
0.000856901528 -0.1240833678 0.0064855308
0.000824328071 -0.1238199461 0.0064441646
0.000791754614 -0.1235565244 0.0064027984
0.000759181157 -0.1232931027 0.0063614322
0.00102776789 -0.132110033 0.006795288
0.00100285268 -0.131848086 0.006754736
0.00097793747 -0.131586139 0.006714184
0.00095302226 -0.131324192 0.006673632
0.00092810705 -0.131062245 0.00663308
0.00090319184 -0.130800298 0.006592528
0.00087827663 -0.130538351 0.006551976
0.00085336142 -0.130276404 0.006511424
0.00082844621 -0.130014457 0.006470872
0.001035766967 -0.1388195897 0.0068982142
0.001018510004 -0.1385591174 0.0068584764
0.001001253041 -0.1382986451 0.0068187386
0.000983996078 -0.1380381728 0.0067790008
0.000966739115 -0.1377777005 0.006739263
0.000949482152 -0.1375172282 0.0066995252
0.000932225189 -0.1372567559 0.0066597874
0.000914968226 -0.1369962836 0.0066200496
0.000897711263 -0.1367358113 0.0065803118
0.001043766044 -0.1455291464 0.0070011404
0.001034167328 -0.1452701488 0.0069622168
0.001024568612 -0.1450111512 0.0069232932
0.001014969896 -0.1447521536 0.0068843696
0.00100537118 -0.144493156 0.006845446
0.000995772464 -0.1442341584 0.0068065224
0.000986173748 -0.1439751608 0.0067675988
0.000976575032 -0.1437161632 0.0067286752
0.000966976316 -0.1434571656 0.0066897516
0.001051765121 -0.1522387031 0.0071040666
0.001049824652 -0.1519811802 0.0070659572
0.001047884183 -0.1517236573 0.0070278478
0.001045943714 -0.1514661344 0.0069897384
0.001044003245 -0.1512086115 0.006951629
0.001042062776 -0.1509510886 0.0069135196
0.001040122307 -0.1506935657 0.0068754102
0.001038181838 -0.1504360428 0.0068373008
0.001036241369 -0.1501785199 0.0067991914
0.001059764198 -0.1589482598 0.0072069928
0.001065481976 -0.1586922116 0.0071696976
0.001071199754 -0.1584361634 0.0071324024
0.001076917532 -0.1581801152 0.0070951072
0.00108263531 -0.157924067 0.007057812
0.001088353088 -0.1576680188 0.0070205168
0.001094070866 -0.1574119706 0.0069832216
0.001099788644 -0.1571559224 0.0069459264
0.001105506422 -0.1568998742 0.0069086312
0.001067763275 -0.1656578165 0.007309919
0.0010811393 -0.165403243 0.007273438
0.001094515325 -0.1651486695 0.007236957
0.00110789135 -0.164894096 0.007200476
0.001121267375 -0.1646395225 0.007163995
0.0011346434 -0.164384949 0.007127514
0.001148019425 -0.1641303755 0.007091033
0.00116139545 -0.163875802 0.007054552
0.001174771475 -0.1636212285 0.007018071
0.001075762352 -0.1723673732 0.0074128452
0.001096796624 -0.1721142744 0.0073771784
0.001117830896 -0.1718611756 0.0073415116
0.001138865168 -0.1716080768 0.0073058448
0.00115989944 -0.171354978 0.007270178
0.001180933712 -0.1711018792 0.0072345112
0.001201967984 -0.1708487804 0.0071988444
0.001223002256 -0.1705956816 0.0071631776
0.001244036528 -0.1703425828 0.0071275108
0.001083761429 -0.1790769299 0.0075157714
0.001112453948 -0.1788253058 0.0074809188
0.001141146467 -0.1785736817 0.0074460662
0.001169838986 -0.1783220576 0.0074112136
0.001198531505 -0.1780704335 0.007376361
0.001227224024 -0.1778188094 0.0073415084
0.001255916543 -0.1775671853 0.0073066558
0.001284609062 -0.1773155612 0.0072718032
0.001313301581 -0.1770639371 0.0072369506
0.001091760506 -0.1857864866 0.0076186976
0.001128111272 -0.1855363372 0.0075846592
0.001164462038 -0.1852861878 0.0075506208
0.001200812804 -0.1850360384 0.0075165824
0.00123716357 -0.184785889 0.007482544
0.001273514336 -0.1845357396 0.0074485056
0.001309865102 -0.1842855902 0.0074144672
0.001346215868 -0.1840354408 0.0073804288
0.001382566634 -0.1837852914 0.0073463904
0.001099759583 -0.1924960433 0.0077216238
0.001143768596 -0.1922473686 0.0076883996
0.001187777609 -0.1919986939 0.0076551754
0.001231786622 -0.1917500192 0.0076219512
0.001275795635 -0.1915013445 0.007588727
0.001319804648 -0.1912526698 0.0075555028
0.001363813661 -0.1910039951 0.0075222786
0.001407822674 -0.1907553204 0.0074890544
0.001451831687 -0.1905066457 0.0074558302
0.000506489102098095 -0.0366254794907317 0.00607909060089323
0.000377481474087196 -0.0363831429812153 0.00605016170089161
0.000248473846076296 -0.036140806471699 0.00602123280088998
0.000119466218065397 -0.0358984699621826 0.00599230390088836
-9.54140994550282E-6 -0.0356561334526663 0.00596337500088674
-0.000138549037956402 -0.0354137969431499 0.00593444610088511
-0.000267556665967302 -0.0351714604336336 0.00590551720088349
-0.000396564293978201 -0.0349291239241172 0.00587658830088187
-0.000525571921989101 -0.0346867874146009 0.00584765940088024
0.000559876684087196 -0.0397682564362059 0.00663173520079398
0.000426484208077507 -0.0395229408721914 0.00660017640079254
0.000293091732067819 -0.0392776253081769 0.0065686176007911
0.00015969925605813 -0.0390323097441623 0.00653705880078965
2.63067800484419E-5 -0.0387869941801478 0.00650550000078821
-0.000107085695961246 -0.0385416786161333 0.00647394120078677
-0.000240478171970935 -0.0382963630521187 0.00644238240078533
-0.000373870647980623 -0.0380510474881042 0.00641082360078388
-0.000507263123990312 -0.0378057319240897 0.00637926480078244
0.000613264266076296 -0.0429110333816802 0.00718437980069473
0.000475486942067819 -0.0426627387631675 0.00715019110069347
0.000337709618059342 -0.0424144441446547 0.00711600240069221
0.000199932294050864 -0.042166149526142 0.00708181370069095
6.21549700423867E-5 -0.0419178549076293 0.00704762500068968
-7.56223539660908E-5 -0.0416695602891166 0.00701343630068842
-0.000213399677974568 -0.0414212656706039 0.00697924760068716
-0.000351177001983045 -0.0411729710520912 0.0069450589006859
-0.000488954325991523 -0.0409246764335785 0.00691087020068464
0.000666651848065397 -0.0460538103271544 0.00773702440059549
0.00052448967605813 -0.0458025366541435 0.0077002058005944
0.000382327504050864 -0.0455512629811326 0.00766338720059332
0.000240165332043598 -0.0452999893081217 0.00762656860059224
9.80031600363315E-5 -0.0450487156351108 0.00758975000059116
-4.41590119709349E-5 -0.0447974419620999 0.00755293140059008
-0.000186321183978201 -0.044546168289089 0.00751611280058899
-0.000328483355985468 -0.0442948946160781 0.00747929420058791
-0.000470645527992734 -0.0440436209430672 0.00744247560058683
0.000720039430054497 -0.0491965872726287 0.00828966900049624
0.000573492410048442 -0.0489423345451196 0.00825022050049534
0.000426945390042387 -0.0486880818176105 0.00821077200049443
0.000280398370036331 -0.0484338290901015 0.00817132350049353
0.000133851350030276 -0.0481795763625924 0.00813187500049263
-1.2695669975779E-5 -0.0479253236350833 0.00809242650049173
-0.000159242689981834 -0.0476710709075742 0.00805297800049083
-0.00030578970998789 -0.0474168181800651 0.00801352950048993
-0.000452336729993945 -0.047162565452556 0.00797408100048902
0.000773427012043598 -0.052339364218103 0.00884231360039699
0.000622495144038754 -0.0520821324360957 0.00880023520039627
0.000471563276033909 -0.0518249006540884 0.00875815680039555
0.000320631408029065 -0.0515676688720812 0.00871607840039483
0.000169699540024221 -0.0513104370900739 0.00867400000039411
1.87676720193767E-5 -0.0510532053080666 0.00863192160039339
-0.000132164195985468 -0.0507959735260594 0.00858984320039266
-0.000283096063990312 -0.0505387417440521 0.00854776480039194
-0.000434027931995156 -0.0502815099620448 0.00850568640039122
0.000826814594032698 -0.0554821411635772 0.00939495820029774
0.000671497878029065 -0.0552219303270718 0.0093502499002972
0.000516181162025432 -0.0549617194905663 0.00930554160029666
0.000360864446021799 -0.0547015086540609 0.00926083330029612
0.000205547730018166 -0.0544412978175554 0.00921612500029558
5.02310140145326E-5 -0.05418108698105 0.00917141670029504
-0.000105085701989101 -0.0539208761445445 0.0091267084002945
-0.000260402417992734 -0.0536606653080391 0.00908200010029396
-0.000415719133996367 -0.0534004544715336 0.00903729180029341
0.000880202176021799 -0.0586249181090515 0.0099476028001985
0.000720500612019377 -0.0583617282180478 0.00990026460019813
0.000560799048016955 -0.0580985383270442 0.00985292640019777
0.000401097484014533 -0.0578353484360406 0.00980558820019741
0.000241395920012111 -0.057572158545037 0.00975825000019705
8.16943560096884E-5 -0.0573089686540333 0.00971091180019669
-7.80072079927337E-5 -0.0570457787630297 0.00966357360019633
-0.000237708771995156 -0.0567825888720261 0.00961623540019597
-0.000397410335997578 -0.0565193989810224 0.00956889720019561
0.000933589758010899 -0.0617676950545257 0.0105002474000992
0.000769503346009688 -0.0615015261090239 0.0104502793000991
0.000605416934008477 -0.0612353571635221 0.0104003112000989
0.000441330522007266 -0.0609691882180203 0.0103503431000987
0.000277244110006055 -0.0607030192725185 0.0103003750000985
0.000113157698004844 -0.0604368503270167 0.0102504069000983
-5.09287139963669E-5 -0.0601706813815148 0.0102004388000982
-0.000215015125997578 -0.059904512436013 0.010150470700098
-0.000379101537998789 -0.0596383434905112 0.0101005026000978
0.00098697734 -0.064910472 0.011052892
0.00081850608 -0.064641324 0.011000294
0.00065003482 -0.064372176 0.010947696
0.00048156356 -0.064103028 0.010895098
0.0003130923 -0.06383388 0.0108425
0.00014462104 -0.063564732 0.010789902
-2.385022E-5 -0.063295584 0.010737304
-0.00019232148 -0.063026436 0.010684706
-0.00036079274 -0.062757288 0.010632108
0.0009821299365 -0.0716345984 0.0112453984
0.000824022788 -0.0713663778 0.0111940153
0.0006659156395 -0.0710981572 0.0111426322
0.000507808491 -0.0708299366 0.0110912491
0.0003497013425 -0.070561716 0.011039866
0.000191594194 -0.0702934954 0.0109884829
3.34870455E-5 -0.0700252748 0.0109370998
-0.000124620103 -0.0697570542 0.0108857167
-0.0002827272515 -0.0694888336 0.0108343336
0.000977282533 -0.0783587248 0.0114379048
0.000829539496 -0.0780914316 0.0113877366
0.000681796459 -0.0778241384 0.0113375684
0.000534053422 -0.0775568452 0.0112874002
0.000386310385 -0.077289552 0.011237232
0.000238567348 -0.0770222588 0.0111870638
9.08243109999999E-5 -0.0767549656 0.0111368956
-5.69187260000001E-5 -0.0764876724 0.0110867274
-0.000204661763 -0.0762203792 0.0110365592
0.0009724351295 -0.0850828512 0.0116304112
0.000835056204 -0.0848164854 0.0115814579
0.0006976772785 -0.0845501196 0.0115325046
0.000560298353 -0.0842837538 0.0114835513
0.0004229194275 -0.084017388 0.011434598
0.000285540502 -0.0837510222 0.0113856447
0.0001481615765 -0.0834846564 0.0113366914
1.0782651E-5 -0.0832182906 0.0112877381
-0.0001265962745 -0.0829519248 0.0112387848
0.000967587726 -0.0918069776 0.0118229176
0.000840572912 -0.0915415392 0.0117751792
0.000713558098 -0.0912761008 0.0117274408
0.000586543284 -0.0910106624 0.0116797024
0.00045952847 -0.090745224 0.011631964
0.000332513656 -0.0904797856 0.0115842256
0.000205498842 -0.0902143472 0.0115364872
7.84840279999999E-5 -0.0899489088 0.0114887488
-4.85307860000001E-5 -0.0896834704 0.0114410104
0.0009627403225 -0.098531104 0.012015424
0.00084608962 -0.098266593 0.0119689005
0.0007294389175 -0.098002082 0.011922377
0.000612788215 -0.097737571 0.0118758535
0.0004961375125 -0.09747306 0.01182933
0.00037948681 -0.097208549 0.0117828065
0.0002628361075 -0.096944038 0.011736283
0.000146185405 -0.096679527 0.0116897595
2.95347024999999E-5 -0.096415016 0.011643236
0.000957892919 -0.1052552304 0.0122079304
0.000851606328 -0.1049916468 0.0121626218
0.000745319737 -0.1047280632 0.0121173132
0.000639033146 -0.1044644796 0.0120720046
0.000532746555 -0.104200896 0.012026696
0.000426459964 -0.1039373124 0.0119813874
0.000320173373 -0.1036737288 0.0119360788
0.000213886782 -0.1034101452 0.0118907702
0.000107600191 -0.1031465616 0.0118454616
0.0009530455155 -0.1119793568 0.0124004368
0.000857123036 -0.1117167006 0.0123563431
0.0007612005565 -0.1114540444 0.0123122494
0.000665278077 -0.1111913882 0.0122681557
0.0005693555975 -0.110928732 0.012224062
0.000473433118 -0.1106660758 0.0121799683
0.0003775106385 -0.1104034196 0.0121358746
0.000281588159 -0.1101407634 0.0120917809
0.0001856656795 -0.1098781072 0.0120476872
0.000948198112 -0.1187034832 0.0125929432
0.000862639744 -0.1184417544 0.0125500644
0.000777081376 -0.1181800256 0.0125071856
0.000691523008 -0.1179182968 0.0124643068
0.00060596464 -0.117656568 0.012421428
0.000520406272 -0.1173948392 0.0123785492
0.000434847904 -0.1171331104 0.0123356704
0.000349289536 -0.1168713816 0.0122927916
0.000263731168 -0.1166096528 0.0122499128
0.0009433507085 -0.1254276096 0.0127854496
0.000868156452 -0.1251668082 0.0127437857
0.0007929621955 -0.1249060068 0.0127021218
0.000717767939 -0.1246452054 0.0126604579
0.0006425736825 -0.124384404 0.012618794
0.000567379426 -0.1241236026 0.0125771301
0.0004921851695 -0.1238628012 0.0125354662
0.000416990913 -0.1236019998 0.0124938023
0.0003417966565 -0.1233411984 0.0124521384
0.000938503305 -0.132151736 0.012977956
0.00087367316 -0.131891862 0.012937507
0.000808843015 -0.131631988 0.012897058
0.00074401287 -0.131372114 0.012856609
0.000679182725 -0.13111224 0.01281616
0.00061435258 -0.130852366 0.012775711
0.000549522435 -0.130592492 0.012735262
0.00048469229 -0.130332618 0.012694813
0.000419862145 -0.130072744 0.012654364
0.0009336559015 -0.1388758624 0.0131704624
0.000879189868 -0.1386169158 0.0131312283
0.0008247238345 -0.1383579692 0.0130919942
0.000770257801 -0.1380990226 0.0130527601
0.0007157917675 -0.137840076 0.013013526
0.000661325734 -0.1375811294 0.0129742919
0.0006068597005 -0.1373221828 0.0129350578
0.000552393667 -0.1370632362 0.0128958237
0.0004979276335 -0.1368042896 0.0128565896
0.000928808498 -0.1455999888 0.0133629688
0.000884706576 -0.1453419696 0.0133249496
0.000840604654 -0.1450839504 0.0132869304
0.000796502732 -0.1448259312 0.0132489112
0.00075240081 -0.144567912 0.013210892
0.000708298888 -0.1443098928 0.0131728728
0.000664196966 -0.1440518736 0.0131348536
0.000620095044 -0.1437938544 0.0130968344
0.000575993122 -0.1435358352 0.0130588152
0.0009239610945 -0.1523241152 0.0135554752
0.000890223284 -0.1520670234 0.0135186709
0.0008564854735 -0.1518099316 0.0134818666
0.000822747663 -0.1515528398 0.0134450623
0.0007890098525 -0.151295748 0.013408258
0.000755272042 -0.1510386562 0.0133714537
0.0007215342315 -0.1507815644 0.0133346494
0.000687796421 -0.1505244726 0.0132978451
0.0006540586105 -0.1502673808 0.0132610408
0.000919113691 -0.1590482416 0.0137479816
0.000895739992 -0.1587920772 0.0137123922
0.000872366293 -0.1585359128 0.0136768028
0.000848992594 -0.1582797484 0.0136412134
0.000825618895 -0.158023584 0.013605624
0.000802245196 -0.1577674196 0.0135700346
0.000778871497 -0.1575112552 0.0135344452
0.000755497798 -0.1572550908 0.0134988558
0.000732124099 -0.1569989264 0.0134632664
0.0009142662875 -0.165772368 0.013940488
0.0009012567 -0.165517131 0.0139061135
0.0008882471125 -0.165261894 0.013871739
0.000875237525 -0.165006657 0.0138373645
0.0008622279375 -0.16475142 0.01380299
0.00084921835 -0.164496183 0.0137686155
0.0008362087625 -0.164240946 0.013734241
0.000823199175 -0.163985709 0.0136998665
0.0008101895875 -0.163730472 0.013665492
0.000909418884 -0.1724964944 0.0141329944
0.000906773408 -0.1722421848 0.0140998348
0.000904127932 -0.1719878752 0.0140666752
0.000901482456 -0.1717335656 0.0140335156
0.00089883698 -0.171479256 0.014000356
0.000896191504 -0.1712249464 0.0139671964
0.000893546028 -0.1709706368 0.0139340368
0.000890900552 -0.1707163272 0.0139008772
0.000888255076 -0.1704620176 0.0138677176
0.0009045714805 -0.1792206208 0.0143255008
0.000912290116 -0.1789672386 0.0142935561
0.0009200087515 -0.1787138564 0.0142616114
0.000927727387 -0.1784604742 0.0142296667
0.0009354460225 -0.178207092 0.014197722
0.000943164658 -0.1779537098 0.0141657773
0.0009508832935 -0.1777003276 0.0141338326
0.000958601929 -0.1774469454 0.0141018879
0.0009663205645 -0.1771935632 0.0140699432
0.000899724077 -0.1859447472 0.0145180072
0.000917806824 -0.1856922924 0.0144872774
0.000935889571 -0.1854398376 0.0144565476
0.000953972318 -0.1851873828 0.0144258178
0.000972055065 -0.184934928 0.014395088
0.000990137812 -0.1846824732 0.0143643582
0.001008220559 -0.1844300184 0.0143336284
0.001026303306 -0.1841775636 0.0143028986
0.001044386053 -0.1839251088 0.0142721688
0.0008948766735 -0.1926688736 0.0147105136
0.000923323532 -0.1924173462 0.0146809987
0.0009517703905 -0.1921658188 0.0146514838
0.000980217249 -0.1919142914 0.0146219689
0.0010086641075 -0.191662764 0.014592454
0.001037110966 -0.1914112366 0.0145629391
0.0010655578245 -0.1911597092 0.0145334242
0.001094004683 -0.1909081818 0.0145039093
0.0011224515415 -0.1906566544 0.0144743944
0.000495357218147143 -0.0367003856321544 0.00898686690133984
0.000296822116130793 -0.0364487272641435 0.00895579080133741
9.82870141144442E-5 -0.0361970688961326 0.00892471470133497
-0.000100248087901905 -0.0359454105281217 0.00889363860133254
-0.000298783189918254 -0.0356937521601108 0.00886256250133011
-0.000497318291934603 -0.0354420937920999 0.00883148640132767
-0.000695853393950953 -0.035190435424089 0.00880041030132524
-0.000894388495967301 -0.0349387770560781 0.0087693342013228
-0.00109292359798365 -0.0346871186880672 0.00873825810132037
0.000554337256130793 -0.0398232847841373 0.00980385480119097
0.000351701072116261 -0.0395705215681276 0.00976995360118881
0.000149064888101728 -0.0393177583521179 0.00973605240118664
-5.35712959128045E-5 -0.0390649951361082 0.00970215120118448
-0.000256207479927337 -0.0388122319200985 0.00966825000118231
-0.00045884366394187 -0.0385594687040888 0.00963434880118015
-0.000661479847956402 -0.0383067054880791 0.00960044760117799
-0.000864116031970935 -0.0380539422720695 0.00956654640117582
-0.00106675221598547 -0.0378011790560598 0.00953264520117366
0.000613317294114444 -0.0429461839361201 0.0106208427010421
0.000406580028101728 -0.0426923158721116 0.0105841164010402
0.000199842762089012 -0.0424384478081032 0.0105473901010383
-6.89450392370384E-6 -0.0421845797440947 0.0105106638010364
-0.00021363176993642 -0.0419307116800862 0.0104739375010345
-0.000420369035949136 -0.0416768436160777 0.0104372112010326
-0.000627106301961852 -0.0414229755520693 0.0104004849010307
-0.000833843567974568 -0.0411691074880608 0.0103637586010288
-0.00104058083398728 -0.0409152394240523 0.010327032301027
0.000672297332098095 -0.046069083088103 0.0114378306008932
0.000461458984087196 -0.0458141101760957 0.0113982792008916
0.000250620636076296 -0.0455591372640884 0.01135872780089
3.97822880653967E-5 -0.0453041643520812 0.0113191764008884
-0.000171056059945503 -0.0450491914400739 0.0112796250008867
-0.000381894407956402 -0.0447942185280666 0.0112400736008851
-0.000592732755967302 -0.0445392456160594 0.0112005222008835
-0.000803571103978201 -0.0442842727040521 0.0111609708008819
-0.0010144094519891 -0.0440292997920448 0.0111214194008802
0.000731277370081746 -0.0491919822400858 0.0122548185007444
0.000516337940072663 -0.0489359044800797 0.012212442000743
0.00030139851006358 -0.0486798267200737 0.0121700655007417
8.64590800544972E-5 -0.0484237489600676 0.0121276890007403
-0.000128480349954586 -0.0481676712000616 0.0120853125007389
-0.000343419779963668 -0.0479115934400555 0.0120429360007376
-0.000558359209972751 -0.0476555156800495 0.0120005595007362
-0.000773298639981834 -0.0473994379200434 0.0119581830007349
-0.000988238069990917 -0.0471433601600374 0.0119158065007335
0.000790257408065397 -0.0523148813920686 0.0130718064005955
0.00057121689605813 -0.0520576987840638 0.0130266048005944
0.000352176384050864 -0.051800516176059 0.0129814032005933
0.000133135872043598 -0.0515433335680541 0.0129362016005922
-8.59046399636685E-5 -0.0512861509600493 0.0128910000005912
-0.000304945151970935 -0.0510289683520444 0.0128457984005901
-0.000523985663978201 -0.0507717857440396 0.012800596800589
-0.000743026175985467 -0.0505146031360347 0.0127553952005879
-0.000962066687992734 -0.0502574205280299 0.0127101936005868
0.000849237446049048 -0.0554377805440515 0.0138887943004466
0.000626095852043598 -0.0551794930880478 0.0138407676004458
0.000402954258038148 -0.0549212056320442 0.013792740900445
0.000179812664032698 -0.0546629181760406 0.0137447142004442
-4.33289299727513E-5 -0.0544046307200369 0.0136966875004434
-0.000266470523978201 -0.0541463432640333 0.0136486608004426
-0.000489612117983651 -0.0538880558080297 0.0136006341004417
-0.0007127537119891 -0.053629768352026 0.0135526074004409
-0.00093589530599455 -0.0533714808960224 0.0135045807004401
0.000908217484032698 -0.0585606796960343 0.0147057822002977
0.000680974808029065 -0.0583012873920319 0.0146549304002972
0.000453732132025432 -0.0580418950880295 0.0146040786002967
0.000226489456021799 -0.0577825027840271 0.0145532268002961
-7.53219981834208E-7 -0.0575231104800246 0.0145023750002956
-0.000227995895985467 -0.0572637181760222 0.014451523200295
-0.000455238571989101 -0.0570043258720198 0.0144006714002945
-0.000682481247992734 -0.0567449335680174 0.014349819600294
-0.000909723923996367 -0.0564855412640149 0.0142989678002934
0.000967197522016349 -0.0616835788480172 0.0155227701001489
0.000735853764014533 -0.061423081696016 0.0154690932001486
0.000504510006012716 -0.0611625845440147 0.0154154163001483
0.0002731662480109 -0.0609020873920135 0.0153617394001481
4.18224900090829E-5 -0.0606415902400123 0.0153080625001478
-0.000189521267992734 -0.0603810930880111 0.0152543856001475
-0.00042086502599455 -0.0601205959360099 0.0152007087001472
-0.000652208783996367 -0.0598600987840087 0.015147031800147
-0.000883552541998184 -0.0595996016320075 0.0150933549001467
0.00102617756 -0.064806478 0.016339758
0.00079073272 -0.064544876 0.016283256
0.00055528788 -0.064283274 0.016226754
0.00031984304 -0.064021672 0.016170252
8.43982E-5 -0.06376007 0.01611375
-0.00015104664 -0.063498468 0.016057248
-0.00038649148 -0.063236866 0.016000746
-0.00062193632 -0.062975264 0.015944244
-0.00085738116 -0.062713662 0.015887742
0.001008483676 -0.0715451741 0.0166218446
0.000786108812 -0.0712839522 0.0165669582
0.000563733948 -0.0710227303 0.0165120718
0.000341359084 -0.0707615084 0.0164571854
0.00011898422 -0.0705002865 0.016402299
-0.000103390644 -0.0702390646 0.0163474126
-0.000325765508 -0.0699778427 0.0162925262
-0.000548140372 -0.0697166208 0.0162376398
-0.000770515236 -0.0694553989 0.0161827534
0.000990789792 -0.0782838702 0.0169039312
0.000781484904 -0.0780230284 0.0168506604
0.000572180016 -0.0777621866 0.0167973896
0.000362875128 -0.0775013448 0.0167441188
0.00015357024 -0.077240503 0.016690848
-5.5734648E-5 -0.0769796612 0.0166375772
-0.000265039536 -0.0767188194 0.0165843064
-0.000474344424 -0.0764579776 0.0165310356
-0.000683649312 -0.0761971358 0.0164777648
0.000973095908 -0.0850225663 0.0171860178
0.000776860996 -0.0847621046 0.0171343626
0.000580626084 -0.0845016429 0.0170827074
0.000384391172 -0.0842411812 0.0170310522
0.00018815626 -0.0839807195 0.016979397
-8.07865199999997E-6 -0.0837202578 0.0169277418
-0.000204313564 -0.0834597961 0.0168760866
-0.000400548476 -0.0831993344 0.0168244314
-0.000596783388 -0.0829388727 0.0167727762
0.000955402024 -0.0917612624 0.0174681044
0.000772237088 -0.0915011808 0.0174180648
0.000589072152 -0.0912410992 0.0173680252
0.000405907216 -0.0909810176 0.0173179856
0.00022274228 -0.090720936 0.017267946
3.9577344E-5 -0.0904608544 0.0172179064
-0.000143587592 -0.0902007728 0.0171678668
-0.000326752528 -0.0899406912 0.0171178272
-0.000509917464 -0.0896806096 0.0170677876
0.00093770814 -0.0984999585 0.017750191
0.00076761318 -0.098240257 0.017701767
0.00059751822 -0.0979805555 0.017653343
0.00042742326 -0.097720854 0.017604919
0.0002573283 -0.0974611525 0.017556495
8.723334E-5 -0.097201451 0.017508071
-8.28616199999999E-5 -0.0969417495 0.017459647
-0.00025295658 -0.096682048 0.017411223
-0.00042305154 -0.0964223465 0.017362799
0.000920014256 -0.1052386546 0.0180322776
0.000762989272 -0.1049793332 0.0179854692
0.000605964288 -0.1047200118 0.0179386608
0.000448939304 -0.1044606904 0.0178918524
0.00029191432 -0.104201369 0.017845044
0.000134889336 -0.1039420476 0.0177982356
-2.21356480000001E-5 -0.1036827262 0.0177514272
-0.000179160632 -0.1034234048 0.0177046188
-0.000336185616 -0.1031640834 0.0176578104
0.000902320372 -0.1119773507 0.0183143642
0.000758365364 -0.1117184094 0.0182691714
0.000614410356 -0.1114594681 0.0182239786
0.000470455348 -0.1112005268 0.0181787858
0.00032650034 -0.1109415855 0.018133593
0.000182545332 -0.1106826442 0.0180884002
3.85903240000001E-5 -0.1104237029 0.0180432074
-0.000105364684 -0.1101647616 0.0179980146
-0.000249319692 -0.1099058203 0.0179528218
0.000884626488 -0.1187160468 0.0185964508
0.000753741456 -0.1184574856 0.0185528736
0.000622856424 -0.1181989244 0.0185092964
0.000491971392 -0.1179403632 0.0184657192
0.00036108636 -0.117681802 0.018422142
0.000230201328 -0.1174232408 0.0183785648
9.9316296E-5 -0.1171646796 0.0183349876
-3.1568736E-5 -0.1169061184 0.0182914104
-0.000162453768 -0.1166475572 0.0182478332
0.000866932604 -0.1254547429 0.0188785374
0.000749117548 -0.1251965618 0.0188365758
0.000631302492 -0.1249383807 0.0187946142
0.000513487436 -0.1246801996 0.0187526526
0.00039567238 -0.1244220185 0.018710691
0.000277857324 -0.1241638374 0.0186687294
0.000160042268 -0.1239056563 0.0186267678
4.22272120000001E-5 -0.1236474752 0.0185848062
-7.5587844E-5 -0.1233892941 0.0185428446
0.00084923872 -0.132193439 0.019160624
0.00074449364 -0.131935638 0.019120278
0.00063974856 -0.131677837 0.019079932
0.00053500348 -0.131420036 0.019039586
0.0004302584 -0.131162235 0.01899924
0.00032551332 -0.130904434 0.018958894
0.00022076824 -0.130646633 0.018918548
0.00011602316 -0.130388832 0.018878202
1.12780800000001E-5 -0.130131031 0.018837856
0.000831544836 -0.1389321351 0.0194427106
0.000739869732 -0.1386747142 0.0194039802
0.000648194628 -0.1384172933 0.0193652498
0.000556519524 -0.1381598724 0.0193265194
0.00046484442 -0.1379024515 0.019287789
0.000373169316 -0.1376450306 0.0192490586
0.000281494212 -0.1373876097 0.0192103282
0.000189819108 -0.1371301888 0.0191715978
9.8144004E-5 -0.1368727679 0.0191328674
0.000813850952 -0.1456708312 0.0197247972
0.000735245824 -0.1454137904 0.0196876824
0.000656640696 -0.1451567496 0.0196505676
0.000578035568 -0.1448997088 0.0196134528
0.00049943044 -0.144642668 0.019576338
0.000420825312 -0.1443856272 0.0195392232
0.000342220184 -0.1441285864 0.0195021084
0.000263615056 -0.1438715456 0.0194649936
0.000185009928 -0.1436145048 0.0194278788
0.000796157068 -0.1524095273 0.0200068838
0.000730621916 -0.1521528666 0.0199713846
0.000665086764 -0.1518962059 0.0199358854
0.000599551612 -0.1516395452 0.0199003862
0.00053401646 -0.1513828845 0.019864887
0.000468481308 -0.1511262238 0.0198293878
0.000402946156 -0.1508695631 0.0197938886
0.000337411004 -0.1506129024 0.0197583894
0.000271875852 -0.1503562417 0.0197228902
0.000778463184 -0.1591482234 0.0202889704
0.000725998008 -0.1588919428 0.0202550868
0.000673532832 -0.1586356622 0.0202212032
0.000621067656 -0.1583793816 0.0201873196
0.00056860248 -0.158123101 0.020153436
0.000516137304 -0.1578668204 0.0201195524
0.000463672128 -0.1576105398 0.0200856688
0.000411206952 -0.1573542592 0.0200517852
0.000358741776 -0.1570979786 0.0200179016
0.0007607693 -0.1658869195 0.020571057
0.0007213741 -0.165631019 0.020538789
0.0006819789 -0.1653751185 0.020506521
0.0006425837 -0.165119218 0.020474253
0.0006031885 -0.1648633175 0.020441985
0.0005637933 -0.164607417 0.020409717
0.0005243981 -0.1643515165 0.020377449
0.0004850029 -0.164095616 0.020345181
0.0004456077 -0.1638397155 0.020312913
0.000743075416 -0.1726256156 0.0208531436
0.000716750192 -0.1723700952 0.0208224912
0.000690424968 -0.1721145748 0.0207918388
0.000664099744 -0.1718590544 0.0207611864
0.00063777452 -0.171603534 0.020730534
0.000611449296 -0.1713480136 0.0206998816
0.000585124072 -0.1710924932 0.0206692292
0.000558798848 -0.1708369728 0.0206385768
0.000532473624 -0.1705814524 0.0206079244
0.000725381532 -0.1793643117 0.0211352302
0.000712126284 -0.1791091714 0.0211061934
0.000698871036 -0.1788540311 0.0210771566
0.000685615788 -0.1785988908 0.0210481198
0.00067236054 -0.1783437505 0.021019083
0.000659105292 -0.1780886102 0.0209900462
0.000645850044 -0.1778334699 0.0209610094
0.000632594796 -0.1775783296 0.0209319726
0.000619339548 -0.1773231893 0.0209029358
0.000707687648 -0.1861030078 0.0214173168
0.000707502376 -0.1858482476 0.0213898956
0.000707317104 -0.1855934874 0.0213624744
0.000707131832 -0.1853387272 0.0213350532
0.00070694656 -0.185083967 0.021307632
0.000706761288 -0.1848292068 0.0212802108
0.000706576016 -0.1845744466 0.0212527896
0.000706390744 -0.1843196864 0.0212253684
0.000706205472 -0.1840649262 0.0211979472
0.000689993764 -0.1928417039 0.0216994034
0.000702878468 -0.1925873238 0.0216735978
0.000715763172 -0.1923329437 0.0216477922
0.000728647876 -0.1920785636 0.0216219866
0.00074153258 -0.1918241835 0.021596181
0.000754417284 -0.1915698034 0.0215703754
0.000767301988 -0.1913154233 0.0215445698
0.000780186692 -0.1910610432 0.0215187642
0.000793071396 -0.1908066631 0.0214929586
0.00048422533419619 -0.0367752917735772 0.0118946432017865
0.000216162758174391 -0.0365143115470718 0.0118614199017832
-5.18998178474077E-5 -0.0362533313205663 0.01182819660178
-0.000319962393869207 -0.0359923510940609 0.0117949733017767
-0.000588024969891006 -0.0357313708675554 0.0117617500017735
-0.000856087545912804 -0.03547039064105 0.0117285267017702
-0.0011241501219346 -0.0352094104145445 0.011695303401767
-0.0013922126979564 -0.0349484301880391 0.0116620801017637
-0.0016602752739782 -0.0346874499615336 0.0116288568017605
0.000548797828174391 -0.0398783131320686 0.012975974401588
0.000276917936155014 -0.0396181022640638 0.0129397308015851
5.03804413563754E-6 -0.0393578913960589 0.0129034872015822
-0.000266841847883739 -0.0390976805280541 0.0128672436015793
-0.000538721739903116 -0.0388374696600493 0.0128310000015764
-0.000810601631922493 -0.0385772587920444 0.0127947564015735
-0.00108248152394187 -0.0383170479240396 0.0127585128015706
-0.00135436141596125 -0.0380568370560347 0.0127222692015678
-0.00162624130798062 -0.0377966261880299 0.0126860256015649
0.000613370322152592 -0.0429813344905601 0.0140573056013895
0.000337673114135638 -0.0427218929810558 0.0140180417013869
6.19759061186829E-5 -0.0424624514715516 0.0139787778013844
-0.000213721301898272 -0.0422030099620473 0.0139395139013819
-0.000489418509915227 -0.0419435684525431 0.0139002500013794
-0.000765115717932181 -0.0416841269430389 0.0138609861013768
-0.00104081292594914 -0.0414246854335346 0.0138217222013743
-0.00131651013396609 -0.0411652439240304 0.0137824583013718
-0.00159220734198305 -0.0409058024145261 0.0137431944013693
0.000677942816130794 -0.0460843558490515 0.015138636801191
0.000398428292116261 -0.0458256836980478 0.0150963526011888
0.000118913768101728 -0.0455670115470442 0.0150540684011866
-0.000160600755912804 -0.0453083393960406 0.0150117842011845
-0.000440115279927337 -0.0450496672450369 0.0149695000011823
-0.00071962980394187 -0.0447909950940333 0.0149272158011802
-0.000999144327956402 -0.0445323229430297 0.014884931601178
-0.00127865885197094 -0.044273650792026 0.0148426474011758
-0.00155817337598547 -0.0440149786410224 0.0148003632011737
0.000742515310108995 -0.0491873772075429 0.0162199680009925
0.000459183470096884 -0.0489294744150399 0.0161746635009907
0.000175851630084774 -0.0486715716225368 0.0161293590009889
-0.000107480209927337 -0.0484136688300338 0.0160840545009871
-0.000390812049939448 -0.0481557660375308 0.0160387500009853
-0.000674143889951558 -0.0478978632450278 0.0159934455009835
-0.000957475729963669 -0.0476399604525247 0.0159481410009817
-0.00124080756997578 -0.0473820576600217 0.0159028365009799
-0.00152413940998789 -0.0471241548675187 0.0158575320009781
0.000807087804087196 -0.0522903985660343 0.017301299200794
0.000519938648077507 -0.0520332651320319 0.0172529744007925
0.000232789492067819 -0.0517761316980295 0.0172046496007911
-5.43596639418696E-5 -0.0515189982640271 0.0171563248007897
-0.000341508819951558 -0.0512618648300246 0.0171080000007882
-0.000628657975961247 -0.0510047313960222 0.0170596752007868
-0.000915807131970935 -0.0507475979620198 0.0170113504007853
-0.00120295628798062 -0.0504904645280174 0.0169630256007839
-0.00149010544399031 -0.0502333310940149 0.0169147008007824
0.000871660298065397 -0.0553934199245257 0.0183826304005955
0.00058069382605813 -0.0551370558490239 0.0183312853005944
0.000289727354050864 -0.0548806917735221 0.0182799402005933
-1.23911795640224E-6 -0.0546243276980203 0.0182285951005922
-0.000292205589963669 -0.0543679636225185 0.0181772500005912
-0.000583172061970935 -0.0541115995470167 0.0181259049005901
-0.000874138533978201 -0.0538552354715148 0.018074559800589
-0.00116510500598547 -0.053598871396013 0.0180232147005879
-0.00145607147799273 -0.0533425073205112 0.0179718696005868
0.000936232792043598 -0.0584964412830172 0.019463961600397
0.000641449004038754 -0.0582408465660159 0.0194095962003963
0.000346665216033909 -0.0579852518490147 0.0193552308003955
5.18814280290652E-5 -0.0577296571320135 0.0193008654003948
-0.000242902359975779 -0.0574740624150123 0.0192465000003941
-0.000537686147980623 -0.0572184676980111 0.0191921346003934
-0.000832469935985468 -0.0569628729810099 0.0191377692003927
-0.00112725372399031 -0.0567072782640087 0.0190834038003919
-0.00142203751199516 -0.0564516835470075 0.0190290384003912
0.0010008052860218 -0.0615994626415086 0.0205452928001985
0.000702204182019377 -0.061344637283008 0.0204879071001981
0.000403603078016955 -0.0610898119245074 0.0204305214001978
0.000105001974014533 -0.0608349865660068 0.0203731357001974
-0.00019359912998789 -0.0605801612075062 0.0203157500001971
-0.000492200233990312 -0.0603253358490056 0.0202583643001967
-0.000790801337992734 -0.0600705104905049 0.0202009786001963
-0.00108940244199516 -0.0598156851320043 0.020143592900196
-0.00138800354599758 -0.0595608597735037 0.0200862072001956
0.00106537778 -0.064702484 0.021626624
0.00076295936 -0.064448428 0.021566218
0.00046054094 -0.064194372 0.021505812
0.00015812252 -0.063940316 0.021445406
-0.0001442959 -0.06368626 0.021385
-0.00044671432 -0.063432204 0.021324594
-0.00074913274 -0.063178148 0.021264188
-0.00105155116 -0.062924092 0.021203782
-0.00135396958 -0.062670036 0.021143376
0.0010348374155 -0.0714557498 0.0219982908
0.000748194836 -0.0712015266 0.0219399011
0.0004615522565 -0.0709473034 0.0218815114
0.000174909677 -0.0706930802 0.0218231217
-0.0001117329025 -0.070438857 0.021764732
-0.000398375482 -0.0701846338 0.0217063423
-0.0006850180615 -0.0699304106 0.0216479526
-0.000971660641 -0.0696761874 0.0215895629
-0.0012583032205 -0.0694219642 0.0215311732
0.001004297051 -0.0782090156 0.0223699576
0.000733430312 -0.0779546252 0.0223135842
0.000462563573 -0.0777002348 0.0222572108
0.000191696834 -0.0774458444 0.0222008374
-7.91699050000001E-5 -0.077191454 0.022144464
-0.000350036644 -0.0769370636 0.0220880906
-0.000620903383 -0.0766826732 0.0220317172
-0.000891770122 -0.0764282828 0.0219753438
-0.001162636861 -0.0761738924 0.0219189704
0.0009737566865 -0.0849622814 0.0227416244
0.000718665788 -0.0847077238 0.0226872673
0.0004635748895 -0.0844531662 0.0226329102
0.000208483991 -0.0841986086 0.0225785531
-4.66069075000001E-5 -0.083944051 0.022524196
-0.000301697806 -0.0836894934 0.0224698389
-0.0005567887045 -0.0834349358 0.0224154818
-0.000811879603 -0.0831803782 0.0223611247
-0.0010669705015 -0.0829258206 0.0223067676
0.000943216322 -0.0917155472 0.0231132912
0.000703901264 -0.0914608224 0.0230609504
0.000464586206 -0.0912060976 0.0230086096
0.000225271148 -0.0909513728 0.0229562688
-1.404391E-5 -0.090696648 0.022903928
-0.000253358968 -0.0904419232 0.0228515872
-0.000492674026 -0.0901871984 0.0227992464
-0.000731989084 -0.0899324736 0.0227469056
-0.000971304142 -0.0896777488 0.0226945648
0.0009126759575 -0.098468813 0.023484958
0.00068913674 -0.098213921 0.0234346335
0.0004655975225 -0.097959029 0.023384309
0.000242058305 -0.097704137 0.0233339845
1.85190874999999E-5 -0.097449245 0.02328366
-0.00020502013 -0.097194353 0.0232333355
-0.0004285593475 -0.096939461 0.023183011
-0.000652098565 -0.096684569 0.0231326865
-0.0008756377825 -0.096429677 0.023082362
0.000882135593 -0.1052220788 0.0238566248
0.000674372216 -0.1049670196 0.0238083166
0.000466608839 -0.1047119604 0.0237600084
0.000258845462 -0.1044569012 0.0237117002
5.10820849999999E-5 -0.104201842 0.023663392
-0.000156681292 -0.1039467828 0.0236150838
-0.000364444669 -0.1036917236 0.0235667756
-0.000572208046 -0.1034366644 0.0235184674
-0.000779971423 -0.1031816052 0.0234701592
0.0008515952285 -0.1119753446 0.0242282916
0.000659607692 -0.1117201182 0.0241819997
0.0004676201555 -0.1114648918 0.0241357078
0.000275632619 -0.1112096654 0.0240894159
8.36450824999999E-5 -0.110954439 0.024043124
-0.000108342454 -0.1106992126 0.0239968321
-0.0003003299905 -0.1104439862 0.0239505402
-0.000492317527 -0.1101887598 0.0239042483
-0.0006843050635 -0.1099335334 0.0238579564
0.000821054864 -0.1187286104 0.0245999584
0.000644843168 -0.1184732168 0.0245556828
0.000468631472 -0.1182178232 0.0245114072
0.000292419776 -0.1179624296 0.0244671316
0.00011620808 -0.117707036 0.024422856
-6.00036160000001E-5 -0.1174516424 0.0243785804
-0.000236215312 -0.1171962488 0.0243343048
-0.000412427008 -0.1169408552 0.0242900292
-0.000588638704 -0.1166854616 0.0242457536
0.0007905144995 -0.1254818762 0.0249716252
0.000630078644 -0.1252263154 0.0249293659
0.0004696427885 -0.1249707546 0.0248871066
0.000309206933 -0.1247151938 0.0248448473
0.0001487710775 -0.124459633 0.024802588
-1.1664778E-5 -0.1242040722 0.0247603287
-0.0001721006335 -0.1239485114 0.0247180694
-0.000332536489 -0.1236929506 0.0246758101
-0.0004929723445 -0.1234373898 0.0246335508
0.000759974135 -0.132235142 0.025343292
0.00061531412 -0.131979414 0.025303049
0.000470654105 -0.131723686 0.025262806
0.00032599409 -0.131467958 0.025222563
0.000181334075 -0.13121223 0.02518232
3.66740599999999E-5 -0.130956502 0.025142077
-0.000107985955 -0.130700774 0.025101834
-0.00025264597 -0.130445046 0.025061591
-0.000397305985 -0.130189318 0.025021348
0.0007294337705 -0.1389884078 0.0257149588
0.000600549596 -0.1387325126 0.0256767321
0.0004716654215 -0.1384766174 0.0256385054
0.000342781247 -0.1382207222 0.0256002787
0.0002138970725 -0.137964827 0.025562052
8.5012898E-5 -0.1377089318 0.0255238253
-4.38712765000001E-5 -0.1374530366 0.0254855986
-0.000172755451 -0.1371971414 0.0254473719
-0.0003016396255 -0.1369412462 0.0254091452
0.000698893406 -0.1457416736 0.0260866256
0.000585785072 -0.1454856112 0.0260504152
0.000472676738 -0.1452295488 0.0260142048
0.000359568404 -0.1449734864 0.0259779944
0.00024646007 -0.144717424 0.025941784
0.000133351736 -0.1444613616 0.0259055736
2.02434019999999E-5 -0.1442052992 0.0258693632
-9.2864932E-5 -0.1439492368 0.0258331528
-0.000205973266 -0.1436931744 0.0257969424
0.0006683530415 -0.1524949394 0.0264582924
0.000571020548 -0.1522387098 0.0264240983
0.0004736880545 -0.1519824802 0.0263899042
0.000376355561 -0.1517262506 0.0263557101
0.0002790230675 -0.151470021 0.026321516
0.000181690574 -0.1512137914 0.0262873219
8.43580804999999E-5 -0.1509575618 0.0262531278
-1.29744130000001E-5 -0.1507013322 0.0262189337
-0.0001103069065 -0.1504451026 0.0261847396
0.000637812677 -0.1592482052 0.0268299592
0.000556256024 -0.1589918084 0.0267977814
0.000474699371 -0.1587354116 0.0267656036
0.000393142718 -0.1584790148 0.0267334258
0.000311586065 -0.158222618 0.026701248
0.000230029412 -0.1579662212 0.0266690702
0.000148472759 -0.1577098244 0.0266368924
6.69161059999999E-5 -0.1574534276 0.0266047146
-1.46405470000001E-5 -0.1571970308 0.0265725368
0.0006072723125 -0.166001471 0.027201626
0.0005414915 -0.165744907 0.0271714645
0.0004757106875 -0.165488343 0.027141303
0.000409929875 -0.165231779 0.0271111415
0.0003441490625 -0.164975215 0.02708098
0.00027836825 -0.164718651 0.0270508185
0.0002125874375 -0.164462087 0.027020657
0.000146806625 -0.164205523 0.0269904955
8.10258124999999E-5 -0.163948959 0.026960334
0.000576731948 -0.1727547368 0.0275732928
0.000526726976 -0.1724980056 0.0275451476
0.000476722004 -0.1722412744 0.0275170024
0.000426717032 -0.1719845432 0.0274888572
0.00037671206 -0.171727812 0.027460712
0.000326707088 -0.1714710808 0.0274325668
0.000276702116 -0.1712143496 0.0274044216
0.000226697144 -0.1709576184 0.0273762764
0.000176692172 -0.1707008872 0.0273481312
0.0005461915835 -0.1795080026 0.0279449596
0.000511962452 -0.1792511042 0.0279188307
0.0004777333205 -0.1789942058 0.0278927018
0.000443504189 -0.1787373074 0.0278665729
0.0004092750575 -0.178480409 0.027840444
0.000375045926 -0.1782235106 0.0278143151
0.0003408167945 -0.1779666122 0.0277881862
0.000306587663 -0.1777097138 0.0277620573
0.0002723585315 -0.1774528154 0.0277359284
0.000515651219 -0.1862612684 0.0283166264
0.000497197928 -0.1860042028 0.0282925138
0.000478744637 -0.1857471372 0.0282684012
0.000460291346 -0.1854900716 0.0282442886
0.000441838055 -0.185233006 0.028220176
0.000423384764 -0.1849759404 0.0281960634
0.000404931473 -0.1847188748 0.0281719508
0.000386478182 -0.1844618092 0.0281478382
0.000368024891 -0.1842047436 0.0281237256
0.0004851108545 -0.1930145342 0.0286882932
0.000482433404 -0.1927573014 0.0286661969
0.0004797559535 -0.1925000686 0.0286441006
0.000477078503 -0.1922428358 0.0286220043
0.0004744010525 -0.191985603 0.028599908
0.000471723602 -0.1917283702 0.0285778117
0.0004690461515 -0.1914711374 0.0285557154
0.000466368701 -0.1912139046 0.0285336191
0.0004636912505 -0.1909566718 0.0285115228
0.00293627154597336 -0.0283883010568698 -0.00940576320215171
0.00263593944194671 -0.0285462578284298 -0.00939263490215568
0.00233560733792007 -0.0287042145999897 -0.00937950660215964
0.00203527523389343 -0.0288621713715497 -0.00936637830216361
0.00173494312986678 -0.0290201281431096 -0.00935325000216758
0.00143461102584014 -0.0291780849146696 -0.00934012170217155
0.0011342789218135 -0.0293360416862295 -0.00932699340217551
0.000833946817786855 -0.0294939984577895 -0.00931386510217948
0.000533614713760212 -0.0296519552293494 -0.00930073680218345
0.00296513825197093 -0.0252400516984035 -0.00836067840234732
0.00265871870394187 -0.0253837841764689 -0.00834900880235165
0.0023522991559128 -0.0255275166545343 -0.00833733920235597
0.00204587960788374 -0.0256712491325997 -0.0083256696023603
0.00173946005985467 -0.0258149816106651 -0.00831400000236463
0.00143304051182561 -0.0259587140887304 -0.00830233040236896
0.00112662096379654 -0.0261024465667958 -0.00829066080237329
0.000820201415767479 -0.0262461790448612 -0.00827899120237762
0.000513781867738413 -0.0263899115229266 -0.00826732160238194
0.00299400495796851 -0.0220918023399371 -0.00731559360254293
0.00268149796593703 -0.0222213105245079 -0.00730538270254762
0.00236899097390554 -0.0223508187090788 -0.00729517180255231
0.00205648398187405 -0.0224803268936496 -0.007284960902557
0.00174397698984256 -0.0226098350782205 -0.00727475000256168
0.00143146999781108 -0.0227393432627913 -0.00726453910256637
0.00111896300577959 -0.0228688514473622 -0.00725432820257106
0.000806456013748102 -0.022998359631933 -0.00724411730257575
0.000493949021716614 -0.0231278678165039 -0.00723390640258044
0.00302287166396609 -0.0189435529814707 -0.00627050880273854
0.00270427722793218 -0.019058836872547 -0.00626175660274359
0.00238568279189827 -0.0191741207636233 -0.00625300440274864
0.00206708835586436 -0.0192894046546996 -0.00624425220275369
0.00174849391983045 -0.0194046885457759 -0.00623550000275874
0.00142989948379654 -0.0195199724368522 -0.00622674780276379
0.00111130504776263 -0.0196352563279285 -0.00621799560276884
0.000792710611728725 -0.0197505402190048 -0.00620924340277389
0.000474116175694815 -0.0198658241100811 -0.00620049120277893
0.00305173836996367 -0.0157953036230043 -0.00522542400293415
0.00272705648992734 -0.0158963632205861 -0.00521813050293956
0.00240237460989101 -0.0159974228181678 -0.00521083700294497
0.00207769272985467 -0.0160984824157496 -0.00520354350295038
0.00175301084981834 -0.0161995420133313 -0.00519625000295579
0.00142832896978201 -0.0163006016109131 -0.0051889565029612
0.00110364708974568 -0.0164016612084948 -0.00518166300296661
0.000778965209709348 -0.0165027208060766 -0.00517436950297202
0.000454283329673016 -0.0166037804036583 -0.00516707600297743
0.00308060507596125 -0.012647054264538 -0.00418033920312976
0.00274983575192249 -0.0127338895686252 -0.00417450440313553
0.00241906642788374 -0.0128207248727123 -0.0041686696031413
0.00208829710384499 -0.0129075601767995 -0.00416283480314707
0.00175752777980623 -0.0129943954808867 -0.00415700000315284
0.00142675845576748 -0.0130812307849739 -0.00415116520315861
0.00109598913172872 -0.0131680660890611 -0.00414533040316438
0.000765219807689971 -0.0132549013931483 -0.00413949560317015
0.000434450483651218 -0.0133417366972355 -0.00413366080317593
0.00310947178195882 -0.00949880490607158 -0.00313525440332537
0.00277261501391765 -0.00957141591666422 -0.0031308783033315
0.00243575824587647 -0.00964402692725687 -0.00312650220333763
0.0020989014778353 -0.00971663793784951 -0.00312212610334376
0.00176204470979412 -0.00978924894844216 -0.0031177500033499
0.00142518794175295 -0.0098618599590348 -0.00311337390335603
0.00108833117371177 -0.00993447096962745 -0.00310899780336216
0.000751474405670594 -0.0100070819802201 -0.00310462170336829
0.000414617637629419 -0.0100796929908127 -0.00310024560337442
0.0031383384879564 -0.0063505555476052 -0.00209016960352098
0.0027953942759128 -0.00640894226470329 -0.00208725220352747
0.00245245006386921 -0.00646732898180139 -0.00208433480353396
0.00210950585182561 -0.00652571569889948 -0.00208141740354045
0.00176656163978201 -0.00658410241599758 -0.00207850000354695
0.00142361742773841 -0.00664248913309567 -0.00207558260355344
0.00108067321569482 -0.00670087585019377 -0.00207266520355993
0.000737729003651218 -0.00675926256729186 -0.00206974780356642
0.00039478479160762 -0.00681764928438996 -0.00206683040357292
0.00316720519395398 -0.00320230618913882 -0.00104508480371659
0.00281817353790796 -0.00324646861274236 -0.00104362610372344
0.00246914188186194 -0.00329063103634591 -0.00104216740373029
0.00212011022581592 -0.00333479345994945 -0.00104070870373715
0.0017710785697699 -0.003378955883553 -0.001039250003744
0.00142204691372388 -0.00342311830715654 -0.00103779130375085
0.00107301525767786 -0.00346728073076009 -0.0010363326037577
0.000723983601631841 -0.00351144315436363 -0.00103487390376456
0.000374951945585821 -0.00355560557796718 -0.00103341520377141
0.00235319470198002 -0.0283984006133287 -0.00704072790161378
0.00212295760396004 -0.028569427656382 -0.00702584280161676
0.00189272050594005 -0.0287404546994353 -0.00701095770161973
0.00166248340792007 -0.0289114817424886 -0.00699607260162271
0.00143224630990009 -0.0290825087855419 -0.00698118750162568
0.00120200921188011 -0.0292535358285952 -0.00696630240162866
0.000971772113860124 -0.0294245628716485 -0.00695141730163164
0.000741535015840141 -0.0295955899147018 -0.00693653220163461
0.000511297917820159 -0.029766616957755 -0.00692164710163759
0.0023741988239782 -0.0252550353963586 -0.00625842480176049
0.0021381580479564 -0.0254137123524168 -0.00624519360176374
0.0019021172719346 -0.0255723893084749 -0.00623196240176698
0.0016660764959128 -0.025731066264533 -0.00621873120177023
0.00143003571989101 -0.0258897432205912 -0.00620550000177347
0.00119399494386921 -0.0260484201766493 -0.00619226880177672
0.000957954167847408 -0.0262070971327074 -0.00617903760177997
0.000721913391825609 -0.0263657740887655 -0.00616580640178321
0.00048587261580381 -0.0265244510448237 -0.00615257520178646
0.00239520294597638 -0.0221116701793885 -0.0054761217019072
0.00215335849195277 -0.0222579970484515 -0.00546454440191071
0.00191151403792915 -0.0224043239175145 -0.00545296710191423
0.00166966958390554 -0.0225506507865774 -0.00544138980191775
0.00142782512988192 -0.0226969776556404 -0.00542981250192126
0.00118598067585831 -0.0228433045247034 -0.00541823520192478
0.000944136221834692 -0.0229896313937664 -0.0054066579019283
0.000702291767811076 -0.0231359582628293 -0.00539508060193181
0.000460447313787461 -0.0232822851318923 -0.00538350330193533
0.00241620706797457 -0.0189683049624184 -0.0046938186020539
0.00216855893594914 -0.0191022817444862 -0.00468389520205769
0.0019209108039237 -0.019236258526554 -0.00467397180206148
0.00167326267189827 -0.0193702353086219 -0.00466404840206526
0.00142561453987284 -0.0195042120906897 -0.00465412500206905
0.00117796640784741 -0.0196381888727575 -0.00464420160207284
0.000930318275821975 -0.0197721656548253 -0.00463427820207663
0.000682670143796544 -0.0199061424368931 -0.00462435480208041
0.000435022011771111 -0.020040119218961 -0.0046144314020842
0.00243721118997275 -0.0158249397454483 -0.00391151550220061
0.0021837593799455 -0.015946566440521 -0.00390324600220467
0.00193030756991825 -0.0160681931355936 -0.00389497650220873
0.00167685575989101 -0.0161898198306663 -0.00388670700221278
0.00142340394986376 -0.0163114465257389 -0.00387843750221684
0.00116995213983651 -0.0164330732208116 -0.0038701680022209
0.00091650032980926 -0.0165546999158843 -0.00386189850222496
0.000663048519782011 -0.0166763266109569 -0.00385362900222901
0.000409596709754762 -0.0167979533060296 -0.00384535950223307
0.00245821531197093 -0.0126815745284782 -0.00312921240234732
0.00219895982394187 -0.0127908511365557 -0.00312259680235165
0.0019397043359128 -0.0129001277446332 -0.00311598120235597
0.00168044884788374 -0.0130094043527107 -0.0031093656023603
0.00142119335985467 -0.0131186809607882 -0.00310275000236463
0.00116193787182561 -0.0132279575688657 -0.00309613440236896
0.000902682383796544 -0.0133372341769432 -0.00308951880237329
0.000643426895767478 -0.0134465107850207 -0.00308290320237762
0.000384171407738413 -0.0135557873930982 -0.00307628760238194
0.00247921943396912 -0.00953820931150807 -0.00234690930249403
0.00221416026793824 -0.00963513583259042 -0.00234194760249862
0.00194910110190735 -0.00973206235367277 -0.00233698590250322
0.00168404193587647 -0.00982898887475512 -0.00233202420250782
0.00141898276984559 -0.00992591539583747 -0.00232706250251242
0.00115392360381471 -0.0100228419169198 -0.00232210080251702
0.000888864437783827 -0.0101197684380022 -0.00231713910252162
0.000623805271752946 -0.0102166949590845 -0.00231217740252622
0.000358746105722064 -0.0103136214801669 -0.00230721570253082
0.0025002235559673 -0.00639484409453795 -0.00156460620264073
0.0022293607119346 -0.00647942052862515 -0.0015612984026456
0.0019584978679019 -0.00656399696271234 -0.00155799060265047
0.00168763502386921 -0.00664857339679954 -0.00155468280265534
0.00141677217983651 -0.00673314983088673 -0.00155137500266021
0.00114590933580381 -0.00681772626497393 -0.00154806720266508
0.000875046491771111 -0.00690230269906112 -0.00154475940266995
0.000604183647738413 -0.00698687913314832 -0.00154145160267482
0.000333320803705715 -0.00707145556723552 -0.00153814380267969
0.00252122767796548 -0.00325147887756784 -0.00078230310278744
0.00224456115593097 -0.00332370522465988 -0.00078064920279258
0.00196789463389646 -0.00339593157175192 -0.00077899530279772
0.00169122811186194 -0.00346815791884396 -0.00077734140280286
0.00141456158982743 -0.003540384265936 -0.000775687502807999
0.00113789506779291 -0.00361261061302804 -0.000774033602813139
0.000861228545758395 -0.00368483696012008 -0.000772379702818279
0.000584562023723881 -0.00375706330721212 -0.000770725802823418
0.000307895501689366 -0.00382928965430416 -0.000769071902828558
0.00177011785798668 -0.0284085001697877 -0.00467569260107586
0.00160997576597336 -0.0285925974843343 -0.00465905070107784
0.00144983367396004 -0.0287766947988809 -0.00464240880107982
0.00128969158194671 -0.0289607921134275 -0.00462576690108181
0.00112954948993339 -0.0291448894279742 -0.00460912500108379
0.000969407397920071 -0.0293289867425208 -0.00459248310108577
0.000809265305906749 -0.0295130840570674 -0.00457584120108776
0.000649123213893428 -0.029697181371614 -0.00455919930108974
0.000488981121880106 -0.0298812786861607 -0.00454255740109172
0.00178325939598547 -0.0252700190943138 -0.00415617120117366
0.00161759739197093 -0.0254436405283647 -0.00414137840117582
0.0014519353879564 -0.0256172619624155 -0.00412658560117799
0.00128627338394187 -0.0257908833964664 -0.00411179280118015
0.00112061137992734 -0.0259645048305173 -0.00409700000118232
0.000954949375912804 -0.0261381262645681 -0.00408220720118448
0.000789287371898272 -0.026311747698619 -0.00406741440118664
0.000623625367883739 -0.0264853691326699 -0.00405262160118881
0.000457963363869207 -0.0266589905667207 -0.00403782880119097
0.00179640093398426 -0.02213153801884 -0.00363664980127146
0.00162521901796851 -0.0222946835723951 -0.00362370610127381
0.00145403710195277 -0.0224578291259502 -0.00361076240127615
0.00128285518593703 -0.0226209746795053 -0.0035978187012785
0.00111167326992128 -0.0227841202330604 -0.00358487500128084
0.000940491353905538 -0.0229472657866155 -0.00357193130128319
0.000769309437889794 -0.0231104113401706 -0.00355898760128553
0.000598127521874051 -0.0232735568937257 -0.00354604390128788
0.000426945605858307 -0.0234367024472808 -0.00353310020129022
0.00180954247198305 -0.0189930569433661 -0.00311712840136927
0.00163284064396609 -0.0191457266164254 -0.00310603380137179
0.00145613881594914 -0.0192983962894848 -0.00309493920137432
0.00127943698793218 -0.0194510659625441 -0.00308384460137684
0.00110273515991523 -0.0196037356356035 -0.00307275000137937
0.000926033331898272 -0.0197564053086628 -0.00306165540138189
0.000749331503881317 -0.0199090749817222 -0.00305056080138442
0.000572629675864362 -0.0200617446547815 -0.00303946620138694
0.000395927847847408 -0.0202144143278408 -0.00302837160138947
0.00182268400998183 -0.0158545758678923 -0.00259760700146707
0.00164046226996367 -0.0159967696604558 -0.00258836150146978
0.0014582405299455 -0.0161389634530194 -0.00257911600147248
0.00127601878992734 -0.016281157245583 -0.00256987050147519
0.00109379704990917 -0.0164233510381466 -0.00256062500147789
0.000911575309891005 -0.0165655448307102 -0.0025513795014806
0.00072935356987284 -0.0167077386232737 -0.0025421340014833
0.000547131829854674 -0.0168499324158373 -0.00253288850148601
0.000364910089836508 -0.0169921262084009 -0.00252364300148871
0.00183582554798062 -0.0127160947924184 -0.00207808560156488
0.00164808389596125 -0.0128478127044862 -0.00207068920156776
0.00146034224394187 -0.012979530616554 -0.00206329280157065
0.00127260059192249 -0.0131112485286219 -0.00205589640157354
0.00108485893990312 -0.0132429664406897 -0.00204850000157642
0.000897117287883739 -0.0133746843527575 -0.00204110360157931
0.000709375635864362 -0.0135064022648253 -0.00203370720158219
0.000521633983844986 -0.0136381201768931 -0.00202631080158508
0.000333892331825609 -0.013769838088961 -0.00201891440158796
0.00184896708597941 -0.00957761371694456 -0.00155856420166268
0.00165570552195882 -0.00969885574851662 -0.00155301690166575
0.00146244395793824 -0.00982009778008868 -0.00154746960166882
0.00126918239391765 -0.00994133981166073 -0.00154192230167188
0.00107592082989706 -0.0100625818432328 -0.00153637500167495
0.000882659265876473 -0.0101838238748048 -0.00153082770167801
0.000689397701855885 -0.0103050659063769 -0.00152528040168108
0.000496136137835297 -0.010426307937949 -0.00151973310168414
0.000302874573814709 -0.010547549969521 -0.00151418580168721
0.0018621086239782 -0.00643913264147071 -0.00103904280176049
0.0016633271479564 -0.006549898792547 -0.00103534460176373
0.0014645456719346 -0.0066606649436233 -0.00103164640176698
0.0012657641959128 -0.0067714310946996 -0.00102794820177023
0.00106698271989101 -0.00688219724577589 -0.00102425000177347
0.000868201243869206 -0.00699296339685219 -0.00102055180177672
0.000669419767847408 -0.00710372954792848 -0.00101685360177997
0.000470638291825609 -0.00721449569900478 -0.00101315540178321
0.00027185681580381 -0.00732526185008108 -0.00100945720178646
0.00187525016197699 -0.00330065156599686 -0.000519521401858294
0.00167094877395398 -0.00340094183657739 -0.00051767230186172
0.00146664738593097 -0.00350123210715793 -0.000515823201865147
0.00126234599790796 -0.00360152237773846 -0.000513974101868573
0.00105804460988495 -0.003701812648319 -0.000512125001872
0.00085374322186194 -0.00380210291889953 -0.000510275901875426
0.00064944183383893 -0.00390239318948007 -0.000508426801878852
0.00044514044581592 -0.0040026834600606 -0.000506577701882279
0.00024083905779291 -0.00410297373064114 -0.000504728601885705
0.00118704101399334 -0.0284185997262466 -0.00231065730053793
0.00109699392798668 -0.0286157673122865 -0.00229225860053892
0.00100694684198002 -0.0288129348983265 -0.00227385990053991
0.000916899755973357 -0.0290101024843665 -0.0022554612005409
0.000826852669966696 -0.0292072700704064 -0.0022370625005419
0.000736805583960035 -0.0294044376564464 -0.00221866380054289
0.000646758497953375 -0.0296016052424864 -0.00220026510054388
0.000556711411946714 -0.0297987728285263 -0.00218186640054487
0.000466664325940053 -0.0299959404145663 -0.00216346770054586
0.00119231996799273 -0.025285002792269 -0.00205391760058683
0.00109703673598547 -0.0254735687043126 -0.00203756320058791
0.0010017535039782 -0.0256621346163562 -0.00202120880058899
0.000906470271970935 -0.0258507005283998 -0.00200485440059008
0.000811187039963668 -0.0260392664404434 -0.00198850000059116
0.000715903807956402 -0.026227832352487 -0.00197214560059224
0.000620620575949136 -0.0264163982645306 -0.00195579120059332
0.00052533734394187 -0.0266049641765742 -0.0019394368005944
0.000430054111934603 -0.0267935300886178 -0.00192308240059549
0.00119759892199213 -0.0221514058582914 -0.00179717790063573
0.00109707954398426 -0.0223313700963386 -0.0017828678006369
0.000996560165976385 -0.0225113343343859 -0.00176855770063808
0.000896040787968513 -0.0226912985724331 -0.00175424760063925
0.000795521409960641 -0.0228712628104803 -0.00173993750064042
0.000695002031952769 -0.0230512270485275 -0.00172562740064159
0.000594482653944897 -0.0232311912865748 -0.00171131730064277
0.000493963275937025 -0.023411155524622 -0.00169700720064394
0.000393443897929154 -0.0235911197626692 -0.00168269710064511
0.00120287787599152 -0.0190178089243138 -0.00154043820068463
0.00109712235198305 -0.0191891714883647 -0.0015281724006859
0.000991366827974568 -0.0193605340524155 -0.00151590660068716
0.00088561130396609 -0.0195318966164664 -0.00150364080068842
0.000779855779957613 -0.0197032591805173 -0.00149137500068968
0.000674100255949136 -0.0198746217445681 -0.00147910920069095
0.000568344731940659 -0.020045984308619 -0.00146684340069221
0.000462589207932181 -0.0202173468726699 -0.00145457760069347
0.000356833683923704 -0.0203887094367207 -0.00144231180069473
0.00120815682999092 -0.0158842119903362 -0.00128369850073354
0.00109716515998183 -0.0160469728803907 -0.00127347700073489
0.000986173489972751 -0.0162097337704452 -0.00126325550073624
0.000875181819963669 -0.0163724946604997 -0.00125303400073759
0.000764190149954586 -0.0165352555505542 -0.00124281250073895
0.000653198479945503 -0.0166980164406087 -0.0012325910007403
0.00054220680993642 -0.0168607773306632 -0.00122236950074165
0.000431215139927337 -0.0170235382207177 -0.001212148000743
0.000320223469918254 -0.0171862991107722 -0.00120192650074436
0.00121343578399031 -0.0127506150563586 -0.00102695880078244
0.00109720796798062 -0.0129047742724168 -0.00101878160078388
0.000980980151970935 -0.0130589334884749 -0.00101060440078533
0.000864752335961246 -0.013213092704533 -0.00100242720078677
0.000748524519951558 -0.0133672519205912 -0.000994250000788211
0.00063229670394187 -0.0135214111366493 -0.000986072800789653
0.000516068887932181 -0.0136755703527074 -0.000977895600791096
0.000399841071922493 -0.0138297295687655 -0.000969718400792539
0.000283613255912804 -0.0139838887848237 -0.000961541200793981
0.00121871473798971 -0.00961701812238105 -0.000770219100831342
0.00109725077597941 -0.00976257566444282 -0.000764086200832875
0.000975786813969118 -0.00990813320650458 -0.000757953300834408
0.000854322851958824 -0.0100536907485663 -0.000751820400835941
0.00073285888994853 -0.0101992482906281 -0.000745687500837474
0.000611394927938236 -0.0103448058326899 -0.000739554600839006
0.000489930965927943 -0.0104903633747516 -0.000733421700840539
0.000368467003917649 -0.0106359209168134 -0.000727288800842072
0.000247003041907355 -0.0107814784588752 -0.000721155900843605
0.0012239936919891 -0.00648342118840346 -0.000513479400880245
0.0010972935839782 -0.00662037705646886 -0.000509390800881867
0.000970593475967302 -0.00675733292453426 -0.00050530220088349
0.000843893367956402 -0.00689428879259965 -0.000501213600885114
0.000717193259945503 -0.00703124466066505 -0.000497125000886736
0.000590493151934603 -0.00716820052873045 -0.00049303640088836
0.000463793043923704 -0.00730515639679584 -0.000488947800889983
0.000337092935912804 -0.00744211226486124 -0.000484859200891606
0.000210392827901905 -0.00757906813292664 -0.000480770600893229
0.00122927264598849 -0.00334982425442588 -0.000256739700929147
0.00109733639197699 -0.00347817844849491 -0.00025469540093086
0.000965400137965485 -0.00360653264256394 -0.000252651100932573
0.00083346388395398 -0.00373488683663297 -0.000250606800934287
0.000701527629942475 -0.003863241030702 -0.000248562500936
0.00056959137593097 -0.00399159522477103 -0.000246518200937713
0.000437655121919465 -0.00411994941884006 -0.000244473900939426
0.00030571886790796 -0.00424830361290909 -0.000242429600941139
0.000173782613896455 -0.00437665780697812 -0.000240385300942853
0.00060396417 -0.0284286992827055 5.43779999999998E-5
0.00058401209 -0.0286389371402388 7.45334999999998E-5
0.00056406001 -0.0288491749977721 9.46889999999999E-5
0.00054410793 -0.0290594128553054 0.0001148445
0.00052415585 -0.0292696507128387 0.000135
0.00050420377 -0.029479888570372 0.0001551555
0.00048425169 -0.0296901264279053 0.000175311
0.00046429961 -0.0299003642854386 0.0001954665
0.00044434753 -0.0301106021429719 0.000215622
0.00060138054 -0.0252999864902241 4.83359999999998E-5
0.00057647608 -0.0255034968802605 6.62519999999998E-5
0.00055157162 -0.0257070072702968 8.41679999999999E-5
0.00052666716 -0.0259105176603331 0.000102084
0.0005017627 -0.0261140280503695 0.00012
0.00047685824 -0.0263175384404058 0.000137916
0.00045195378 -0.0265210488304421 0.000155832
0.00042704932 -0.0267245592204785 0.000173748
0.00040214486 -0.0269280696105148 0.000191664
0.00059879691 -0.0221712736977428 4.22939999999998E-5
0.00056894007 -0.0223680566202822 5.79704999999999E-5
0.00053908323 -0.0225648395428215 7.36469999999999E-5
0.00050922639 -0.0227616224653609 8.93234999999999E-5
0.00047936955 -0.0229584053879003 0.000105
0.00044951271 -0.0231551883104396 0.0001206765
0.00041965587 -0.023351971232979 0.000136353
0.00038979903 -0.0235487541555183 0.0001520295
0.00035994219 -0.0237455370780577 0.000167706
0.00059621328 -0.0190425609052615 3.62519999999998E-5
0.00056140406 -0.0192326163603039 4.96889999999999E-5
0.00052659484 -0.0194226718153463 6.31259999999999E-5
0.00049178562 -0.0196127272703887 7.65629999999999E-5
0.0004569764 -0.0198027827254311 9E-5
0.00042216718 -0.0199928381804734 0.000103437
0.00038735796 -0.0201828936355158 0.000116874
0.00035254874 -0.0203729490905582 0.000130311
0.00031773952 -0.0205630045456006 0.000143748
0.00059362965 -0.0159138481127802 3.02099999999999E-5
0.00055386805 -0.0160971761003256 4.14074999999999E-5
0.00051410645 -0.016280504087871 5.26049999999999E-5
0.00047434485 -0.0164638320754164 6.38025E-5
0.00043458325 -0.0166471600629618 7.5E-5
0.00039482165 -0.0168304880505073 8.61975E-5
0.00035506005 -0.0170138160380527 9.7395E-5
0.00031529845 -0.0171971440255981 0.0001085925
0.00027553685 -0.0173804720131435 0.00011979
0.00059104602 -0.0127851353202989 2.41679999999999E-5
0.00054633204 -0.0129617358403473 3.31259999999999E-5
0.00050161806 -0.0131383363603957 4.20839999999999E-5
0.00045690408 -0.0133149368804442 5.1042E-5
0.0004121901 -0.0134915374004926 6E-5
0.00036747612 -0.0136681379205411 6.8958E-5
0.00032276214 -0.0138447384405895 7.7916E-5
0.00027804816 -0.014021338960638 8.6874E-5
0.00023333418 -0.0141979394806864 9.58320000000001E-5
0.00058846239 -0.00965642252781754 1.81259999999999E-5
0.00053879603 -0.00982629558036901 2.48444999999999E-5
0.00048912967 -0.00999616863292048 3.1563E-5
0.00043946331 -0.010166041685472 3.82815E-5
0.00038979695 -0.0103359147380234 4.5E-5
0.00034013059 -0.0105057877905749 5.17185E-5
0.00029046423 -0.0106756608431264 5.8437E-5
0.00024079787 -0.0108455338956778 6.51555E-5
0.00019113151 -0.0110154069482293 7.18740000000001E-5
0.00058587876 -0.00652770973533622 1.20839999999999E-5
0.00053126002 -0.00669085532039072 1.6563E-5
0.00047664128 -0.00685400090544521 2.1042E-5
0.00042202254 -0.00701714649049971 2.5521E-5
0.0003674038 -0.00718029207555421 3E-5
0.00031278506 -0.00734343766060871 3.4479E-5
0.00025816632 -0.0075065832456632 3.8958E-5
0.00020354758 -0.0076697288307177 4.3437E-5
0.00014892884 -0.0078328744157722 4.7916E-5
0.00058329513 -0.0033989969428549 6.04199999999997E-6
0.00052372401 -0.00355541506041242 8.28149999999998E-6
0.00046415289 -0.00371183317796995 1.0521E-5
0.00040458177 -0.00386825129552747 1.27605E-5
0.00034501065 -0.004024669413085 1.5E-5
0.00028543953 -0.00418108753064252 1.72395E-5
0.00022586841 -0.00433750564820005 1.9479E-5
0.00016629729 -0.00449392376575757 2.17185E-5
0.00010672617 -0.0046503418833151 2.3958E-5
2.08873260066608E-5 -0.0284387988391644 0.00241941330053793
7.10302520133214E-5 -0.028662106968191 0.00244132560053892
0.000121173178019982 -0.0288854150972177 0.00246323790053991
0.000171316104026643 -0.0291087232262443 0.0024851502005409
0.000221459030033304 -0.0293320313552709 0.0025070625005419
0.000271601956039965 -0.0295553394842976 0.00252897480054289
0.000321744882046625 -0.0297786476133242 0.00255088710054388
0.000371887808053286 -0.0300019557423509 0.00257279940054487
0.000422030734059947 -0.0302252638713775 0.00259471170054586
1.04411120072661E-5 -0.0253149701881793 0.00215058960058683
5.59154240145326E-5 -0.0255334250562084 0.00217006720058791
0.000101389736021799 -0.0257518799242374 0.00218954480058899
0.000146864048029065 -0.0259703347922665 0.00220902240059008
0.000192338360036331 -0.0261887896602956 0.00222850000059116
0.000237812672043598 -0.0264072445283246 0.00224797760059224
0.000283286984050864 -0.0266256993963537 0.00226745520059332
0.00032876129605813 -0.0268441542643828 0.0022869328005944
0.000374235608065397 -0.0270626091324118 0.00230641040059549
-5.10199212831771E-9 -0.0221911415371943 0.00188176590063573
4.08005960157435E-5 -0.0224047431442258 0.0018988088006369
8.16062940236153E-5 -0.0226183447512572 0.00191585170063808
0.000122411992031487 -0.0228319463582887 0.00193289460063925
0.000163217690039359 -0.0230455479653202 0.00194993750064042
0.000204023388047231 -0.0232591495723517 0.00196698040064159
0.000244829086055103 -0.0234727511793832 0.00198402330064277
0.000285634784062975 -0.0236863527864147 0.00200106620064394
0.000326440482070846 -0.0238999543934462 0.00201810910064511
-1.04513159915228E-5 -0.0190673128862092 0.00161294220068463
2.56857680169546E-5 -0.0192760612322431 0.0016275504006859
6.18228520254319E-5 -0.019484809578277 0.00164215860068716
9.79599360339093E-5 -0.0196935579243109 0.00165676680068842
0.000134097020042387 -0.0199023062703448 0.00167137500068968
0.000170234104050864 -0.0201110546163787 0.00168598320069095
0.000206371188059341 -0.0203198029624127 0.00170059140069221
0.000242508272067819 -0.0205285513084466 0.00171519960069347
0.000278645356076296 -0.0207372996544805 0.00172980780069473
-2.08975299909173E-5 -0.0159434842352241 0.00134411850073354
1.05709400181657E-5 -0.0161473793202605 0.00135629200073489
4.20394100272485E-5 -0.0163512744052968 0.00136846550073624
7.35078800363314E-5 -0.0165551694903331 0.00138063900073759
0.000104976350045414 -0.0167590645753695 0.00139281250073895
0.000136444820054497 -0.0169629596604058 0.0014049860007403
0.00016791329006358 -0.0171668547454421 0.00141715950074165
0.000199381760072663 -0.0173707498304785 0.001429333000743
0.000230850230081746 -0.0175746449155148 0.00144150650074436
-3.13437439903118E-5 -0.0128196555842391 0.00107529480078244
-4.54388798062329E-6 -0.0130186974082778 0.00108503360078388
2.22559680290651E-5 -0.0132177392323166 0.00109477240078533
4.90558240387536E-5 -0.0134167810563554 0.00110451120078677
7.5855680048442E-5 -0.0136158228803941 0.00111425000078821
0.00010265553605813 -0.0138148647044329 0.00112398880078965
0.000129455392067819 -0.0140139065284716 0.0011337276007911
0.000156255248077507 -0.0142129483525104 0.00114346640079254
0.000183055104087196 -0.0144119901765491 0.00115320520079398
-4.17899579897063E-5 -0.00969582693325404 0.000806471100831342
-1.96587159794123E-5 -0.00989001549629521 0.000813775200832875
2.4725260308817E-6 -0.0100842040593364 0.000821079300834408
2.46037680411756E-5 -0.0102783926223776 0.000828383400835941
4.67350100514695E-5 -0.0104725811854187 0.000835687500837474
6.88662520617635E-5 -0.0106667697484599 0.000842991600839006
9.09974940720574E-5 -0.0108609583115011 0.00085029570084054
0.000113128736082351 -0.0110551468745423 0.000857599800842072
0.000135259978092645 -0.0112493354375834 0.000864903900843605
-5.22361719891008E-5 -0.00657199828226898 0.000537647400880244
-3.47735439782013E-5 -0.00676133358431257 0.000542516800881867
-1.73109159673017E-5 -0.00695066888635617 0.00054738620088349
1.51712043597673E-7 -0.00714000418839977 0.000552255600885113
1.76143400544971E-5 -0.00732933949044337 0.000557125000886736
3.50769680653966E-5 -0.00751867479248696 0.00056199440088836
5.25395960762961E-5 -0.00770801009453056 0.000566863800889983
7.00022240871955E-5 -0.00789734539657416 0.000571733200891606
8.7464852098095E-5 -0.00808668069861776 0.000576602600893229
-6.26823859884951E-5 -0.00344816963128392 0.000268823700929147
-4.98883719769902E-5 -0.00363265167232994 0.00027125840093086
-3.70943579654852E-5 -0.00381713371337596 0.000273693100932573
-2.43003439539802E-5 -0.00400161575442198 0.000276127800934287
-1.15063299424753E-5 -0.004186097795468 0.000278562500936
1.28768406902975E-6 -0.00437057983651402 0.000280997200937713
1.40816980805348E-5 -0.00455506187756004 0.000283431900939426
2.68757120920397E-5 -0.00473954391860606 0.000285866600941139
3.96697261035448E-5 -0.00492402595965208 0.000288301300942853
-0.000562189517986679 -0.0284488983956233 0.00478444860107586
-0.000441951585973357 -0.0286852767961433 0.00480811770107784
-0.000321713653960035 -0.0289216551966632 0.00483178680107982
-0.000201475721946714 -0.0291580335971832 0.00485545590108181
-8.12377899333923E-5 -0.0293944119977032 0.00487912500108379
3.90001420799293E-5 -0.0296307903982232 0.00490279410108577
0.000159238074093251 -0.0298671687987432 0.00492646320108776
0.000279476006106572 -0.0301035471992632 0.00495013230108974
0.000399713938119894 -0.0303399255997831 0.00497380140109172
-0.000580498315985468 -0.0253299538861345 0.00425284320117366
-0.000464645231970935 -0.0255633532321563 0.00427388240117582
-0.000348792147956402 -0.0257967525781781 0.00429492160117799
-0.00023293906394187 -0.0260301519241999 0.00431596080118015
-0.000117085979927337 -0.0262635512702217 0.00433700000118232
-1.2328959128045E-6 -0.0264969506162435 0.00435803920118448
0.000114620188101728 -0.0267303499622653 0.00437907840118664
0.000230473272116261 -0.0269637493082871 0.00440011760118881
0.000346326356130793 -0.0271971486543089 0.00442115680119097
-0.000598807113984257 -0.0222110093766457 0.00372123780127146
-0.000487338877968513 -0.0224414296681693 0.00373964710127381
-0.000375870641952769 -0.0226718499596929 0.00375805640127615
-0.000264402405937026 -0.0229022702512165 0.0037764657012785
-0.000152934169921282 -0.0231326905427402 0.00379487500128084
-4.14659339055381E-5 -0.0233631108342638 0.00381328430128319
7.00023021102056E-5 -0.0235935311257874 0.00383169360128553
0.000181470538125949 -0.023823951417311 0.00385010290128788
0.000292938774141693 -0.0240543717088346 0.00386851220129022
-0.000617115911983045 -0.0190920648671569 0.00318963240136927
-0.000510032523966091 -0.0193195061041823 0.00320541180137179
-0.000402949135949136 -0.0195469473412078 0.00322119120137432
-0.000295865747932181 -0.0197743885782332 0.00323697060137684
-0.000188782359915227 -0.0200018298152586 0.00325275000137937
-8.16989718982719E-5 -0.0202292710522841 0.00326852940138189
2.53844161186829E-5 -0.0204567122893095 0.00328430880138442
0.000132467804135638 -0.0206841535263349 0.00330008820138694
0.000239551192152592 -0.0209115947633604 0.00331586760138947
-0.000635424709981834 -0.0159731203576681 0.00265802700146707
-0.000532726169963669 -0.0161975825401954 0.00267117650146978
-0.000430027629945503 -0.0164220447227226 0.00268432600147248
-0.000327329089927337 -0.0166465069052499 0.00269747550147519
-0.000224630549909171 -0.0168709690877771 0.00271062500147789
-0.000121932009891006 -0.0170954312703044 0.0027237745014806
-1.92334698728398E-5 -0.0173198934528316 0.0027369240014833
8.3465070145326E-5 -0.0175443556353588 0.00275007350148601
0.000186163610163492 -0.0177688178178861 0.00276322300148871
-0.000653733507980623 -0.0128541758481793 0.00212642160156488
-0.000555419815961247 -0.0130756589762084 0.00213694120156776
-0.00045710612394187 -0.0132971421042374 0.00214746080157065
-0.000358792431922493 -0.0135186252322665 0.00215798040157354
-0.000260478739903116 -0.0137401083602956 0.00216850000157642
-0.000162165047883739 -0.0139615914883246 0.00217901960157931
-6.38513558643624E-5 -0.0141830746163537 0.00218953920158219
3.44623361550144E-5 -0.0144045577443828 0.00220005880158508
0.000132776028174391 -0.0146260408724118 0.00221057840158796
-0.000672042305979412 -0.00973523133869053 0.00159481620166268
-0.000578113461958824 -0.00995373541222141 0.00160270590166575
-0.000484184617938237 -0.0101722394857523 0.00161059560166882
-0.000390255773917649 -0.0103907435592832 0.00161848530167188
-0.000296326929897061 -0.0106092476328141 0.00162637500167495
-0.000202398085876473 -0.0108277517063449 0.00163426470167801
-0.000108469241855885 -0.0110462557798758 0.00164215440168108
-1.45403978352972E-5 -0.0112647598534067 0.00165004410168414
7.93884461852907E-5 -0.0114832639269376 0.00165793380168721
-0.000690351103978201 -0.00661628682920173 0.00106321080176049
-0.000600807107956402 -0.00683181184823443 0.00106847060176373
-0.000511263111934603 -0.00704733686726713 0.00107373040176698
-0.000421719115912804 -0.00726286188629983 0.00107899020177023
-0.000332175119891006 -0.00747838690533252 0.00108425000177347
-0.000242631123869207 -0.00769391192436522 0.00108950980177672
-0.000153087127847408 -0.00790943694339792 0.00109476960177997
-6.35431318256089E-5 -0.00812496196243062 0.00110002940178321
2.60008641961901E-5 -0.00834048698146332 0.00110528920178646
-0.00070865990197699 -0.00349734231971294 0.000531605401858294
-0.00062350075395398 -0.00370988828424745 0.00053423530186172
-0.00053834160593097 -0.00392243424878197 0.000536865201865147
-0.00045318245790796 -0.00413498021331648 0.000539495101868573
-0.00036802330988495 -0.004347526177851 0.000542125001871999
-0.00028286416186194 -0.00456007214238551 0.000544754901875426
-0.00019770501383893 -0.00477261810692003 0.000547384801878853
-0.00011254586581592 -0.00498516407145454 0.000550014701882279
-2.73867177929105E-5 -0.00519771003598906 0.000552644601885705
-0.00114526636198002 -0.0284589979520822 0.00714948390161378
-0.000954933423960035 -0.0287084466240955 0.00717490980161676
-0.000764600485940053 -0.0289578952961088 0.00720033570161973
-0.000574267547920071 -0.0292073439681222 0.00722576160162271
-0.000383934609900088 -0.0294567926401355 0.00725118750162568
-0.000193601671880106 -0.0297062413121488 0.00727661340162866
-3.26873386012376E-6 -0.0299556899841621 0.00730203930163164
0.000187064204159859 -0.0302051386561754 0.00732746520163461
0.000377397142179841 -0.0304545873281888 0.00735289110163759
-0.0011714377439782 -0.0253449375840897 0.00635509680176049
-0.000985205887956402 -0.0255932814081042 0.00637769760176374
-0.000798974031934603 -0.0258416252321187 0.00640029840176698
-0.000612742175912804 -0.0260899690561333 0.00642289920177023
-0.000426510319891006 -0.0263383128801478 0.00644550000177347
-0.000240278463869207 -0.0265866567041623 0.00646810080177672
-5.40466078474076E-5 -0.0268350005281769 0.00649070160177997
0.000132185248174391 -0.0270833443521914 0.00651330240178321
0.00031841710419619 -0.0273316881762059 0.00653590320178646
-0.00119760912597638 -0.0222308772160971 0.0055607097019072
-0.00101547835195277 -0.0224781161921129 0.00558048540191071
-0.000833347577929154 -0.0227253551681286 0.00560026110191423
-0.000651216803905538 -0.0229725941441444 0.00562003680191775
-0.000469086029881923 -0.0232198331201601 0.00563981250192126
-0.000286955255858307 -0.0234670720961759 0.00565958820192478
-0.000104824481834692 -0.0237143110721916 0.0056793639019283
7.73062921889238E-5 -0.0239615500482073 0.00569913960193181
0.000259437066212539 -0.0242087890242231 0.00571891530193533
-0.00122378050797457 -0.0191168168481046 0.0047663226020539
-0.00104575081594914 -0.0193629509761216 0.00478327320205769
-0.000867721123923704 -0.0196090851041385 0.00480022380206148
-0.000689691431898272 -0.0198552192321555 0.00481717440206526
-0.00051166173987284 -0.0201013533601724 0.00483412500206905
-0.000333632047847408 -0.0203474874881894 0.00485107560207284
-0.000155602355821976 -0.0205936216162063 0.00486802620207663
2.24273362034564E-5 -0.0208397557442233 0.00488497680208041
0.000200457028228888 -0.0210858898722402 0.0049019274020842
-0.00124995188997275 -0.0160027564801121 0.00397193550220061
-0.0010760232799455 -0.0162477857601302 0.00398606100220467
-0.000902094669918254 -0.0164928150401484 0.00400018650220873
-0.000728166059891005 -0.0167378443201666 0.00401431200221278
-0.000554237449863757 -0.0169828736001847 0.00402843750221684
-0.000380308839836508 -0.0172279028802029 0.0040425630022209
-0.00020638022980926 -0.0174729321602211 0.00405668850222496
-3.2451619782011E-5 -0.0177179614402392 0.00407081400222901
0.000141476990245238 -0.0179629907202574 0.00408493950223307
-0.00127612327197093 -0.0128886961121195 0.00317754840234732
-0.00110629574394187 -0.0131326205441389 0.00318884880235165
-0.000936468215912804 -0.0133765449761583 0.00320014920235597
-0.000766640687883739 -0.0136204694081777 0.0032114496023603
-0.000596813159854674 -0.0138643938401971 0.00322275000236463
-0.000426985631825609 -0.0141083182722164 0.00323405040236896
-0.000257158103796544 -0.0143522427042358 0.00324535080237329
-8.73305757674784E-5 -0.0145961671362552 0.00325665120237762
8.24969522615868E-5 -0.0148400915682746 0.00326795160238194
-0.00130229465396912 -0.00977463574412702 0.00238316130249403
-0.00113656820793824 -0.0100174553281476 0.00239163660249862
-0.000970841761907355 -0.0102602749121682 0.00240011190250322
-0.000805115315876473 -0.0105030944961888 0.00240858720250782
-0.000639388869845591 -0.0107459140802094 0.00241706250251242
-0.000473662423814709 -0.01098873366423 0.00242553780251702
-0.000307935977783828 -0.0112315532482505 0.00243401310252162
-0.000142209531752946 -0.0114743728322711 0.00244248840252622
2.3516914277936E-5 -0.0117171924162917 0.00245096370253082
-0.0013284660359673 -0.00666057537613449 0.00158877420264073
-0.0011668406719346 -0.00690229011215629 0.0015944244026456
-0.0010052153079019 -0.00714400484817808 0.00160007460265047
-0.000843589943869207 -0.00738571958419988 0.00160572480265534
-0.000681964579836508 -0.00762743432022168 0.00161137500266021
-0.00052033921580381 -0.00786914905624348 0.00161702520266508
-0.000358713851771112 -0.00811086379226528 0.00162267540266995
-0.000197088487738413 -0.00835257852828708 0.00162832560267482
-3.54631237057148E-5 -0.00859429326430888 0.00163397580267969
-0.00135463741796549 -0.00354651500814196 0.00079438710278744
-0.00119711313593097 -0.00378712489616497 0.00079721220279258
-0.00103958885389646 -0.00402773478418798 0.00080003730279772
-0.00088206457186194 -0.00426834467221099 0.00080286240280286
-0.000724540289827425 -0.004508954560234 0.000805687502807999
-0.00056701600779291 -0.00474956444825701 0.000808512602813139
-0.000409491725758395 -0.00499017433628002 0.000811337702818279
-0.000251967443723881 -0.00523078422430303 0.000814162802823418
-9.44431616893657E-5 -0.00547139411232604 0.000816987902828558
-0.00172834320597336 -0.0284690975085411 0.00951451920215171
-0.00146791526194671 -0.0287316164520478 0.00954170190215568
-0.00120748731792007 -0.0289941353955544 0.00956888460215964
-0.000947059373893428 -0.0292566543390611 0.00959606730216361
-0.000686631429866785 -0.0295191732825677 0.00962325000216758
-0.000426203485840141 -0.0297816922260744 0.00965043270217155
-0.000165775541813498 -0.0300442111695811 0.00967761540217551
9.46524022131448E-5 -0.0303067301130877 0.00970479810217948
0.000355080346239788 -0.0305692490565944 0.00973198080218345
-0.00176237717197094 -0.0253599212820448 0.00845735040234732
-0.00150576654394187 -0.0256232095840521 0.00848151280235165
-0.0012491559159128 -0.0258864978860594 0.00850567520235597
-0.000992545287883739 -0.0261497861880666 0.0085298376023603
-0.000735934659854674 -0.0264130744900739 0.00855400000236463
-0.000479324031825609 -0.0266763627920812 0.00857816240236896
-0.000222713403796544 -0.0269396510940884 0.00860232480237329
3.38972242325215E-5 -0.0272029393960957 0.00862648720237762
0.000290507852261587 -0.027466227698103 0.00865064960238194
-0.00179641113796851 -0.0222507450555486 0.00740018160254293
-0.00154361782593703 -0.0225148027160564 0.00742132370254762
-0.00129082451390554 -0.0227788603765643 0.00744246580255231
-0.00103803120187405 -0.0230429180370722 0.00746360790255699
-0.000785237889842564 -0.0233069756975801 0.00748475000256168
-0.000532444577811076 -0.0235710333580879 0.00750589210256637
-0.000279651265779589 -0.0238350910185958 0.00752703420257106
-2.68579537481017E-5 -0.0240991486791037 0.00754817630257575
0.000225935358283386 -0.0243632063396115 0.00756931840258044
-0.00183044510396609 -0.0191415688290523 0.00634301280273854
-0.00158146910793218 -0.0194063958480608 0.00636113460274359
-0.00133249311189827 -0.0196712228670693 0.00637925640274864
-0.00108351711586436 -0.0199360498860777 0.00639737820275369
-0.000834541119830453 -0.0202008769050862 0.00641550000275874
-0.000585565123796544 -0.0204657039240947 0.00643362180276379
-0.000336589127762634 -0.0207305309431032 0.00645174360276884
-8.76131317287248E-5 -0.0209953579621116 0.00646986540277389
0.000161362864305185 -0.0212601849811201 0.00648798720277893
-0.00186447906996367 -0.016032392602556 0.00528584400293415
-0.00161932038992734 -0.0162979889800651 0.00530094550293956
-0.00137416170989101 -0.0165635853575742 0.00531604700294497
-0.00112900302985467 -0.0168291817350833 0.00533114850295038
-0.000883844349818343 -0.0170947781125924 0.00534625000295579
-0.000638685669782011 -0.0173603744901015 0.0053613515029612
-0.00039352698974568 -0.0176259708676105 0.00537645300296661
-0.000148368309709348 -0.0178915672451196 0.00539155450297202
9.67903703269835E-5 -0.0181571636226287 0.00540665600297743
-0.00189851303596125 -0.0129232163760598 0.00422867520312976
-0.00165717167192249 -0.0131895821120695 0.00424075640313553
-0.00141583030788374 -0.0134559478480791 0.0042528376031413
-0.00117448894384499 -0.0137223135840888 0.00426491880314707
-0.000933147579806232 -0.0139886793200985 0.00427700000315284
-0.000691806215767478 -0.0142550450561082 0.00428908120315861
-0.000450464851728725 -0.0145214107921179 0.00430116240316438
-0.000209123487689971 -0.0147877765281276 0.00431324360317015
3.22178763487824E-5 -0.0150541422641373 0.00432532480317593
-0.00193254700195882 -0.00981404014956351 0.00317150640332537
-0.00169502295391765 -0.0100811752440738 0.0031805673033315
-0.00145749890587647 -0.0103483103385841 0.00318962820333763
-0.0012199748578353 -0.0106154454330944 0.00319868910334376
-0.000982450809794122 -0.0108825805276047 0.0032077500033499
-0.000744926761752946 -0.011149715622115 0.00321681090335603
-0.00050740271371177 -0.0114168507166253 0.00322587180336216
-0.000269878665670594 -0.0116839858111356 0.00323493270336829
-3.23546176294186E-5 -0.0119511209056459 0.00324399360337442
-0.0019665809679564 -0.00670486392306724 0.00211433760352098
-0.0017328742359128 -0.00697276837607814 0.00212037820352747
-0.00149916750386921 -0.00724067282908904 0.00212641880353396
-0.00126546077182561 -0.00750857728209994 0.00213245940354045
-0.00103175403978201 -0.00777648173511084 0.00213850000354695
-0.000798047307738413 -0.00804438618812174 0.00214454060355344
-0.000564340575694815 -0.00831229064113264 0.00215058120355993
-0.000330633843651218 -0.00858019509414354 0.00215662180356642
-9.69271116076198E-5 -0.00884809954715444 0.00216266240357292
-0.00200061493395398 -0.00359568769657098 0.00105716880371659
-0.00177072551790796 -0.00386436150808248 0.00106018910372344
-0.00154083610186194 -0.00413303531959399 0.00106320940373029
-0.00131094668581592 -0.00440170913110549 0.00106622970373715
-0.0010810572697699 -0.004670382942617 0.001069250003744
-0.000851167853723881 -0.0049390567541285 0.00107227030375085
-0.000621278437677861 -0.00520773056564001 0.00107529060375771
-0.000391389021631841 -0.00547640437715151 0.00107831090376456
-0.000161499605585821 -0.00574507818866302 0.00108133120377141
</DataArray>
</PointData>
<CellData Tensors="stress" >
<DataArray type="Float64" Name="Stress" NumberOfComponents="6" format="ascii" >
-67.4099725 -183.7503111875 -455.85566375 28.51679770625 -210.022274 2.0592575275
-65.6235775 -179.1650635625 -454.49706625 18.30821386875 -209.1505595 1.2608590825
-63.8371825 -174.5798159375 -453.13846875 8.09963003125 -208.278845 0.4624606375
-62.0507875 -169.9945683125 -451.77987125 -2.10895380625 -207.4071305 -0.3359378075
-60.2643925 -165.4093206875 -450.42127375 -12.31753764375 -206.535416 -1.1343362525
-58.4779975 -160.8240730625 -449.06267625 -22.52612148125 -205.6637015 -1.9327346975
-56.6916025 -156.2388254375 -447.70407875 -32.73470531875 -204.791987 -2.7311331425
-54.9052075 -151.6535778125 -446.34548125 -42.94328915625 -203.9202725 -3.5295315875
-53.1188125 -147.0683301875 -444.98688375 -53.15187299375 -203.048558 -4.3279300325
-51.3324175 -142.4830825625 -443.62828625 -63.36045683125 -202.1768435 -5.1263284775
-62.0776125 -170.4537610625 -441.98229125 31.10283136875 -182.352762 1.9352624825
-60.5654175 -166.5154731875 -440.88009875 20.96738635625 -181.5519985 1.1485269475
-59.0532225 -162.5771853125 -439.77790625 10.83194134375 -180.751235 0.3617914125
-57.5410275 -158.6388974375 -438.67571375 0.696496331249999 -179.9504715 -0.4249441225
-56.0288325 -154.7006095625 -437.57352125 -9.43894868125 -179.149708 -1.2116796575
-54.5166375 -150.7623216875 -436.47132875 -19.57439369375 -178.3489445 -1.9984151925
-53.0044425 -146.8240338125 -435.36913625 -29.70983870625 -177.548181 -2.7851507275
-51.4922475 -142.8857459375 -434.26694375 -39.84528371875 -176.7474175 -3.5718862625
-49.9800525 -138.9474580625 -433.16475125 -49.98072873125 -175.946654 -4.3586217975
-48.4678575 -135.0091701875 -432.06255875 -60.11617374375 -175.1458905 -5.1453573325
-56.7452525 -157.1572109375 -428.10891875 33.68886503125 -154.68325 1.8112674375
-55.5072575 -153.8658828125 -427.26313125 23.62655884375 -153.9534375 1.0361948125
-54.2692625 -150.5745546875 -426.41734375 13.56425265625 -153.223625 0.2611221875
-53.0312675 -147.2832265625 -425.57155625 3.50194646875 -152.4938125 -0.5139504375
-51.7932725 -143.9918984375 -424.72576875 -6.56035971875 -151.764 -1.2890230625
-50.5552775 -140.7005703125 -423.87998125 -16.62266590625 -151.0341875 -2.0640956875
-49.3172825 -137.4092421875 -423.03419375 -26.68497209375 -150.304375 -2.8391683125
-48.0792875 -134.1179140625 -422.18840625 -36.74727828125 -149.5745625 -3.6142409375
-46.8412925 -130.8265859375 -421.34261875 -46.80958446875 -148.84475 -4.3893135625
-45.6032975 -127.5352578125 -420.49683125 -56.87189065625 -148.1149375 -5.1643861875
-51.4128925 -143.8606608125 -414.23554625 36.27489869375 -127.013738 1.6872723925
-50.4490975 -141.2162924375 -413.64616375 26.28573133125 -126.3548765 0.9238626775
-49.4853025 -138.5719240625 -413.05678125 16.29656396875 -125.696015 0.1604529625
-48.5215075 -135.9275556875 -412.46739875 6.30739660625 -125.0371535 -0.6029567525
-47.5577125 -133.2831873125 -411.87801625 -3.68177075625 -124.378292 -1.3663664675
-46.5939175 -130.6388189375 -411.28863375 -13.67093811875 -123.7194305 -2.1297761825
-45.6301225 -127.9944505625 -410.69925125 -23.66010548125 -123.060569 -2.8931858975
-44.6663275 -125.3500821875 -410.10986875 -33.64927284375 -122.4017075 -3.6565956125
-43.7025325 -122.7057138125 -409.52048625 -43.63844020625 -121.742846 -4.4200053275
-42.7387375 -120.0613454375 -408.93110375 -53.62760756875 -121.0839845 -5.1834150425
-46.0805325 -130.5641106875 -400.36217375 38.86093235625 -99.344226 1.5632773475
-45.3909375 -128.5667020625 -400.02919625 28.94490381875 -98.7563155 0.8115305425
-44.7013425 -126.5692934375 -399.69621875 19.02887528125 -98.168405 0.0597837375
-44.0117475 -124.5718848125 -399.36324125 9.11284674375 -97.5804945 -0.6919630675
-43.3221525 -122.5744761875 -399.03026375 -0.80318179375 -96.992584 -1.4437098725
-42.6325575 -120.5770675625 -398.69728625 -10.71921033125 -96.4046735 -2.1954566775
-41.9429625 -118.5796589375 -398.36430875 -20.63523886875 -95.816763 -2.9472034825
-41.2533675 -116.5822503125 -398.03133125 -30.55126740625 -95.2288525 -3.6989502875
-40.5637725 -114.5848416875 -397.69835375 -40.46729594375 -94.640942 -4.4506970925
-39.8741775 -112.5874330625 -397.36537625 -50.38332448125 -94.0530315 -5.2024438975
-40.7481725 -117.2675605625 -386.48880125 41.44696601875 -71.674714 1.4392823025
-40.3327775 -115.9171116875 -386.41222875 31.60407630625 -71.1577545 0.6991984075
-39.9173825 -114.5666628125 -386.33565625 21.76118659375 -70.640795 -0.0408854875000001
-39.5019875 -113.2162139375 -386.25908375 11.91829688125 -70.1238355 -0.7809693825
-39.0865925 -111.8657650625 -386.18251125 2.07540716875 -69.606876 -1.5210532775
-38.6711975 -110.5153161875 -386.10593875 -7.76748254375 -69.0899165 -2.2611371725
-38.2558025 -109.1648673125 -386.02936625 -17.61037225625 -68.572957 -3.0012210675
-37.8404075 -107.8144184375 -385.95279375 -27.45326196875 -68.0559975 -3.7413049625
-37.4250125 -106.4639695625 -385.87622125 -37.29615168125 -67.539038 -4.4813888575
-37.0096175 -105.1135206875 -385.79964875 -47.13904139375 -67.0220785 -5.2214727525
-35.4158125 -103.9710104375 -372.61542875 44.03299968125 -44.005202 1.3152872575
-35.2746175 -103.2675213125 -372.79526125 34.26324879375 -43.5591935 0.5868662725
-35.1334225 -102.5640321875 -372.97509375 24.49349790625 -43.113185 -0.1415547125
-34.9922275 -101.8605430625 -373.15492625 14.72374701875 -42.6671765 -0.8699756975
-34.8510325 -101.1570539375 -373.33475875 4.95399613125 -42.221168 -1.5983966825
-34.7098375 -100.4535648125 -373.51459125 -4.81575475625 -41.7751595 -2.3268176675
-34.5686425 -99.7500756875 -373.69442375 -14.58550564375 -41.329151 -3.0552386525
-34.4274475 -99.0465865625 -373.87425625 -24.35525653125 -40.8831425 -3.7836596375
-34.2862525 -98.3430974375 -374.05408875 -34.12500741875 -40.437134 -4.5120806225
-34.1450575 -97.6396083125 -374.23392125 -43.89475830625 -39.9911255 -5.2405016075
-30.0834525 -90.6744603125 -358.74205625 46.61903334375 -16.33569 1.1912922125
-30.2164575 -90.6179309375 -359.17829375 36.92242128125 -15.9606325 0.4745341375
-30.3494625 -90.5614015625 -359.61453125 27.22580921875 -15.585575 -0.2422239375
-30.4824675 -90.5048721875 -360.05076875 17.52919715625 -15.2105175 -0.9589820125
-30.6154725 -90.4483428125 -360.48700625 7.83258509375 -14.83546 -1.6757400875
-30.7484775 -90.3918134375 -360.92324375 -1.86402696875 -14.4604025 -2.3924981625
-30.8814825 -90.3352840625 -361.35948125 -11.56063903125 -14.085345 -3.1092562375
-31.0144875 -90.2787546875 -361.79571875 -21.25725109375 -13.7102875 -3.8260143125
-31.1474925 -90.2222253125 -362.23195625 -30.95386315625 -13.33523 -4.5427723875
-31.2804975 -90.1656959375 -362.66819375 -40.65047521875 -12.9601725 -5.2595304625
-24.7510925 -77.3779101875 -344.86868375 49.20506700625 11.333822 1.0672971675
-25.1582975 -77.9683405625 -345.56132625 39.58159376875 11.6379285 0.3622020025
-25.5655025 -78.5587709375 -346.25396875 29.95812053125 11.942035 -0.3428931625
-25.9727075 -79.1492013125 -346.94661125 20.33464729375 12.2461415 -1.0479883275
-26.3799125 -79.7396316875 -347.63925375 10.71117405625 12.550248 -1.7530834925
-26.7871175 -80.3300620625 -348.33189625 1.08770081875 12.8543545 -2.4581786575
-27.1943225 -80.9204924375 -349.02453875 -8.53577241875 13.158461 -3.1632738225
-27.6015275 -81.5109228125 -349.71718125 -18.15924565625 13.4625675 -3.8683689875
-28.0087325 -82.1013531875 -350.40982375 -27.78271889375 13.766674 -4.5734641525
-28.4159375 -82.6917835625 -351.10246625 -37.40619213125 14.0707805 -5.2785593175
-19.4187325 -64.0813600625 -330.99531125 51.79110066875 39.003334 0.9433021225
-20.1001375 -65.3187501875 -331.94435875 42.24076625625 39.2364895 0.2498698675
-20.7815425 -66.5561403125 -332.89340625 32.69043184375 39.469645 -0.4435623875
-21.4629475 -67.7935304375 -333.84245375 23.14009743125 39.7028005 -1.1369946425
-22.1443525 -69.0309205625 -334.79150125 13.58976301875 39.935956 -1.8304268975
-22.8257575 -70.2683106875 -335.74054875 4.03942860625 40.1691115 -2.5238591525
-23.5071625 -71.5057008125 -336.68959625 -5.51090580625 40.402267 -3.2172914075
-24.1885675 -72.7430909375 -337.63864375 -15.06124021875 40.6354225 -3.9107236625
-24.8699725 -73.9804810625 -338.58769125 -24.61157463125 40.868578 -4.6041559175
-25.5513775 -75.2178711875 -339.53673875 -34.16190904375 41.1017335 -5.2975881725
-16.7451016875 -58.7778775 -320.336104375 52.05815875 53.26254125 0.89501617875
-17.5398400625 -60.287765 -321.387888125 42.68903625 53.45143625 0.21537403625
-18.3345784375 -61.7976525 -322.439671875 33.31991375 53.64033125 -0.46426810625
-19.1293168125 -63.30754 -323.491455625 23.95079125 53.82922625 -1.14391024875
-19.9240551875 -64.8174275 -324.543239375 14.58166875 54.01812125 -1.82355239125
-20.7187935625 -66.327315 -325.595023125 5.21254625 54.20701625 -2.50319453375
-21.5135319375 -67.8372025 -326.646806875 -4.15657625 54.39591125 -3.18283667625
-22.3082703125 -69.34709 -327.698590625 -13.52569875 54.58480625 -3.86247881875
-23.1030086875 -70.8569775 -328.750374375 -22.89482125 54.77370125 -4.54212096125
-23.8977470625 -72.366865 -329.802158125 -32.26394375 54.96259625 -5.22176310375
-16.7302000625 -61.4674625 -312.891063125 50.00624125 54.11144375 0.92243933625
-17.4774051875 -62.875385 -313.891914375 40.92640375 54.28276875 0.25871450875
-18.2246103125 -64.2833075 -314.892765625 31.84656625 54.45409375 -0.40501031875
-18.9718154375 -65.69123 -315.893616875 22.76672875 54.62541875 -1.06873514625
-19.7190205625 -67.0991525 -316.894468125 13.68689125 54.79674375 -1.73245997375
-20.4662256875 -68.507075 -317.895319375 4.60705375 54.96806875 -2.39618480125
-21.2134308125 -69.9149975 -318.896170625 -4.47278375 55.13939375 -3.05990962875
-21.9606359375 -71.32292 -319.897021875 -13.55262125 55.31071875 -3.72363445625
-22.7078410625 -72.7308425 -320.897873125 -22.63245875 55.48204375 -4.38735928375
-23.4550461875 -74.138765 -321.898724375 -31.71229625 55.65336875 -5.05108411125
-16.7152984375 -64.1570475 -305.446021875 47.95432375 54.96034625 0.94986249375
-17.4149703125 -65.463005 -306.395940625 39.16377125 55.11410125 0.30205498125
-18.1146421875 -66.7689625 -307.345859375 30.37321875 55.26785625 -0.34575253125
-18.8143140625 -68.07492 -308.295778125 21.58266625 55.42161125 -0.99356004375
-19.5139859375 -69.3808775 -309.245696875 12.79211375 55.57536625 -1.64136755625
-20.2136578125 -70.686835 -310.195615625 4.00156125 55.72912125 -2.28917506875
-20.9133296875 -71.9927925 -311.145534375 -4.78899125 55.88287625 -2.93698258125
-21.6130015625 -73.29875 -312.095453125 -13.57954375 56.03663125 -3.58479009375
-22.3126734375 -74.6047075 -313.045371875 -22.37009625 56.19038625 -4.23259760625
-23.0123453125 -75.910665 -313.995290625 -31.16064875 56.34414125 -4.88040511875
-16.7003968125 -66.8466325 -298.000980625 45.90240625 55.80924875 0.97728565125
-17.3525354375 -68.050625 -298.899966875 37.40113875 55.94543375 0.34539545375
-18.0046740625 -69.2546175 -299.798953125 28.89987125 56.08161875 -0.28649474375
-18.6568126875 -70.45861 -300.697939375 20.39860375 56.21780375 -0.91838494125
-19.3089513125 -71.6626025 -301.596925625 11.89733625 56.35398875 -1.55027513875
-19.9610899375 -72.866595 -302.495911875 3.39606875 56.49017375 -2.18216533625
-20.6132285625 -74.0705875 -303.394898125 -5.10519875 56.62635875 -2.81405553375
-21.2653671875 -75.27458 -304.293884375 -13.60646625 56.76254375 -3.44594573125
-21.9175058125 -76.4785725 -305.192870625 -22.10773375 56.89872875 -4.07783592875
-22.5696444375 -77.682565 -306.091856875 -30.60900125 57.03491375 -4.70972612625
-16.6854951875 -69.5362175 -290.555939375 43.85048875 56.65815125 1.00470880875
-17.2901005625 -70.638245 -291.403993125 35.63850625 56.77676625 0.38873592625
-17.8947059375 -71.7402725 -292.252046875 27.42652375 56.89538125 -0.22723695625
-18.4993113125 -72.8423 -293.100100625 19.21454125 57.01399625 -0.84320983875
-19.1039166875 -73.9443275 -293.948154375 11.00255875 57.13261125 -1.45918272125
-19.7085220625 -75.046355 -294.796208125 2.79057625 57.25122625 -2.07515560375
-20.3131274375 -76.1483825 -295.644261875 -5.42140625 57.36984125 -2.69112848625
-20.9177328125 -77.25041 -296.492315625 -13.63338875 57.48845625 -3.30710136875
-21.5223381875 -78.3524375 -297.340369375 -21.84537125 57.60707125 -3.92307425125
-22.1269435625 -79.454465 -298.188423125 -30.05735375 57.72568625 -4.53904713375
-16.6705935625 -72.2258025 -283.110898125 41.79857125 57.50705375 1.03213196625
-17.2276656875 -73.225865 -283.908019375 33.87587375 57.60809875 0.43207639875
-17.7847378125 -74.2259275 -284.705140625 25.95317625 57.70914375 -0.16797916875
-18.3418099375 -75.22599 -285.502261875 18.03047875 57.81018875 -0.76803473625
-18.8988820625 -76.2260525 -286.299383125 10.10778125 57.91123375 -1.36809030375
-19.4559541875 -77.226115 -287.096504375 2.18508375 58.01227875 -1.96814587125
-20.0130263125 -78.2261775 -287.893625625 -5.73761375 58.11332375 -2.56820143875
-20.5700984375 -79.22624 -288.690746875 -13.66031125 58.21436875 -3.16825700625
-21.1271705625 -80.2263025 -289.487868125 -21.58300875 58.31541375 -3.76831257375
-21.6842426875 -81.226365 -290.284989375 -29.50570625 58.41645875 -4.36836814125
-16.6556919375 -74.9153875 -275.665856875 39.74665375 58.35595625 1.05955512375
-17.1652308125 -75.813485 -276.412045625 32.11324125 58.43943125 0.47541687125
-17.6747696875 -76.7115825 -277.158234375 24.47982875 58.52290625 -0.10872138125
-18.1843085625 -77.60968 -277.904423125 16.84641625 58.60638125 -0.69285963375
-18.6938474375 -78.5077775 -278.650611875 9.21300375 58.68985625 -1.27699788625
-19.2033863125 -79.405875 -279.396800625 1.57959125 58.77333125 -1.86113613875
-19.7129251875 -80.3039725 -280.142989375 -6.05382125 58.85680625 -2.44527439125
-20.2224640625 -81.20207 -280.889178125 -13.68723375 58.94028125 -3.02941264375
-20.7320029375 -82.1001675 -281.635366875 -21.32064625 59.02375625 -3.61355089625
-21.2415418125 -82.998265 -282.381555625 -28.95405875 59.10723125 -4.19768914875
-16.6407903125 -77.6049725 -268.220815625 37.69473625 59.20485875 1.08697828125
-17.1027959375 -78.401105 -268.916071875 30.35060875 59.27076375 0.51875734375
-17.5648015625 -79.1972375 -269.611328125 23.00648125 59.33666875 -0.04946359375
-18.0268071875 -79.99337 -270.306584375 15.66235375 59.40257375 -0.61768453125
-18.4888128125 -80.7895025 -271.001840625 8.31822625 59.46847875 -1.18590546875
-18.9508184375 -81.585635 -271.697096875 0.974098750000001 59.53438375 -1.75412640625
-19.4128240625 -82.3817675 -272.392353125 -6.37002875 59.60028875 -2.32234734375
-19.8748296875 -83.1779 -273.087609375 -13.71415625 59.66619375 -2.89056828125
-20.3368353125 -83.9740325 -273.782865625 -21.05828375 59.73209875 -3.45878921875
-20.7988409375 -84.770165 -274.478121875 -28.40241125 59.79800375 -4.02701015625
-16.6258886875 -80.2945575 -260.775774375 35.64281875 60.05376125 1.11440143875
-17.0403610625 -80.988725 -261.420098125 28.58797625 60.10209625 0.56209781625
-17.4548334375 -81.6828925 -262.064421875 21.53313375 60.15043125 0.00979419374999988
-17.8693058125 -82.37706 -262.708745625 14.47829125 60.19876625 -0.54250942875
-18.2837781875 -83.0712275 -263.353069375 7.42344875 60.24710125 -1.09481305125
-18.6982505625 -83.765395 -263.997393125 0.368606249999998 60.29543625 -1.64711667375
-19.1127229375 -84.4595625 -264.641716875 -6.68623625 60.34377125 -2.19942029625
-19.5271953125 -85.15373 -265.286040625 -13.74107875 60.39210625 -2.75172391875
-19.9416676875 -85.8478975 -265.930364375 -20.79592125 60.44044125 -3.30402754125
-20.3561400625 -86.542065 -266.574688125 -27.85076375 60.48877625 -3.85633116375
-16.6109870625 -82.9841425 -253.330733125 33.59090125 60.90266375 1.14182459625
-16.9779261875 -83.576345 -253.924124375 26.82534375 60.93342875 0.60543828875
-17.3448653125 -84.1685475 -254.517515625 20.05978625 60.96419375 0.06905198125
-17.7118044375 -84.76075 -255.110906875 13.29422875 60.99495875 -0.46733432625
-18.0787435625 -85.3529525 -255.704298125 6.52867125 61.02572375 -1.00372063375
-18.4456826875 -85.945155 -256.297689375 -0.236886250000001 61.05648875 -1.54010694125
-18.8126218125 -86.5373575 -256.891080625 -7.00244375 61.08725375 -2.07649324875
-19.1795609375 -87.12956 -257.484471875 -13.76800125 61.11801875 -2.61287955625
-19.5465000625 -87.7217625 -258.077863125 -20.53355875 61.14878375 -3.14926586375
-19.9134391875 -88.313965 -258.671254375 -27.29911625 61.17954875 -3.68565217125
-16.5960854375 -85.6737275 -245.885691875 31.53898375 61.75156625 1.16924775375
-16.9154913125 -86.163965 -246.428150625 25.06271125 61.76476125 0.64877876125
-17.2348971875 -86.6542025 -246.970609375 18.58643875 61.77795625 0.12830976875
-17.5543030625 -87.14444 -247.513068125 12.11016625 61.79115125 -0.39215922375
-17.8737089375 -87.6346775 -248.055526875 5.63389375 61.80434625 -0.91262821625
-18.1931148125 -88.124915 -248.597985625 -0.842378750000001 61.81754125 -1.43309720875
-18.5125206875 -88.6151525 -249.140444375 -7.31865125 61.83073625 -1.95356620125
-18.8319265625 -89.10539 -249.682903125 -13.79492375 61.84393125 -2.47403519375
-19.1513324375 -89.5956275 -250.225361875 -20.27119625 61.85712625 -2.99450418625
-19.4707383125 -90.085865 -250.767820625 -26.74746875 61.87032125 -3.51497317875
-16.5811838125 -88.3633125 -238.440650625 29.48706625 62.60046875 1.19667091125
-16.8530564375 -88.751585 -238.932176875 23.30007875 62.59609375 0.69211923375
-17.1249290625 -89.1398575 -239.423703125 17.11309125 62.59171875 0.18756755625
-17.3968016875 -89.52813 -239.915229375 10.92610375 62.58734375 -0.31698412125
-17.6686743125 -89.9164025 -240.406755625 4.73911625 62.58296875 -0.82153579875
-17.9405469375 -90.304675 -240.898281875 -1.44787125 62.57859375 -1.32608747625
-18.2124195625 -90.6929475 -241.389808125 -7.63485875 62.57421875 -1.83063915375
-18.4842921875 -91.08122 -241.881334375 -13.82184625 62.56984375 -2.33519083125
-18.7561648125 -91.4694925 -242.372860625 -20.00883375 62.56546875 -2.83974250875
-19.0280374375 -91.857765 -242.864386875 -26.19582125 62.56109375 -3.34429418625
-16.5662821875 -91.0528975 -230.995609375 27.43514875 63.44937125 1.22409406875
-16.7906215625 -91.339205 -231.436203125 21.53744625 63.42742625 0.73545970625
-17.0149609375 -91.6255125 -231.876796875 15.63974375 63.40548125 0.24682534375
-17.2393003125 -91.91182 -232.317390625 9.74204125 63.38353625 -0.24180901875
-17.4636396875 -92.1981275 -232.757984375 3.84433875 63.36159125 -0.73044338125
-17.6879790625 -92.484435 -233.198578125 -2.05336375 63.33964625 -1.21907774375
-17.9123184375 -92.7707425 -233.639171875 -7.95106625 63.31770125 -1.70771210625
-18.1366578125 -93.05705 -234.079765625 -13.84876875 63.29575625 -2.19634646875
-18.3609971875 -93.3433575 -234.520359375 -19.74647125 63.27381125 -2.68498083125
-18.5853365625 -93.629665 -234.960953125 -25.64417375 63.25186625 -3.17361519375
-16.5513805625 -93.7424825 -223.550568125 25.38323125 64.29827375 1.25151722625
-16.7281866875 -93.926825 -223.940229375 19.77481375 64.25875875 0.77880017875
-16.9049928125 -94.1111675 -224.329890625 14.16639625 64.21924375 0.30608313125
-17.0817989375 -94.29551 -224.719551875 8.55797875 64.17972875 -0.16663391625
-17.2586050625 -94.4798525 -225.109213125 2.94956125 64.14021375 -0.63935096375
-17.4354111875 -94.664195 -225.498874375 -2.65885625 64.10069875 -1.11206801125
-17.6122173125 -94.8485375 -225.888535625 -8.26727375 64.06118375 -1.58478505875
-17.7890234375 -95.03288 -226.278196875 -13.87569125 64.02166875 -2.05750210625
-17.9658295625 -95.2172225 -226.667858125 -19.48410875 63.98215375 -2.53021915375
-18.1426356875 -95.401565 -227.057519375 -25.09252625 63.94263875 -3.00293620125
-16.5364789375 -96.4320675 -216.105526875 23.33131375 65.14717625 1.27894038375
-16.6657518125 -96.514445 -216.444255625 18.01218125 65.09009125 0.82214065125
-16.7950246875 -96.5968225 -216.782984375 12.69304875 65.03300625 0.36534091875
-16.9242975625 -96.6792 -217.121713125 7.37391625 64.97592125 -0.0914588137500001
-17.0535704375 -96.7615775 -217.460441875 2.05478375 64.91883625 -0.54825854625
-17.1828433125 -96.843955 -217.799170625 -3.26434875 64.86175125 -1.00505827875
-17.3121161875 -96.9263325 -218.137899375 -8.58348125 64.80466625 -1.46185801125
-17.4413890625 -97.00871 -218.476628125 -13.90261375 64.74758125 -1.91865774375
-17.5706619375 -97.0910875 -218.815356875 -19.22174625 64.69049625 -2.37545747625
-17.6999348125 -97.173465 -219.154085625 -24.54087875 64.63341125 -2.83225720875
-16.5215773125 -99.1216525 -208.660485625 21.27939625 65.99607875 1.30636354125
-16.6033169375 -99.102065 -208.948281875 16.24954875 65.92142375 0.86548112375
-16.6850565625 -99.0824775 -209.236078125 11.21970125 65.84676875 0.42459870625
-16.7667961875 -99.06289 -209.523874375 6.18985375 65.77211375 -0.01628371125
-16.8485358125 -99.0433025 -209.811670625 1.16000625 65.69745875 -0.45716612875
-16.9302754375 -99.023715 -210.099466875 -3.86984125 65.62280375 -0.89804854625
-17.0120150625 -99.0041275 -210.387263125 -8.89968875 65.54814875 -1.33893096375
-17.0937546875 -98.98454 -210.675059375 -13.92953625 65.47349375 -1.77981338125
-17.1754943125 -98.9649525 -210.962855625 -18.95938375 65.39883875 -2.22069579875
-17.2572339375 -98.945365 -211.250651875 -23.98923125 65.32418375 -2.66157821625
-16.5066756875 -101.8112375 -201.215444375 19.22747875 66.84498125 1.33378669875
-16.5408820625 -101.689685 -201.452308125 14.48691625 66.75275625 0.90882159625
-16.5750884375 -101.5681325 -201.689171875 9.74635375 66.66053125 0.48385649375
-16.6092948125 -101.44658 -201.926035625 5.00579125 66.56830625 0.0588913912499999
-16.6435011875 -101.3250275 -202.162899375 0.26522875 66.47608125 -0.36607371125
-16.6777075625 -101.203475 -202.399763125 -4.47533375 66.38385625 -0.79103881375
-16.7119139375 -101.0819225 -202.636626875 -9.21589625 66.29163125 -1.21600391625
-16.7461203125 -100.96037 -202.873490625 -13.95645875 66.19940625 -1.64096901875
-16.7803266875 -100.8388175 -203.110354375 -18.69702125 66.10718125 -2.06593412125
-16.8145330625 -100.717265 -203.347218125 -23.43758375 66.01495625 -2.49089922375
-16.4917740625 -104.5008225 -193.770403125 17.17556125 67.69388375 1.36120985625
-16.4784471875 -104.277305 -193.956334375 12.72428375 67.58408875 0.95216206875
-16.4651203125 -104.0537875 -194.142265625 8.27300625 67.47429375 0.54311428125
-16.4517934375 -103.83027 -194.328196875 3.82172875 67.36449875 0.13406649375
-16.4384665625 -103.6067525 -194.514128125 -0.629548750000001 67.25470375 -0.27498129375
-16.4251396875 -103.383235 -194.700059375 -5.08082625 67.14490875 -0.68402908125
-16.4118128125 -103.1597175 -194.885990625 -9.53210375 67.03511375 -1.09307686875
-16.3984859375 -102.9362 -195.071921875 -13.98338125 66.92531875 -1.50212465625
-16.3851590625 -102.7126825 -195.257853125 -18.43465875 66.81552375 -1.91117244375
-16.3718321875 -102.489165 -195.443784375 -22.88593625 66.70572875 -2.32022023125
-16.4768724375 -107.1904075 -186.325361875 15.12364375 68.54278625 1.38863301375
-16.4160123125 -106.864925 -186.460360625 10.96165125 68.41542125 0.99550254125
-16.3551521875 -106.5394425 -186.595359375 6.79965875 68.28805625 0.60237206875
-16.2942920625 -106.21396 -186.730358125 2.63766625 68.16069125 0.20924159625
-16.2334319375 -105.8884775 -186.865356875 -1.52432625 68.03332625 -0.18388887625
-16.1725718125 -105.562995 -187.000355625 -5.68631875 67.90596125 -0.57701934875
-16.1117116875 -105.2375125 -187.135354375 -9.84831125 67.77859625 -0.97014982125
-16.0508515625 -104.91203 -187.270353125 -14.01030375 67.65123125 -1.36328029375
-15.9899914375 -104.5865475 -187.405351875 -18.17229625 67.52386625 -1.75641076625
-15.9291313125 -104.261065 -187.540350625 -22.33428875 67.39650125 -2.14954123875
-16.4619708125 -109.8799925 -178.880320625 13.07172625 69.39168875 1.41605617125
-16.3535774375 -109.452545 -178.964386875 9.19901875 69.24675375 1.03884301375
-16.2451840625 -109.0250975 -179.048453125 5.32631125 69.10181875 0.66162985625
-16.1367906875 -108.59765 -179.132519375 1.45360375 68.95688375 0.28441669875
-16.0283973125 -108.1702025 -179.216585625 -2.41910375 68.81194875 -0.0927964587500001
-15.9200039375 -107.742755 -179.300651875 -6.29181125 68.66701375 -0.47000961625
-15.8116105625 -107.3153075 -179.384718125 -10.16451875 68.52207875 -0.84722277375
-15.7032171875 -106.88786 -179.468784375 -14.03722625 68.37714375 -1.22443593125
-15.5948238125 -106.4604125 -179.552850625 -17.90993375 68.23220875 -1.60164908875
-15.4864304375 -106.032965 -179.636916875 -21.78264125 68.08727375 -1.97886224625
-52.7784225 -148.7043435625 -353.56911625 29.92558136875 -208.8751145 2.1053493325
-50.9964475 -144.1211206875 -352.22757375 19.71493635625 -208.102456 1.3884374975
-49.2144725 -139.5378978125 -350.88603125 9.50429134375 -207.3297975 0.6715256625
-47.4324975 -134.9546749375 -349.54448875 -0.706353668750001 -206.557139 -0.0453861725000001
-45.6505225 -130.3714520625 -348.20294625 -10.91699868125 -205.7844805 -0.7622980075
-43.8685475 -125.7882291875 -346.86140375 -21.12764369375 -205.011822 -1.4792098425
-42.0865725 -121.2050063125 -345.51986125 -31.33828870625 -204.2391635 -2.1961216775
-40.3045975 -116.6217834375 -344.17831875 -41.54893371875 -203.466505 -2.9130335125
-38.5226225 -112.0385605625 -342.83677625 -51.75957873125 -202.6938465 -3.6299453475
-36.7406475 -107.4553376875 -341.49523375 -61.97022374375 -201.921188 -4.3468571825
-48.1899525 -136.2951131875 -341.92024875 32.32318885625 -181.3254635 1.9090676975
-46.6801975 -132.3570095625 -340.83042125 22.18563331875 -180.619228 1.2092115925
-45.1704425 -128.4189059375 -339.74059375 12.04807778125 -179.9129925 0.5093554875
-43.6606875 -124.4808023125 -338.65076625 1.91052224375 -179.206757 -0.1905006175
-42.1509325 -120.5426986875 -337.56093875 -8.22703329375 -178.5005215 -0.8903567225
-40.6411775 -116.6045950625 -336.47111125 -18.36458883125 -177.794286 -1.5902128275
-39.1314225 -112.6664914375 -335.38128375 -28.50214436875 -177.0880505 -2.2900689325
-37.6216675 -108.7283878125 -334.29145625 -38.63969990625 -176.381815 -2.9899250375
-36.1119125 -104.7902841875 -333.20162875 -48.77725544375 -175.6755795 -3.6897811425
-34.6021575 -100.8521805625 -332.11180125 -58.91481098125 -174.969344 -4.3896372475
-43.6014825 -123.8858828125 -330.27138125 34.72079634375 -153.7758125 1.7127860625
-42.3639475 -120.5928984375 -329.43326875 24.65633028125 -153.136 1.0299856875
-41.1264125 -117.2999140625 -328.59515625 14.59186421875 -152.4961875 0.3471853125
-39.8888775 -114.0069296875 -327.75704375 4.52739815625 -151.856375 -0.3356150625
-38.6513425 -110.7139453125 -326.91893125 -5.53706790625 -151.2165625 -1.0184154375
-37.4138075 -107.4209609375 -326.08081875 -15.60153396875 -150.57675 -1.7012158125
-36.1762725 -104.1279765625 -325.24270625 -25.66600003125 -149.9369375 -2.3840161875
-34.9387375 -100.8349921875 -324.40459375 -35.73046609375 -149.297125 -3.0668165625
-33.7012025 -97.5420078125 -323.56648125 -45.79493215625 -148.6573125 -3.7496169375
-32.4636675 -94.2490234375 -322.72836875 -55.85939821875 -148.0175 -4.4324173125
-39.0130125 -111.4766524375 -318.62251375 37.11840383125 -126.2261615 1.5165044275
-38.0476975 -108.8287873125 -318.03611625 27.12702724375 -125.652772 0.8507597825
-37.0823825 -106.1809221875 -317.44971875 17.13565065625 -125.0793825 0.1850151375
-36.1170675 -103.5330570625 -316.86332125 7.14427406875 -124.505993 -0.4807295075
-35.1517525 -100.8851919375 -316.27692375 -2.84710251875 -123.9326035 -1.1464741525
-34.1864375 -98.2373268125 -315.69052625 -12.83847910625 -123.359214 -1.8122187975
-33.2211225 -95.5894616875 -315.10412875 -22.82985569375 -122.7858245 -2.4779634425
-32.2558075 -92.9415965625 -314.51773125 -32.82123228125 -122.212435 -3.1437080875
-31.2904925 -90.2937314375 -313.93133375 -42.81260886875 -121.6390455 -3.8094527325
-30.3251775 -87.6458663125 -313.34493625 -52.80398545625 -121.065656 -4.4751973775
-34.4245425 -99.0674220625 -306.97364625 39.51601131875 -98.6765105 1.3202227925
-33.7314475 -97.0646761875 -306.63896375 29.59772420625 -98.169544 0.6715338775
-33.0383525 -95.0619303125 -306.30428125 19.67943709375 -97.6625775 0.0228449624999999
-32.3452575 -93.0591844375 -305.96959875 9.76114998125 -97.155611 -0.6258439525
-31.6521625 -91.0564385625 -305.63491625 -0.157137131249999 -96.6486445 -1.2745328675
-30.9590675 -89.0536926875 -305.30023375 -10.07542424375 -96.141678 -1.9232217825
-30.2659725 -87.0509468125 -304.96555125 -19.99371135625 -95.6347115 -2.5719106975
-29.5728775 -85.0482009375 -304.63086875 -29.91199846875 -95.127745 -3.2205996125
-28.8797825 -83.0454550625 -304.29618625 -39.83028558125 -94.6207785 -3.8692885275
-28.1866875 -81.0427091875 -303.96150375 -49.74857269375 -94.113812 -4.5179774425
-29.8360725 -86.6581916875 -295.32477875 41.91361880625 -71.1268595 1.1239411575
-29.4151975 -85.3005650625 -295.24181125 32.06842116875 -70.686316 0.4923079725
-28.9943225 -83.9429384375 -295.15884375 22.22322353125 -70.2457725 -0.1393252125
-28.5734475 -82.5853118125 -295.07587625 12.37802589375 -69.805229 -0.7709583975
-28.1525725 -81.2276851875 -294.99290875 2.53282825625 -69.3646855 -1.4025915825
-27.7316975 -79.8700585625 -294.90994125 -7.31236938125 -68.924142 -2.0342247675
-27.3108225 -78.5124319375 -294.82697375 -17.15756701875 -68.4835985 -2.6658579525
-26.8899475 -77.1548053125 -294.74400625 -27.00276465625 -68.043055 -3.2974911375
-26.4690725 -75.7971786875 -294.66103875 -36.84796229375 -67.6025115 -3.9291243225
-26.0481975 -74.4395520625 -294.57807125 -46.69315993125 -67.161968 -4.5607575075
-25.2476025 -74.2489613125 -283.67591125 44.31122629375 -43.5772085 0.9276595225
-25.0989475 -73.5364539375 -283.84465875 34.53911813125 -43.203088 0.3130820675
-24.9502925 -72.8239465625 -284.01340625 24.76700996875 -42.8289675 -0.3014953875
-24.8016375 -72.1114391875 -284.18215375 14.99490180625 -42.454847 -0.9160728425
-24.6529825 -71.3989318125 -284.35090125 5.22279364375 -42.0807265 -1.5306502975
-24.5043275 -70.6864244375 -284.51964875 -4.54931451875 -41.706606 -2.1452277525
-24.3556725 -69.9739170625 -284.68839625 -14.32142268125 -41.3324855 -2.7598052075
-24.2070175 -69.2614096875 -284.85714375 -24.09353084375 -40.958365 -3.3743826625
-24.0583625 -68.5489023125 -285.02589125 -33.86563900625 -40.5842445 -3.9889601175
-23.9097075 -67.8363949375 -285.19463875 -43.63774716875 -40.210124 -4.6035375725
-20.6591325 -61.8397309375 -272.02704375 46.70883378125 -16.0275575 0.7313778875
-20.7826975 -61.7723428125 -272.44750625 37.00981509375 -15.71986 0.1338561625
-20.9062625 -61.7049546875 -272.86796875 27.31079640625 -15.4121625 -0.4636655625
-21.0298275 -61.6375665625 -273.28843125 17.61177771875 -15.104465 -1.0611872875
-21.1533925 -61.5701784375 -273.70889375 7.91275903125 -14.7967675 -1.6587090125
-21.2769575 -61.5027903125 -274.12935625 -1.78625965625 -14.48907 -2.2562307375
-21.4005225 -61.4354021875 -274.54981875 -11.48527834375 -14.1813725 -2.8537524625
-21.5240875 -61.3680140625 -274.97028125 -21.18429703125 -13.873675 -3.4512741875
-21.6476525 -61.3006259375 -275.39074375 -30.88331571875 -13.5659775 -4.0487959125
-21.7712175 -61.2332378125 -275.81120625 -40.58233440625 -13.25828 -4.6463176375
-16.0706625 -49.4305005625 -260.37817625 49.10644126875 11.5220935 0.5350962525
-16.4664475 -50.0082316875 -261.05035375 39.48051205625 11.763368 -0.0453697425000002
-16.8622325 -50.5859628125 -261.72253125 29.85458284375 12.0046425 -0.6258357375
-17.2580175 -51.1636939375 -262.39470875 20.22865363125 12.245917 -1.2063017325
-17.6538025 -51.7414250625 -263.06688625 10.60272441875 12.4871915 -1.7867677275
-18.0495875 -52.3191561875 -263.73906375 0.976795206249999 12.728466 -2.3672337225
-18.4453725 -52.8968873125 -264.41124125 -8.64913400625 12.9697405 -2.9476997175
-18.8411575 -53.4746184375 -265.08341875 -18.27506321875 13.211015 -3.5281657125
-19.2369425 -54.0523495625 -265.75559625 -27.90099243125 13.4522895 -4.1086317075
-19.6327275 -54.6300806875 -266.42777375 -37.52692164375 13.693564 -4.6890977025
-11.4821925 -37.0212701875 -248.72930875 51.50404875625 39.0717445 0.3388146175
-12.1501975 -38.2441205625 -249.65320125 41.95120901875 39.246596 -0.2245956475
-12.8182025 -39.4669709375 -250.57709375 32.39836928125 39.4214475 -0.7880059125
-13.4862075 -40.6898213125 -251.50098625 22.84552954375 39.596299 -1.3514161775
-14.1542125 -41.9126716875 -252.42487875 13.29268980625 39.7711505 -1.9148264425
-14.8222175 -43.1355220625 -253.34877125 3.73985006875 39.946002 -2.4782367075
-15.4902225 -44.3583724375 -254.27266375 -5.81298966875 40.1208535 -3.0416469725
-16.1582275 -45.5812228125 -255.19655625 -15.36582940625 40.295705 -3.6050572375
-16.8262325 -46.8040731875 -256.12044875 -24.91866914375 40.4705565 -4.1684675025
-17.4942375 -48.0269235625 -257.04434125 -34.47150888125 40.645408 -4.7318777675
-9.1756550625 -32.4449225 -240.137613125 51.69112125 53.21330125 0.24491778625
-9.9550701875 -33.938465 -241.159564375 42.31944375 53.34874125 -0.29932014125
-10.7344853125 -35.4320075 -242.181515625 32.94776625 53.48418125 -0.84355806875
-11.5139004375 -36.92555 -243.203466875 23.57608875 53.61962125 -1.38779599625
-12.2933155625 -38.4190925 -244.225418125 14.20441125 53.75506125 -1.93203392375
-13.0727306875 -39.912635 -245.247369375 4.83273375 53.89050125 -2.47627185125
-13.8521458125 -41.4061775 -246.269320625 -4.53894375 54.02594125 -3.02050977875
-14.6315609375 -42.89972 -247.291271875 -13.91062125 54.16138125 -3.56474770625
-15.4109760625 -44.3932625 -248.313223125 -23.28229875 54.29682125 -4.10898563375
-16.1903911875 -45.886805 -249.335174375 -32.65397625 54.43226125 -4.65322356125
-9.1510501875 -35.7014575 -234.603089375 49.66765875 53.94676375 0.25340575875
-9.8810655625 -37.091265 -235.569443125 40.58521625 54.06980375 -0.26954322375
-10.6110809375 -38.4810725 -236.535796875 31.50277375 54.19284375 -0.79249220625
-11.3410963125 -39.87088 -237.502150625 22.42033125 54.31588375 -1.31544118875
-12.0711116875 -41.2606875 -238.468504375 13.33788875 54.43892375 -1.83839017125
-12.8011270625 -42.650495 -239.434858125 4.25544625 54.56196375 -2.36133915375
-13.5311424375 -44.0403025 -240.401211875 -4.82699625 54.68500375 -2.88428813625
-14.2611578125 -45.43011 -241.367565625 -13.90943875 54.80804375 -3.40723711875
-14.9911731875 -46.8199175 -242.333919375 -22.99188125 54.93108375 -3.93018610125
-15.7211885625 -48.209725 -243.300273125 -32.07432375 55.05412375 -4.45313508375
-9.1264453125 -38.9579925 -229.068565625 47.64419625 54.68022625 0.26189373125
-9.8070609375 -40.244065 -229.979321875 38.85098875 54.79086625 -0.23976630625
-10.4876765625 -41.5301375 -230.890078125 30.05778125 54.90150625 -0.74142634375
-11.1682921875 -42.81621 -231.800834375 21.26457375 55.01214625 -1.24308638125
-11.8489078125 -44.1022825 -232.711590625 12.47136625 55.12278625 -1.74474641875
-12.5295234375 -45.388355 -233.622346875 3.67815875 55.23342625 -2.24640645625
-13.2101390625 -46.6744275 -234.533103125 -5.11504875 55.34406625 -2.74806649375
-13.8907546875 -47.9605 -235.443859375 -13.90825625 55.45470625 -3.24972653125
-14.5713703125 -49.2465725 -236.354615625 -22.70146375 55.56534625 -3.75138656875
-15.2519859375 -50.532645 -237.265371875 -31.49467125 55.67598625 -4.25304660625
-9.1018404375 -42.2145275 -223.534041875 45.62073375 55.41368875 0.27038170375
-9.7330563125 -43.396865 -224.389200625 37.11676125 55.51192875 -0.20998938875
-10.3642721875 -44.5792025 -225.244359375 28.61278875 55.61016875 -0.69036048125
-10.9954880625 -45.76154 -226.099518125 20.10881625 55.70840875 -1.17073157375
-11.6267039375 -46.9438775 -226.954676875 11.60484375 55.80664875 -1.65110266625
-12.2579198125 -48.126215 -227.809835625 3.10087125 55.90488875 -2.13147375875
-12.8891356875 -49.3085525 -228.664994375 -5.40310125 56.00312875 -2.61184485125
-13.5203515625 -50.49089 -229.520153125 -13.90707375 56.10136875 -3.09221594375
-14.1515674375 -51.6732275 -230.375311875 -22.41104625 56.19960875 -3.57258703625
-14.7827833125 -52.855565 -231.230470625 -30.91501875 56.29784875 -4.05295812875
-9.0772355625 -45.4710625 -217.999518125 43.59727125 56.14715125 0.27886967625
-9.6590516875 -46.549665 -218.799079375 35.38253375 56.23299125 -0.18021247125
-10.2408678125 -47.6282675 -219.598640625 27.16779625 56.31883125 -0.63929461875
-10.8226839375 -48.70687 -220.398201875 18.95305875 56.40467125 -1.09837676625
-11.4045000625 -49.7854725 -221.197763125 10.73832125 56.49051125 -1.55745891375
-11.9863161875 -50.864075 -221.997324375 2.52358375 56.57635125 -2.01654106125
-12.5681323125 -51.9426775 -222.796885625 -5.69115375 56.66219125 -2.47562320875
-13.1499484375 -53.02128 -223.596446875 -13.90589125 56.74803125 -2.93470535625
-13.7317645625 -54.0998825 -224.396008125 -22.12062875 56.83387125 -3.39378750375
-14.3135806875 -55.178485 -225.195569375 -30.33536625 56.91971125 -3.85286965125
-9.0526306875 -48.7275975 -212.464994375 41.57380875 56.88061375 0.28735764875
-9.5850470625 -49.702465 -213.208958125 33.64830625 56.95405375 -0.15043555375
-10.1174634375 -50.6773325 -213.952921875 25.72280375 57.02749375 -0.58822875625
-10.6498798125 -51.6522 -214.696885625 17.79730125 57.10093375 -1.02602195875
-11.1822961875 -52.6270675 -215.440849375 9.87179875 57.17437375 -1.46381516125
-11.7147125625 -53.601935 -216.184813125 1.94629625 57.24781375 -1.90160836375
-12.2471289375 -54.5768025 -216.928776875 -5.97920625 57.32125375 -2.33940156625
-12.7795453125 -55.55167 -217.672740625 -13.90470875 57.39469375 -2.77719476875
-13.3119616875 -56.5265375 -218.416704375 -21.83021125 57.46813375 -3.21498797125
-13.8443780625 -57.501405 -219.160668125 -29.75571375 57.54157375 -3.65278117375
-9.0280258125 -51.9841325 -206.930470625 39.55034625 57.61407625 0.29584562125
-9.5110424375 -52.855265 -207.618836875 31.91407875 57.67511625 -0.12065863625
-9.9940590625 -53.7263975 -208.307203125 24.27781125 57.73615625 -0.53716289375
-10.4770756875 -54.59753 -208.995569375 16.64154375 57.79719625 -0.95366715125
-10.9600923125 -55.4686625 -209.683935625 9.00527625 57.85823625 -1.37017140875
-11.4431089375 -56.339795 -210.372301875 1.36900875 57.91927625 -1.78667566625
-11.9261255625 -57.2109275 -211.060668125 -6.26725875 57.98031625 -2.20317992375
-12.4091421875 -58.08206 -211.749034375 -13.90352625 58.04135625 -2.61968418125
-12.8921588125 -58.9531925 -212.437400625 -21.53979375 58.10239625 -3.03618843875
-13.3751754375 -59.824325 -213.125766875 -29.17606125 58.16343625 -3.45269269625
-9.0034209375 -55.2406675 -201.395946875 37.52688375 58.34753875 0.30433359375
-9.4370378125 -56.008065 -202.028715625 30.17985125 58.39617875 -0.0908817187500003
-9.8706546875 -56.7754625 -202.661484375 22.83281875 58.44481875 -0.48609703125
-10.3042715625 -57.54286 -203.294253125 15.48578625 58.49345875 -0.88131234375
-10.7378884375 -58.3102575 -203.927021875 8.13875375 58.54209875 -1.27652765625
-11.1715053125 -59.077655 -204.559790625 0.791721249999998 58.59073875 -1.67174296875
-11.6051221875 -59.8450525 -205.192559375 -6.55531125 58.63937875 -2.06695828125
-12.0387390625 -60.61245 -205.825328125 -13.90234375 58.68801875 -2.46217359375
-12.4723559375 -61.3798475 -206.458096875 -21.24937625 58.73665875 -2.85738890625
-12.9059728125 -62.147245 -207.090865625 -28.59640875 58.78529875 -3.25260421875
-8.9788160625 -58.4972025 -195.861423125 35.50342125 59.08100125 0.31282156625
-9.3630331875 -59.160865 -196.438594375 28.44562375 59.11724125 -0.0611048012500003
-9.7472503125 -59.8245275 -197.015765625 21.38782625 59.15348125 -0.43503116875
-10.1314674375 -60.48819 -197.592936875 14.33002875 59.18972125 -0.80895753625
-10.5156845625 -61.1518525 -198.170108125 7.27223125 59.22596125 -1.18288390375
-10.8999016875 -61.815515 -198.747279375 0.214433749999998 59.26220125 -1.55681027125
-11.2841188125 -62.4791775 -199.324450625 -6.84336375 59.29844125 -1.93073663875
-11.6683359375 -63.14284 -199.901621875 -13.90116125 59.33468125 -2.30466300625
-12.0525530625 -63.8065025 -200.478793125 -20.95895875 59.37092125 -2.67858937375
-12.4367701875 -64.470165 -201.055964375 -28.01675625 59.40716125 -3.05251574125
-8.9542111875 -61.7537375 -190.326899375 33.47995875 59.81446375 0.32130953875
-9.2890285625 -62.313665 -190.848473125 26.71139625 59.83830375 -0.0313278837500003
-9.6238459375 -62.8735925 -191.370046875 19.94283375 59.86214375 -0.38396530625
-9.9586633125 -63.43352 -191.891620625 13.17427125 59.88598375 -0.73660272875
-10.2934806875 -63.9934475 -192.413194375 6.40570875 59.90982375 -1.08924015125
-10.6282980625 -64.553375 -192.934768125 -0.36285375 59.93366375 -1.44187757375
-10.9631154375 -65.1133025 -193.456341875 -7.13141625 59.95750375 -1.79451499625
-11.2979328125 -65.67323 -193.977915625 -13.89997875 59.98134375 -2.14715241875
-11.6327501875 -66.2331575 -194.499489375 -20.66854125 60.00518375 -2.49978984125
-11.9675675625 -66.793085 -195.021063125 -27.43710375 60.02902375 -2.85242726375
-8.9296063125 -65.0102725 -184.792375625 31.45649625 60.54792625 0.32979751125
-9.2150239375 -65.466465 -185.258351875 24.97716875 60.55936625 -0.00155096625000029
-9.5004415625 -65.9226575 -185.724328125 18.49784125 60.57080625 -0.33289944375
-9.7858591875 -66.37885 -186.190304375 12.01851375 60.58224625 -0.66424792125
-10.0712768125 -66.8350425 -186.656280625 5.53918625 60.59368625 -0.99559639875
-10.3566944375 -67.291235 -187.122256875 -0.94014125 60.60512625 -1.32694487625
-10.6421120625 -67.7474275 -187.588233125 -7.41946875 60.61656625 -1.65829335375
-10.9275296875 -68.20362 -188.054209375 -13.89879625 60.62800625 -1.98964183125
-11.2129473125 -68.6598125 -188.520185625 -20.37812375 60.63944625 -2.32099030875
-11.4983649375 -69.116005 -188.986161875 -26.85745125 60.65088625 -2.65233878625
-8.9050014375 -68.2668075 -179.257851875 29.43303375 61.28138875 0.33828548375
-9.1410193125 -68.619265 -179.668230625 23.24294125 61.28042875 0.0282259512499997
-9.3770371875 -68.9717225 -180.078609375 17.05284875 61.27946875 -0.28183358125
-9.6130550625 -69.32418 -180.488988125 10.86275625 61.27850875 -0.59189311375
-9.8490729375 -69.6766375 -180.899366875 4.67266375 61.27754875 -0.90195264625
-10.0850908125 -70.029095 -181.309745625 -1.51742875 61.27658875 -1.21201217875
-10.3211086875 -70.3815525 -181.720124375 -7.70752125 61.27562875 -1.52207171125
-10.5571265625 -70.73401 -182.130503125 -13.89761375 61.27466875 -1.83213124375
-10.7931444375 -71.0864675 -182.540881875 -20.08770625 61.27370875 -2.14219077625
-11.0291623125 -71.438925 -182.951260625 -26.27779875 61.27274875 -2.45225030875
-8.8803965625 -71.5233425 -173.723328125 27.40957125 62.01485125 0.34677345625
-9.0670146875 -71.772065 -174.078109375 21.50871375 62.00149125 0.0580028687499997
-9.2536328125 -72.0207875 -174.432890625 15.60785625 61.98813125 -0.23076771875
-9.4402509375 -72.26951 -174.787671875 9.70699875 61.97477125 -0.51953830625
-9.6268690625 -72.5182325 -175.142453125 3.80614125 61.96141125 -0.80830889375
-9.8134871875 -72.766955 -175.497234375 -2.09471625 61.94805125 -1.09707948125
-10.0001053125 -73.0156775 -175.852015625 -7.99557375 61.93469125 -1.38585006875
-10.1867234375 -73.2644 -176.206796875 -13.89643125 61.92133125 -1.67462065625
-10.3733415625 -73.5131225 -176.561578125 -19.79728875 61.90797125 -1.96339124375
-10.5599596875 -73.761845 -176.916359375 -25.69814625 61.89461125 -2.25216183125
-8.8557916875 -74.7798775 -168.188804375 25.38610875 62.74831375 0.35526142875
-8.9930100625 -74.924865 -168.487988125 19.77448625 62.72255375 0.0877797862499995
-9.1302284375 -75.0698525 -168.787171875 14.16286375 62.69679375 -0.17970185625
-9.2674468125 -75.21484 -169.086355625 8.55124125 62.67103375 -0.44718349875
-9.4046651875 -75.3598275 -169.385539375 2.93961875 62.64527375 -0.71466514125
-9.5418835625 -75.504815 -169.684723125 -2.67200375 62.61951375 -0.98214678375
-9.6791019375 -75.6498025 -169.983906875 -8.28362625 62.59375375 -1.24962842625
-9.8163203125 -75.79479 -170.283090625 -13.89524875 62.56799375 -1.51711006875
-9.9535386875 -75.9397775 -170.582274375 -19.50687125 62.54223375 -1.78459171125
-10.0907570625 -76.084765 -170.881458125 -25.11849375 62.51647375 -2.05207335375
-8.8311868125 -78.0364125 -162.654280625 23.36264625 63.48177625 0.36374940125
-8.9190054375 -78.077665 -162.897866875 18.04025875 63.44361625 0.11755670375
-9.0068240625 -78.1189175 -163.141453125 12.71787125 63.40545625 -0.12863599375
-9.0946426875 -78.16017 -163.385039375 7.39548375 63.36729625 -0.37482869125
-9.1824613125 -78.2014225 -163.628625625 2.07309625 63.32913625 -0.62102138875
-9.2702799375 -78.242675 -163.872211875 -3.24929125 63.29097625 -0.86721408625
-9.3580985625 -78.2839275 -164.115798125 -8.57167875 63.25281625 -1.11340678375
-9.4459171875 -78.32518 -164.359384375 -13.89406625 63.21465625 -1.35959948125
-9.5337358125 -78.3664325 -164.602970625 -19.21645375 63.17649625 -1.60579217875
-9.6215544375 -78.407685 -164.846556875 -24.53884125 63.13833625 -1.85198487625
-8.8065819375 -81.2929475 -157.119756875 21.33918375 64.21523875 0.37223737375
-8.8450008125 -81.230465 -157.307745625 16.30603125 64.16467875 0.14733362125
-8.8834196875 -81.1679825 -157.495734375 11.27287875 64.11411875 -0.0775701312500001
-8.9218385625 -81.1055 -157.683723125 6.23972625 64.06355875 -0.30247388375
-8.9602574375 -81.0430175 -157.871711875 1.20657375 64.01299875 -0.52737763625
-8.9986763125 -80.980535 -158.059700625 -3.82657875 63.96243875 -0.75228138875
-9.0370951875 -80.9180525 -158.247689375 -8.85973125 63.91187875 -0.97718514125
-9.0755140625 -80.85557 -158.435678125 -13.89288375 63.86131875 -1.20208889375
-9.1139329375 -80.7930875 -158.623666875 -18.92603625 63.81075875 -1.42699264625
-9.1523518125 -80.730605 -158.811655625 -23.95918875 63.76019875 -1.65189639875
-8.7819770625 -84.5494825 -151.585233125 19.31572125 64.94870125 0.38072534625
-8.7709961875 -84.383265 -151.717624375 14.57180375 64.88574125 0.17711053875
-8.7600153125 -84.2170475 -151.850015625 9.82788625 64.82278125 -0.0265042687500004
-8.7490344375 -84.05083 -151.982406875 5.08396875 64.75982125 -0.23011907625
-8.7380535625 -83.8846125 -152.114798125 0.34005125 64.69686125 -0.43373388375
-8.7270726875 -83.718395 -152.247189375 -4.40386625 64.63390125 -0.63734869125
-8.7160918125 -83.5521775 -152.379580625 -9.14778375 64.57094125 -0.84096349875
-8.7051109375 -83.38596 -152.511971875 -13.89170125 64.50798125 -1.04457830625
-8.6941300625 -83.2197425 -152.644363125 -18.63561875 64.44502125 -1.24819311375
-8.6831491875 -83.053525 -152.776754375 -23.37953625 64.38206125 -1.45180792125
-8.7573721875 -87.8060175 -146.050709375 17.29225875 65.68216375 0.38921331875
-8.6969915625 -87.536065 -146.127503125 12.83757625 65.60680375 0.20688745625
-8.6366109375 -87.2661125 -146.204296875 8.38289375 65.53144375 0.0245615937499996
-8.5762303125 -86.99616 -146.281090625 3.92821125 65.45608375 -0.15776426875
-8.5158496875 -86.7262075 -146.357884375 -0.52647125 65.38072375 -0.34009013125
-8.4554690625 -86.456255 -146.434678125 -4.98115375 65.30536375 -0.52241599375
-8.3950884375 -86.1863025 -146.511471875 -9.43583625 65.23000375 -0.70474185625
-8.3347078125 -85.91635 -146.588265625 -13.89051875 65.15464375 -0.88706771875
-8.2743271875 -85.6463975 -146.665059375 -18.34520125 65.07928375 -1.06939358125
-8.2139465625 -85.376445 -146.741853125 -22.79988375 65.00392375 -1.25171944375
-8.7327673125 -91.0625525 -140.516185625 15.26879625 66.41562625 0.39770129125
-8.6229869375 -90.688865 -140.537381875 11.10334875 66.32786625 0.23666437375
-8.5132065625 -90.3151775 -140.558578125 6.93790125 66.24010625 0.0756274562499998
-8.4034261875 -89.94149 -140.579774375 2.77245375 66.15234625 -0.0854094612500002
-8.2936458125 -89.5678025 -140.600970625 -1.39299375 66.06458625 -0.24644637875
-8.1838654375 -89.194115 -140.622166875 -5.55844125 65.97682625 -0.40748329625
-8.0740850625 -88.8204275 -140.643363125 -9.72388875 65.88906625 -0.56852021375
-7.9643046875 -88.44674 -140.664559375 -13.88933625 65.80130625 -0.72955713125
-7.8545243125 -88.0730525 -140.685755625 -18.05478375 65.71354625 -0.89059404875
-7.7447439375 -87.699365 -140.706951875 -22.22023125 65.62578625 -1.05163096625
-8.7081624375 -94.3190875 -134.981661875 13.24533375 67.14908875 0.40618926375
-8.5489823125 -93.841665 -134.947260625 9.36912125 67.04892875 0.26644129125
-8.3898021875 -93.3642425 -134.912859375 5.49290875 66.94876875 0.12669331875
-8.2306220625 -92.88682 -134.878458125 1.61669625 66.84860875 -0.0130546537500003
-8.0714419375 -92.4093975 -134.844056875 -2.25951625 66.74844875 -0.15280262625
-7.9122618125 -91.931975 -134.809655625 -6.13572875 66.64828875 -0.29255059875
-7.7530816875 -91.4545525 -134.775254375 -10.01194125 66.54812875 -0.43229857125
-7.5939015625 -90.97713 -134.740853125 -13.88815375 66.44796875 -0.57204654375
-7.4347214375 -90.4997075 -134.706451875 -17.76436625 66.34780875 -0.71179451625
-7.2755413125 -90.022285 -134.672050625 -21.64057875 66.24764875 -0.85154248875
-38.1468725 -113.6583759375 -251.28256875 31.33436503125 -207.727955 2.1514411375
-36.3693175 -109.0771778125 -249.95808125 21.12165884375 -207.0543525 1.5160159125
-34.5917625 -104.4959796875 -248.63359375 10.90895265625 -206.38075 0.8805906875
-32.8142075 -99.9147815625 -247.30910625 0.696246468749998 -205.7071475 0.2451654625
-31.0366525 -95.3335834375 -245.98461875 -9.51645971875 -205.033545 -0.3902597625
-29.2590975 -90.7523853125 -244.66013125 -19.72916590625 -204.3599425 -1.0256849875
-27.4815425 -86.1711871875 -243.33564375 -29.94187209375 -203.68634 -1.6611102125
-25.7039875 -81.5899890625 -242.01115625 -40.15457828125 -203.0127375 -2.2965354375
-23.9264325 -77.0087909375 -240.68666875 -50.36728446875 -202.339135 -2.9319606625
-22.1488775 -72.4275928125 -239.36218125 -60.57999065625 -201.6655325 -3.5673858875
-34.3022925 -102.1364653125 -241.85820625 33.54354634375 -180.298165 1.8828729125
-32.7949775 -98.1985459375 -240.78074375 23.40388028125 -179.6864575 1.2698962375
-31.2876625 -94.2606265625 -239.70328125 13.26421421875 -179.07475 0.6569195625
-29.7803475 -90.3227071875 -238.62581875 3.12454815625 -178.4630425 0.0439428874999999
-28.2730325 -86.3847878125 -237.54835625 -7.01511790625 -177.851335 -0.5690337875
-26.7657175 -82.4468684375 -236.47089375 -17.15478396875 -177.2396275 -1.1820104625
-25.2584025 -78.5089490625 -235.39343125 -27.29445003125 -176.62792 -1.7949871375
-23.7510875 -74.5710296875 -234.31596875 -37.43411609375 -176.0162125 -2.4079638125
-22.2437725 -70.6331103125 -233.23850625 -47.57378215625 -175.404505 -3.0209404875
-20.7364575 -66.6951909375 -232.16104375 -57.71344821875 -174.7927975 -3.6339171625
-30.4577125 -90.6145546875 -232.43384375 35.75272765625 -152.868375 1.6143046875
-29.2206375 -87.3199140625 -231.60340625 25.68610171875 -152.3185625 1.0237765625
-27.9835625 -84.0252734375 -230.77296875 15.61947578125 -151.76875 0.4332484375
-26.7464875 -80.7306328125 -229.94253125 5.55284984375 -151.2189375 -0.1572796875
-25.5094125 -77.4359921875 -229.11209375 -4.51377609375 -150.669125 -0.7478078125
-24.2723375 -74.1413515625 -228.28165625 -14.58040203125 -150.1193125 -1.3383359375
-23.0352625 -70.8467109375 -227.45121875 -24.64702796875 -149.5695 -1.9288640625
-21.7981875 -67.5520703125 -226.62078125 -34.71365390625 -149.0196875 -2.5193921875
-20.5611125 -64.2574296875 -225.79034375 -44.78027984375 -148.469875 -3.1099203125
-19.3240375 -60.9627890625 -224.95990625 -54.84690578125 -147.9200625 -3.7004484375
-26.6131325 -79.0926440625 -223.00948125 37.96190896875 -125.438585 1.3457364625
-25.6462975 -76.4412821875 -222.42606875 27.96832315625 -124.9506675 0.7776568875
-24.6794625 -73.7899203125 -221.84265625 17.97473734375 -124.46275 0.2095773125
-23.7126275 -71.1385584375 -221.25924375 7.98115153125 -123.9748325 -0.3585022625
-22.7457925 -68.4871965625 -220.67583125 -2.01243428125 -123.486915 -0.9265818375
-21.7789575 -65.8358346875 -220.09241875 -12.00602009375 -122.9989975 -1.4946614125
-20.8121225 -63.1844728125 -219.50900625 -21.99960590625 -122.51108 -2.0627409875
-19.8452875 -60.5331109375 -218.92559375 -31.99319171875 -122.0231625 -2.6308205625
-18.8784525 -57.8817490625 -218.34218125 -41.98677753125 -121.535245 -3.1989001375
-17.9116175 -55.2303871875 -217.75876875 -51.98036334375 -121.0473275 -3.7669797125
-22.7685525 -67.5707334375 -213.58511875 40.17109028125 -98.008795 1.0771682375
-22.0719575 -65.5626503125 -213.24873125 30.25054459375 -97.5827725 0.5315372125
-21.3753625 -63.5545671875 -212.91234375 20.32999890625 -97.15675 -0.0140938124999998
-20.6787675 -61.5464840625 -212.57595625 10.40945321875 -96.7307275 -0.5597248375
-19.9821725 -59.5384009375 -212.23956875 0.488907531250001 -96.304705 -1.1053558625
-19.2855775 -57.5303178125 -211.90318125 -9.43163815625 -95.8786825 -1.6509868875
-18.5889825 -55.5222346875 -211.56679375 -19.35218384375 -95.45266 -2.1966179125
-17.8923875 -53.5141515625 -211.23040625 -29.27272953125 -95.0266375 -2.7422489375
-17.1957925 -51.5060684375 -210.89401875 -39.19327521875 -94.600615 -3.2878799625
-16.4991975 -49.4979853125 -210.55763125 -49.11382090625 -94.1745925 -3.8335109875
-18.9239725 -56.0488228125 -204.16075625 42.38027159375 -70.579005 0.8086000125
-18.4976175 -54.6840184375 -204.07139375 32.53276603125 -70.2148775 0.2854175375
-18.0712625 -53.3192140625 -203.98203125 22.68526046875 -69.85075 -0.2377649375
-17.6449075 -51.9544096875 -203.89266875 12.83775490625 -69.4866225 -0.7609474125
-17.2185525 -50.5896053125 -203.80330625 2.99024934375 -69.122495 -1.2841298875
-16.7921975 -49.2248009375 -203.71394375 -6.85725621875 -68.7583675 -1.8073123625
-16.3658425 -47.8599965625 -203.62458125 -16.70476178125 -68.39424 -2.3304948375
-15.9394875 -46.4951921875 -203.53521875 -26.55226734375 -68.0301125 -2.8536773125
-15.5131325 -45.1303878125 -203.44585625 -36.39977290625 -67.665985 -3.3768597875
-15.0867775 -43.7655834375 -203.35649375 -46.24727846875 -67.3018575 -3.9000422625
-15.0793925 -44.5269121875 -194.73639375 44.58945290625 -43.149215 0.5400317875
-14.9232775 -43.8053865625 -194.89405625 34.81498746875 -42.8469825 0.0392978624999997
-14.7671625 -43.0838609375 -195.05171875 25.04052203125 -42.54475 -0.4614360625
-14.6110475 -42.3623353125 -195.20938125 15.26605659375 -42.2425175 -0.9621699875
-14.4549325 -41.6408096875 -195.36704375 5.49159115625 -41.940285 -1.4629039125
-14.2988175 -40.9192840625 -195.52470625 -4.28287428125 -41.6380525 -1.9636378375
-14.1427025 -40.1977584375 -195.68236875 -14.05733971875 -41.33582 -2.4643717625
-13.9865875 -39.4762328125 -195.84003125 -23.83180515625 -41.0335875 -2.9651056875
-13.8304725 -38.7547071875 -195.99769375 -33.60627059375 -40.731355 -3.4658396125
-13.6743575 -38.0331815625 -196.15535625 -43.38073603125 -40.4291225 -3.9665735375
-11.2348125 -33.0050015625 -185.31203125 46.79863421875 -15.719425 0.2714635625
-11.3489375 -32.9267546875 -185.71671875 37.09720890625 -15.4790875 -0.2068218125
-11.4630625 -32.8485078125 -186.12140625 27.39578359375 -15.23875 -0.6851071875
-11.5771875 -32.7702609375 -186.52609375 17.69435828125 -14.9984125 -1.1633925625
-11.6913125 -32.6920140625 -186.93078125 7.99293296875 -14.758075 -1.6416779375
-11.8054375 -32.6137671875 -187.33546875 -1.70849234375 -14.5177375 -2.1199633125
-11.9195625 -32.5355203125 -187.74015625 -11.40991765625 -14.2774 -2.5982486875
-12.0336875 -32.4572734375 -188.14484375 -21.11134296875 -14.0370625 -3.0765340625
-12.1478125 -32.3790265625 -188.54953125 -30.81276828125 -13.796725 -3.5548194375
-12.2619375 -32.3007796875 -188.95421875 -40.51419359375 -13.5563875 -4.0331048125
-7.3902325 -21.4830909375 -175.88766875 49.00781553125 11.710365 0.00289533750000009
-7.7745975 -22.0481228125 -176.53938125 39.37943034375 11.8888075 -0.4529414875
-8.1589625 -22.6131546875 -177.19109375 29.75104515625 12.06725 -0.9087783125
-8.5433275 -23.1781865625 -177.84280625 20.12265996875 12.2456925 -1.3646151375
-8.9276925 -23.7432184375 -178.49451875 10.49427478125 12.424135 -1.8204519625
-9.3120575 -24.3082503125 -179.14623125 0.865889593750001 12.6025775 -2.2762887875
-9.6964225 -24.8732821875 -179.79794375 -8.76249559375 12.78102 -2.7321256125
-10.0807875 -25.4383140625 -180.44965625 -18.39088078125 12.9594625 -3.1879624375
-10.4651525 -26.0033459375 -181.10136875 -28.01926596875 13.137905 -3.6437992625
-10.8495175 -26.5683778125 -181.75308125 -37.64765115625 13.3163475 -4.0996360875
-3.5456525 -9.9611803125 -166.46330625 51.21699684375 39.140155 -0.2656728875
-4.2002575 -11.1694909375 -167.36204375 41.66165178125 39.2567025 -0.6990611625
-4.8548625 -12.3778015625 -168.26078125 32.10630671875 39.37325 -1.1324494375
-5.5094675 -13.5861121875 -169.15951875 22.55096165625 39.4897975 -1.5658377125
-6.1640725 -14.7944228125 -170.05825625 12.99561659375 39.606345 -1.9992259875
-6.8186775 -16.0027334375 -170.95699375 3.44027153125 39.7228925 -2.4326142625
-7.4732825 -17.2110440625 -171.85573125 -6.11507353125 39.83944 -2.8660025375
-8.1278875 -18.4193546875 -172.75446875 -15.67041859375 39.9559875 -3.2993908125
-8.7824925 -19.6276653125 -173.65320625 -25.22576365625 40.072535 -3.7327790875
-9.4370975 -20.8359759375 -174.55194375 -34.78110871875 40.1890825 -4.1661673625
-1.6062084375 -6.1119675 -159.939121875 51.32408375 53.16406125 -0.40518060625
-2.3703003125 -7.589165 -160.931240625 41.94985125 53.24604625 -0.81401431875
-3.1343921875 -9.0663625 -161.923359375 32.57561875 53.32803125 -1.22284803125
-3.8984840625 -10.54356 -162.915478125 23.20138625 53.41001625 -1.63168174375
-4.6625759375 -12.0207575 -163.907596875 13.82715375 53.49200125 -2.04051545625
-5.4266678125 -13.497955 -164.899715625 4.45292125 53.57398625 -2.44934916875
-6.1907596875 -14.9751525 -165.891834375 -4.92131125 53.65597125 -2.85818288125
-6.9548515625 -16.45235 -166.883953125 -14.29554375 53.73795625 -3.26701659375
-7.7189434375 -17.9295475 -167.876071875 -23.66977625 53.81994125 -3.67585030625
-8.4830353125 -19.406745 -168.868190625 -33.04400875 53.90192625 -4.08468401875
-1.5719003125 -9.93545249999999 -156.315115625 49.32907625 53.78208375 -0.41562781875
-2.2847259375 -11.307145 -157.246971875 40.24402875 53.85683875 -0.79780095625
-2.9975515625 -12.6788375 -158.178828125 31.15898125 53.93159375 -1.17997409375
-3.7103771875 -14.05053 -159.110684375 22.07393375 54.00634875 -1.56214723125
-4.4232028125 -15.4222225 -160.042540625 12.98888625 54.08110375 -1.94432036875
-5.1360284375 -16.793915 -160.974396875 3.90383875 54.15585875 -2.32649350625
-5.8488540625 -18.1656075 -161.906253125 -5.18120875 54.23061375 -2.70866664375
-6.5616796875 -19.5373 -162.838109375 -14.26625625 54.30536875 -3.09083978125
-7.2745053125 -20.9089925 -163.769965625 -23.35130375 54.38012375 -3.47301291875
-7.9873309375 -22.280685 -164.701821875 -32.43635125 54.45487875 -3.85518605625
-1.5375921875 -13.7589375 -152.691109375 47.33406875 54.40010625 -0.42607503125
-2.1991515625 -15.025125 -153.562703125 38.53820625 54.46763125 -0.78158759375
-2.8607109375 -16.2913125 -154.434296875 29.74234375 54.53515625 -1.13710015625
-3.5222703125 -17.5575 -155.305890625 20.94648125 54.60268125 -1.49261271875
-4.1838296875 -18.8236875 -156.177484375 12.15061875 54.67020625 -1.84812528125
-4.8453890625 -20.089875 -157.049078125 3.35475625 54.73773125 -2.20363784375
-5.5069484375 -21.3560625 -157.920671875 -5.44110625 54.80525625 -2.55915040625
-6.1685078125 -22.62225 -158.792265625 -14.23696875 54.87278125 -2.91466296875
-6.8300671875 -23.8884375 -159.663859375 -23.03283125 54.94030625 -3.27017553125
-7.4916265625 -25.154625 -160.535453125 -31.82869375 55.00783125 -3.62568809375
-1.5032840625 -17.5824225 -149.067103125 45.33906125 55.01812875 -0.43652224375
-2.1135771875 -18.743105 -149.878434375 36.83238375 55.07842375 -0.76537423125
-2.7238703125 -19.9037875 -150.689765625 28.32570625 55.13871875 -1.09422621875
-3.3341634375 -21.06447 -151.501096875 19.81902875 55.19901375 -1.42307820625
-3.9444565625 -22.2251525 -152.312428125 11.31235125 55.25930875 -1.75193019375
-4.5547496875 -23.385835 -153.123759375 2.80567375 55.31960375 -2.08078218125
-5.1650428125 -24.5465175 -153.935090625 -5.70100375 55.37989875 -2.40963416875
-5.7753359375 -25.7072 -154.746421875 -14.20768125 55.44019375 -2.73848615625
-6.3856290625 -26.8678825 -155.557753125 -22.71435875 55.50048875 -3.06733814375
-6.9959221875 -28.028565 -156.369084375 -31.22103625 55.56078375 -3.39619013125
-1.4689759375 -21.4059075 -145.443096875 43.34405375 55.63615125 -0.44696945625
-2.0280028125 -22.461085 -146.194165625 35.12656125 55.68921625 -0.74916086875
-2.5870296875 -23.5162625 -146.945234375 26.90906875 55.74228125 -1.05135228125
-3.1460565625 -24.57144 -147.696303125 18.69157625 55.79534625 -1.35354369375
-3.7050834375 -25.6266175 -148.447371875 10.47408375 55.84841125 -1.65573510625
-4.2641103125 -26.681795 -149.198440625 2.25659125 55.90147625 -1.95792651875
-4.8231371875 -27.7369725 -149.949509375 -5.96090125 55.95454125 -2.26011793125
-5.3821640625 -28.79215 -150.700578125 -14.17839375 56.00760625 -2.56230934375
-5.9411909375 -29.8473275 -151.451646875 -22.39588625 56.06067125 -2.86450075625
-6.5002178125 -30.902505 -152.202715625 -30.61337875 56.11373625 -3.16669216875
-1.4346678125 -25.2293925 -141.819090625 41.34904625 56.25417375 -0.45741666875
-1.9424284375 -26.179065 -142.509896875 33.42073875 56.30000875 -0.73294750625
-2.4501890625 -27.1287375 -143.200703125 25.49243125 56.34584375 -1.00847834375
-2.9579496875 -28.07841 -143.891509375 17.56412375 56.39167875 -1.28400918125
-3.4657103125 -29.0280825 -144.582315625 9.63581625 56.43751375 -1.55954001875
-3.9734709375 -29.977755 -145.273121875 1.70750875 56.48334875 -1.83507085625
-4.4812315625 -30.9274275 -145.963928125 -6.22079875 56.52918375 -2.11060169375
-4.9889921875 -31.8771 -146.654734375 -14.14910625 56.57501875 -2.38613253125
-5.4967528125 -32.8267725 -147.345540625 -22.07741375 56.62085375 -2.66166336875
-6.0045134375 -33.776445 -148.036346875 -30.00572125 56.66668875 -2.93719420625
-1.4003596875 -29.0528775 -138.195084375 39.35403875 56.87219625 -0.46786388125
-1.8568540625 -29.897045 -138.825628125 31.71491625 56.91080125 -0.71673414375
-2.3133484375 -30.7412125 -139.456171875 24.07579375 56.94940625 -0.96560440625
-2.7698428125 -31.58538 -140.086715625 16.43667125 56.98801125 -1.21447466875
-3.2263371875 -32.4295475 -140.717259375 8.79754875 57.02661625 -1.46334493125
-3.6828315625 -33.273715 -141.347803125 1.15842625 57.06522125 -1.71221519375
-4.1393259375 -34.1178825 -141.978346875 -6.48069625 57.10382625 -1.96108545625
-4.5958203125 -34.96205 -142.608890625 -14.11981875 57.14243125 -2.20995571875
-5.0523146875 -35.8062175 -143.239434375 -21.75894125 57.18103625 -2.45882598125
-5.5088090625 -36.650385 -143.869978125 -29.39806375 57.21964125 -2.70769624375
-1.3660515625 -32.8763625 -134.571078125 37.35903125 57.49021875 -0.47831109375
-1.7712796875 -33.615025 -135.141359375 30.00909375 57.52159375 -0.70052078125
-2.1765078125 -34.3536875 -135.711640625 22.65915625 57.55296875 -0.92273046875
-2.5817359375 -35.09235 -136.281921875 15.30921875 57.58434375 -1.14494015625
-2.9869640625 -35.8310125 -136.852203125 7.95928125 57.61571875 -1.36714984375
-3.3921921875 -36.569675 -137.422484375 0.609343749999999 57.64709375 -1.58935953125
-3.7974203125 -37.3083375 -137.992765625 -6.74059375 57.67846875 -1.81156921875
-4.2026484375 -38.047 -138.563046875 -14.09053125 57.70984375 -2.03377890625
-4.6078765625 -38.7856625 -139.133328125 -21.44046875 57.74121875 -2.25598859375
-5.0131046875 -39.524325 -139.703609375 -28.79040625 57.77259375 -2.47819828125
-1.3317434375 -36.6998475 -130.947071875 35.36402375 58.10824125 -0.48875830625
-1.6857053125 -37.333005 -131.457090625 28.30327125 58.13238625 -0.68430741875
-2.0396671875 -37.9661625 -131.967109375 21.24251875 58.15653125 -0.87985653125
-2.3936290625 -38.59932 -132.477128125 14.18176625 58.18067625 -1.07540564375
-2.7475909375 -39.2324775 -132.987146875 7.12101375 58.20482125 -1.27095475625
-3.1015528125 -39.865635 -133.497165625 0.0602612499999992 58.22896625 -1.46650386875
-3.4555146875 -40.4987925 -134.007184375 -7.00049125 58.25311125 -1.66205298125
-3.8094765625 -41.13195 -134.517203125 -14.06124375 58.27725625 -1.85760209375
-4.1634384375 -41.7651075 -135.027221875 -21.12199625 58.30140125 -2.05315120625
-4.5174003125 -42.398265 -135.537240625 -28.18274875 58.32554625 -2.24870031875
-1.2974353125 -40.5233325 -127.323065625 33.36901625 58.72626375 -0.49920551875
-1.6001309375 -41.050985 -127.772821875 26.59744875 58.74317875 -0.66809405625
-1.9028265625 -41.5786375 -128.222578125 19.82588125 58.76009375 -0.83698259375
-2.2055221875 -42.10629 -128.672334375 13.05431375 58.77700875 -1.00587113125
-2.5082178125 -42.6339425 -129.122090625 6.28274625 58.79392375 -1.17475966875
-2.8109134375 -43.161595 -129.571846875 -0.48882125 58.81083875 -1.34364820625
-3.1136090625 -43.6892475 -130.021603125 -7.26038875 58.82775375 -1.51253674375
-3.4163046875 -44.2169 -130.471359375 -14.03195625 58.84466875 -1.68142528125
-3.7190003125 -44.7445525 -130.921115625 -20.80352375 58.86158375 -1.85031381875
-4.0216959375 -45.272205 -131.370871875 -27.57509125 58.87849875 -2.01920235625
-1.2631271875 -44.3468175 -123.699059375 31.37400875 59.34428625 -0.50965273125
-1.5145565625 -44.768965 -124.088553125 24.89162625 59.35397125 -0.65188069375
-1.7659859375 -45.1911125 -124.478046875 18.40924375 59.36365625 -0.79410865625
-2.0174153125 -45.61326 -124.867540625 11.92686125 59.37334125 -0.93633661875
-2.2688446875 -46.0354075 -125.257034375 5.44447875 59.38302625 -1.07856458125
-2.5202740625 -46.457555 -125.646528125 -1.03790375 59.39271125 -1.22079254375
-2.7717034375 -46.8797025 -126.036021875 -7.52028625 59.40239625 -1.36302050625
-3.0231328125 -47.30185 -126.425515625 -14.00266875 59.41208125 -1.50524846875
-3.2745621875 -47.7239975 -126.815009375 -20.48505125 59.42176625 -1.64747643125
-3.5259915625 -48.146145 -127.204503125 -26.96743375 59.43145125 -1.78970439375
-1.2288190625 -48.1703025 -120.075053125 29.37900125 59.96230875 -0.52009994375
-1.4289821875 -48.486945 -120.404284375 23.18580375 59.96476375 -0.63566733125
-1.6291453125 -48.8035875 -120.733515625 16.99260625 59.96721875 -0.75123471875
-1.8293084375 -49.12023 -121.062746875 10.79940875 59.96967375 -0.86680210625
-2.0294715625 -49.4368725 -121.391978125 4.60621125 59.97212875 -0.98236949375
-2.2296346875 -49.753515 -121.721209375 -1.58698625 59.97458375 -1.09793688125
-2.4297978125 -50.0701575 -122.050440625 -7.78018375 59.97703875 -1.21350426875
-2.6299609375 -50.3868 -122.379671875 -13.97338125 59.97949375 -1.32907165625
-2.8301240625 -50.7034425 -122.708903125 -20.16657875 59.98194875 -1.44463904375
-3.0302871875 -51.020085 -123.038134375 -26.35977625 59.98440375 -1.56020643125
-1.1945109375 -51.9937875 -116.451046875 27.38399375 60.58033125 -0.53054715625
-1.3434078125 -52.204925 -116.720015625 21.47998125 60.57555625 -0.61945396875
-1.4923046875 -52.4160625 -116.988984375 15.57596875 60.57078125 -0.70836078125
-1.6412015625 -52.6272 -117.257953125 9.67195625 60.56600625 -0.79726759375
-1.7900984375 -52.8383375 -117.526921875 3.76794375 60.56123125 -0.88617440625
-1.9389953125 -53.049475 -117.795890625 -2.13606875 60.55645625 -0.97508121875
-2.0878921875 -53.2606125 -118.064859375 -8.04008125 60.55168125 -1.06398803125
-2.2367890625 -53.47175 -118.333828125 -13.94409375 60.54690625 -1.15289484375
-2.3856859375 -53.6828875 -118.602796875 -19.84810625 60.54213125 -1.24180165625
-2.5345828125 -53.894025 -118.871765625 -25.75211875 60.53735625 -1.33070846875
-1.1602028125 -55.8172725 -112.827040625 25.38898625 61.19835375 -0.54099436875
-1.2578334375 -55.922905 -113.035746875 19.77415875 61.18634875 -0.60324060625
-1.3554640625 -56.0285375 -113.244453125 14.15933125 61.17434375 -0.66548684375
-1.4530946875 -56.13417 -113.453159375 8.54450375 61.16233875 -0.72773308125
-1.5507253125 -56.2398025 -113.661865625 2.92967625 61.15033375 -0.78997931875
-1.6483559375 -56.345435 -113.870571875 -2.68515125 61.13832875 -0.85222555625
-1.7459865625 -56.4510675 -114.079278125 -8.29997875 61.12632375 -0.91447179375
-1.8436171875 -56.5567 -114.287984375 -13.91480625 61.11431875 -0.97671803125
-1.9412478125 -56.6623325 -114.496690625 -19.52963375 61.10231375 -1.03896426875
-2.0388784375 -56.767965 -114.705396875 -25.14446125 61.09030875 -1.10121050625
-1.1258946875 -59.6407575 -109.203034375 23.39397875 61.81637625 -0.55144158125
-1.1722590625 -59.640885 -109.351478125 18.06833625 61.79714125 -0.58702724375
-1.2186234375 -59.6410125 -109.499921875 12.74269375 61.77790625 -0.62261290625
-1.2649878125 -59.64114 -109.648365625 7.41705125 61.75867125 -0.65819856875
-1.3113521875 -59.6412675 -109.796809375 2.09140875 61.73943625 -0.69378423125
-1.3577165625 -59.641395 -109.945253125 -3.23423375 61.72020125 -0.72936989375
-1.4040809375 -59.6415225 -110.093696875 -8.55987625 61.70096625 -0.76495555625
-1.4504453125 -59.64165 -110.242140625 -13.88551875 61.68173125 -0.80054121875
-1.4968096875 -59.6417775 -110.390584375 -19.21116125 61.66249625 -0.83612688125
-1.5431740625 -59.641905 -110.539028125 -24.53680375 61.64326125 -0.87171254375
-1.0915865625 -63.4642425 -105.579028125 21.39897125 62.43439875 -0.56188879375
-1.0866846875 -63.358865 -105.667209375 16.36251375 62.40793375 -0.57081388125
-1.0817828125 -63.2534875 -105.755390625 11.32605625 62.38146875 -0.57973896875
-1.0768809375 -63.14811 -105.843571875 6.28959875 62.35500375 -0.58866405625
-1.0719790625 -63.0427325 -105.931753125 1.25314125 62.32853875 -0.59758914375
-1.0670771875 -62.937355 -106.019934375 -3.78331625 62.30207375 -0.60651423125
-1.0621753125 -62.8319775 -106.108115625 -8.81977375 62.27560875 -0.61543931875
-1.0572734375 -62.7266 -106.196296875 -13.85623125 62.24914375 -0.62436440625
-1.0523715625 -62.6212225 -106.284478125 -18.89268875 62.22267875 -0.63328949375
-1.0474696875 -62.515845 -106.372659375 -23.92914625 62.19621375 -0.64221458125
-1.0572784375 -67.2877275 -101.955021875 19.40396375 63.05242125 -0.57233600625
-1.0011103125 -67.076845 -101.982940625 14.65669125 63.01872625 -0.55460051875
-0.9449421875 -66.8659625 -102.010859375 9.90941875 62.98503125 -0.53686503125
-0.8887740625 -66.65508 -102.038778125 5.16214625 62.95133625 -0.51912954375
-0.832605937500001 -66.4441975 -102.066696875 0.41487375 62.91764125 -0.50139405625
-0.776437812500001 -66.233315 -102.094615625 -4.33239875 62.88394625 -0.48365856875
-0.7202696875 -66.0224325 -102.122534375 -9.07967125 62.85025125 -0.46592308125
-0.6641015625 -65.81155 -102.150453125 -13.82694375 62.81655625 -0.44818759375
-0.607933437499999 -65.6006675 -102.178371875 -18.57421625 62.78286125 -0.43045210625
-0.551765312499999 -65.389785 -102.206290625 -23.32148875 62.74916625 -0.41271661875
-1.0229703125 -71.1112125 -98.331015625 17.40895625 63.67044375 -0.58278321875
-0.915535937499998 -70.794825 -98.298671875 12.95086875 63.62951875 -0.53838715625
-0.8081015625 -70.4784375 -98.266328125 8.49278125 63.58859375 -0.49399109375
-0.700667187500001 -70.16205 -98.233984375 4.03469375 63.54766875 -0.44959503125
-0.5932328125 -69.8456625 -98.201640625 -0.42339375 63.50674375 -0.40519896875
-0.4857984375 -69.529275 -98.169296875 -4.88148125 63.46581875 -0.36080290625
-0.378364062500001 -69.2128875 -98.136953125 -9.33956875 63.42489375 -0.31640684375
-0.270929687500001 -68.8965 -98.104609375 -13.79765625 63.38396875 -0.27201078125
-0.163495312499999 -68.5801125 -98.072265625 -18.25574375 63.34304375 -0.22761471875
-0.0560609374999997 -68.263725 -98.039921875 -22.71383125 63.30211875 -0.18321865625
-0.988662187499999 -74.9346975 -94.707009375 15.41394875 64.28846625 -0.59323043125
-0.829961562500001 -74.512805 -94.614403125 11.24504625 64.24031125 -0.52217379375
-0.671260937499999 -74.0909125 -94.521796875 7.07614375 64.19215625 -0.45111715625
-0.512560312500001 -73.66902 -94.429190625 2.90724125 64.14400125 -0.38006051875
-0.353859687499999 -73.2471275 -94.336584375 -1.26166125 64.09584625 -0.30900388125
-0.195159062499999 -72.825235 -94.243978125 -5.43056375 64.04769125 -0.23794724375
-0.0364584375000016 -72.4033425 -94.151371875 -9.59946625 63.99953625 -0.16689060625
0.1222421875 -71.98145 -94.058765625 -13.76836875 63.95138125 -0.0958339687500002
0.280942812499999 -71.5595575 -93.966159375 -17.93727125 63.90322625 -0.0247773312500003
0.4396434375 -71.137665 -93.873553125 -22.10617375 63.85507125 0.0462793062499999
-0.9543540625 -78.7581825 -91.083003125 13.41894125 64.90648875 -0.60367764375
-0.7443871875 -78.230785 -90.930134375 9.53922375 64.85110375 -0.50596043125
-0.534420312500001 -77.7033875 -90.777265625 5.65950625 64.79571875 -0.40824321875
-0.324453437499999 -77.17599 -90.624396875 1.77978875 64.74033375 -0.31052600625
-0.1144865625 -76.6485925 -90.471528125 -2.09992875 64.68494875 -0.21280879375
0.0954803125000002 -76.121195 -90.318659375 -5.97964625 64.62956375 -0.11509158125
0.305447187500001 -75.5937975 -90.165790625 -9.85936375 64.57417875 -0.0173743687500001
0.515414062499998 -75.0664 -90.012921875 -13.73908125 64.51879375 0.0803428437499996
0.725380937499999 -74.5390025 -89.860053125 -17.61879875 64.46340875 0.17806005625
0.935347812499999 -74.011605 -89.707184375 -21.49851625 64.40802375 0.27577726875
-23.5153225 -78.6124083125 -148.99602125 32.74314869375 -206.5807955 2.1975329425
-21.7421875 -74.0332349375 -147.68858875 22.52838133125 -206.006249 1.6435943275
-19.9690525 -69.4540615625 -146.38115625 12.31361396875 -205.4317025 1.0896557125
-18.1959175 -64.8748881875 -145.07372375 2.09884660625 -204.857156 0.5357170975
-16.4227825 -60.2957148125 -143.76629125 -8.11592075625 -204.2826095 -0.0182215174999998
-14.6496475 -55.7165414375 -142.45885875 -18.33068811875 -203.708063 -0.5721601325
-12.8765125 -51.1373680625 -141.15142625 -28.54545548125 -203.1335165 -1.1260987475
-11.1033775 -46.5581946875 -139.84399375 -38.76022284375 -202.55897 -1.6800373625
-9.3302425 -41.9790213125 -138.53656125 -48.97499020625 -201.9844235 -2.2339759775
-7.5571075 -37.3998479375 -137.22912875 -59.18975756875 -201.409877 -2.7879145925
-20.4146325 -67.9778174375 -141.79616375 34.76390383125 -179.2708665 1.8566781275
-18.9097575 -64.0400823125 -140.73106625 24.62212724375 -178.753687 1.3305808825
-17.4048825 -60.1023471875 -139.66596875 14.48035065625 -178.2365075 0.8044836375
-15.9000075 -56.1646120625 -138.60087125 4.33857406875 -177.719328 0.2783863925
-14.3951325 -52.2268769375 -137.53577375 -5.80320251875 -177.2021485 -0.2477108525
-12.8902575 -48.2891418125 -136.47067625 -15.94497910625 -176.684969 -0.7738080975
-11.3853825 -44.3514066875 -135.40557875 -26.08675569375 -176.1677895 -1.2999053425
-9.8805075 -40.4136715625 -134.34048125 -36.22853228125 -175.65061 -1.8260025875
-8.3756325 -36.4759364375 -133.27538375 -46.37030886875 -175.1334305 -2.3520998325
-6.8707575 -32.5382013125 -132.21028625 -56.51208545625 -174.616251 -2.8781970775
-17.3139425 -57.3432265625 -134.59630625 36.78465896875 -151.9609375 1.5158233125
-16.0773275 -54.0469296875 -133.77354375 26.71587315625 -151.501125 1.0175674375
-14.8407125 -50.7506328125 -132.95078125 16.64708734375 -151.0413125 0.5193115625
-13.6040975 -47.4543359375 -132.12801875 6.57830153125 -150.5815 0.0210556875
-12.3674825 -44.1580390625 -131.30525625 -3.49048428125 -150.1216875 -0.4772001875
-11.1308675 -40.8617421875 -130.48249375 -13.55927009375 -149.661875 -0.9754560625
-9.8942525 -37.5654453125 -129.65973125 -23.62805590625 -149.2020625 -1.4737119375
-8.6576375 -34.2691484375 -128.83696875 -33.69684171875 -148.74225 -1.9719678125
-7.4210225 -30.9728515625 -128.01420625 -43.76562753125 -148.2824375 -2.4702236875
-6.1844075 -27.6765546875 -127.19144375 -53.83441334375 -147.822625 -2.9684795625
-14.2132525 -46.7086356875 -127.39644875 38.80541410625 -124.6510085 1.1749684975
-13.2448975 -44.0537770625 -126.81602125 28.80961906875 -124.248563 0.7045539925
-12.2765425 -41.3989184375 -126.23559375 18.81382403125 -123.8461175 0.2341394875
-11.3081875 -38.7440598125 -125.65516625 8.81802899375 -123.443672 -0.2362750175
-10.3398325 -36.0892011875 -125.07473875 -1.17776604375 -123.0412265 -0.7066895225
-9.3714775 -33.4343425625 -124.49431125 -11.17356108125 -122.638781 -1.1771040275
-8.4031225 -30.7794839375 -123.91388375 -21.16935611875 -122.2363355 -1.6475185325
-7.4347675 -28.1246253125 -123.33345625 -31.16515115625 -121.83389 -2.1179330375
-6.4664125 -25.4697666875 -122.75302875 -41.16094619375 -121.4314445 -2.5883475425
-5.4980575 -22.8149080625 -122.17260125 -51.15674123125 -121.028999 -3.0587620475
-11.1125625 -36.0740448125 -120.19659125 40.82616924375 -97.3410795 0.8341136825
-10.4124675 -34.0606244375 -119.85849875 30.90336498125 -96.996001 0.3915405475
-9.7123725 -32.0472040625 -119.52040625 20.98056071875 -96.6509225 -0.0510325874999999
-9.0122775 -30.0337836875 -119.18231375 11.05775645625 -96.305844 -0.4936057225
-8.3121825 -28.0203633125 -118.84422125 1.13495219375 -95.9607655 -0.9361788575
-7.6120875 -26.0069429375 -118.50612875 -8.78785206875 -95.615687 -1.3787519925
-6.9119925 -23.9935225625 -118.16803625 -18.71065633125 -95.2706085 -1.8213251275
-6.2118975 -21.9801021875 -117.82994375 -28.63346059375 -94.92553 -2.2638982625
-5.5118025 -19.9666818125 -117.49185125 -38.55626485625 -94.5804515 -2.7064713975
-4.8117075 -17.9532614375 -117.15375875 -48.47906911875 -94.235373 -3.1490445325
-8.0118725 -25.4394539375 -112.99673375 42.84692438125 -70.0311505 0.4932588675
-7.5800375 -24.0674718125 -112.90097625 32.99711089375 -69.743439 0.0785271024999998
-7.1482025 -22.6954896875 -112.80521875 23.14729740625 -69.4557275 -0.3362046625
-6.7163675 -21.3235075625 -112.70946125 13.29748391875 -69.168016 -0.7509364275
-6.2845325 -19.9515254375 -112.61370375 3.44767043125 -68.8803045 -1.1656681925
-5.8526975 -18.5795433125 -112.51794625 -6.40214305625 -68.592593 -1.5803999575
-5.4208625 -17.2075611875 -112.42218875 -16.25195654375 -68.3048815 -1.9951317225
-4.9890275 -15.8355790625 -112.32643125 -26.10177003125 -68.01717 -2.4098634875
-4.5571925 -14.4635969375 -112.23067375 -35.95158351875 -67.7294585 -2.8245952525
-4.1253575 -13.0916148125 -112.13491625 -45.80139700625 -67.441747 -3.2393270175
-4.9111825 -14.8048630625 -105.79687625 44.86767951875 -42.7212215 0.1524040525
-4.7476075 -14.0743191875 -105.94345375 35.09085680625 -42.490877 -0.2344863425
-4.5840325 -13.3437753125 -106.09003125 25.31403409375 -42.2605325 -0.6213767375
-4.4204575 -12.6132314375 -106.23660875 15.53721138125 -42.030188 -1.0082671325
-4.2568825 -11.8826875625 -106.38318625 5.76038866875 -41.7998435 -1.3951575275
-4.0933075 -11.1521436875 -106.52976375 -4.01643404375 -41.569499 -1.7820479225
-3.9297325 -10.4215998125 -106.67634125 -13.79325675625 -41.3391545 -2.1689383175
-3.7661575 -9.69105593749999 -106.82291875 -23.57007946875 -41.10881 -2.5558287125
-3.6025825 -8.9605120625 -106.96949625 -33.34690218125 -40.8784655 -2.9427191075
-3.4390075 -8.22996818749999 -107.11607375 -43.12372489375 -40.648121 -3.3296095025
-1.8104925 -4.1702721875 -98.59701875 46.88843465625 -15.4112925 -0.1884507625
-1.9151775 -4.0811665625 -98.98593125 37.18460271875 -15.238315 -0.5474997875
-2.0198625 -3.99206093749999 -99.37484375 27.48077078125 -15.0653375 -0.9065488125
-2.1245475 -3.9029553125 -99.76375625 17.77693884375 -14.89236 -1.2655978375
-2.2292325 -3.8138496875 -100.15266875 8.07310690625 -14.7193825 -1.6246468625
-2.3339175 -3.7247440625 -100.54158125 -1.63072503125 -14.546405 -1.9836958875
-2.4386025 -3.6356384375 -100.93049375 -11.33455696875 -14.3734275 -2.3427449125
-2.5432875 -3.54653281249999 -101.31940625 -21.03838890625 -14.20045 -2.7017939375
-2.6479725 -3.45742718749999 -101.70831875 -30.74222084375 -14.0274725 -3.0608429625
-2.7526575 -3.36832156249999 -102.09723125 -40.44605278125 -13.854495 -3.4198919875
1.2901975 6.46431868750001 -91.39716125 48.90918979375 11.8986365 -0.5293055775
0.917252499999998 5.9119860625 -92.02840875 39.27834863125 12.014247 -0.8605132325
0.5443075 5.3596534375 -92.65965625 29.64750746875 12.1298575 -1.1917208875
0.171362499999998 4.8073208125 -93.29090375 20.01666630625 12.245468 -1.5229285425
-0.201582499999999 4.25498818750001 -93.92215125 10.38582514375 12.3610785 -1.8541361975
-0.574527499999999 3.70265556250001 -94.55339875 0.754983981249999 12.476689 -2.1853438525
-0.947472500000002 3.1503229375 -95.18464625 -8.87585718125 12.5922995 -2.5165515075
-1.3204175 2.5979903125 -95.81589375 -18.50669834375 12.70791 -2.8477591625
-1.6933625 2.0456576875 -96.44714125 -28.13753950625 12.8235205 -3.1789668175
-2.0663075 1.49332506250001 -97.07838875 -37.76838066875 12.939131 -3.5101744725
4.3908875 17.0989095625 -84.19730375 50.92994493125 39.2085655 -0.8701603925
3.7496825 15.9051386875 -85.07088625 41.37209454375 39.266809 -1.1735266775
3.1084775 14.7113678125 -85.94446875 31.81424415625 39.3250525 -1.4768929625
2.4672725 13.5175969375 -86.81805125 22.25639376875 39.383296 -1.7802592475
1.8260675 12.3238260625 -87.69163375 12.69854338125 39.4415395 -2.0836255325
1.1848625 11.1300551875 -88.56521625 3.14069299375 39.499783 -2.3869918175
0.5436575 9.9362843125 -89.43879875 -6.41715739375 39.5580265 -2.6903581025
-0.0975475000000015 8.7425134375 -90.31238125 -15.97500778125 39.61627 -2.9937243875
-0.738752500000001 7.5487425625 -91.18596375 -25.53285816875 39.6745135 -3.2970906725
-1.3799575 6.35497168750001 -92.05954625 -35.09070855625 39.732757 -3.6004569575
5.9632381875 20.2209875 -79.740630625 50.95704625 53.11482125 -1.05527899875
5.2144695625 18.760135 -80.702916875 41.58025875 53.14335125 -1.32870849625
4.4657009375 17.2992825 -81.665203125 32.20347125 53.17188125 -1.60213799375
3.7169323125 15.83843 -82.627489375 22.82668375 53.20041125 -1.87556749125
2.9681636875 14.3775775 -83.589775625 13.44989625 53.22894125 -2.14899698875
2.2193950625 12.916725 -84.552061875 4.07310875 53.25747125 -2.42242648625
1.4706264375 11.4558725 -85.514348125 -5.30367875 53.28600125 -2.69585598375
0.721857812499999 9.99502 -86.476634375 -14.68046625 53.31453125 -2.96928548125
-0.0269108125 8.5341675 -87.438920625 -24.05725375 53.34306125 -3.24271497875
-0.775679437499998 7.07331500000001 -88.401206875 -33.43404125 53.37159125 -3.51614447625
6.0072495625 15.8305525 -78.027141875 48.99049375 53.61740375 -1.08466139625
5.3116136875 14.476975 -78.924500625 39.90284125 53.64387375 -1.32605868875
4.6159778125 13.1233975 -79.821859375 30.81518875 53.67034375 -1.56745598125
3.9203419375 11.76982 -80.719218125 21.72753625 53.69681375 -1.80885327375
3.2247060625 10.4162425 -81.616576875 12.63988375 53.72328375 -2.05025056625
2.5290701875 9.06266500000001 -82.513935625 3.55223125 53.74975375 -2.29164785875
1.8334343125 7.7090875 -83.411294375 -5.53542125 53.77622375 -2.53304515125
1.1377984375 6.35551000000001 -84.308653125 -14.62307375 53.80269375 -2.77444244375
0.442162562499999 5.0019325 -85.206011875 -23.71072625 53.82916375 -3.01583973625
-0.253473312499999 3.64835500000001 -86.103370625 -32.79837875 53.85563375 -3.25723702875
6.0512609375 11.4401175 -76.313653125 47.02394125 54.11998625 -1.11404379375
5.4087578125 10.193815 -77.146084375 38.22542375 54.14439625 -1.32340888125
4.7662546875 8.94751250000001 -77.978515625 29.42690625 54.16880625 -1.53277396875
4.1237515625 7.70121 -78.810946875 20.62838875 54.19321625 -1.74213905625
3.4812484375 6.4549075 -79.643378125 11.82987125 54.21762625 -1.95150414375
2.8387453125 5.208605 -80.475809375 3.03135375 54.24203625 -2.16086923125
2.1962421875 3.9623025 -81.308240625 -5.76716375 54.26644625 -2.37023431875
1.5537390625 2.71600000000001 -82.140671875 -14.56568125 54.29085625 -2.57959940625
0.911235937500001 1.46969750000001 -82.973103125 -23.36419875 54.31526625 -2.78896449375
0.268732812500001 0.223395000000006 -83.805534375 -32.16271625 54.33967625 -2.99832958125
6.0952723125 7.04968250000001 -74.600164375 45.05738875 54.62256875 -1.14342619125
5.5059019375 5.910655 -75.367668125 36.54800625 54.64491875 -1.32075907375
4.9165315625 4.77162750000001 -76.135171875 28.03862375 54.66726875 -1.49809195625
4.3271611875 3.6326 -76.902675625 19.52924125 54.68961875 -1.67542483875
3.7377908125 2.4935725 -77.670179375 11.01985875 54.71196875 -1.85275772125
3.1484204375 1.354545 -78.437683125 2.51047625 54.73431875 -2.03009060375
2.5590500625 0.215517500000004 -79.205186875 -5.99890625 54.75666875 -2.20742348625
1.9696796875 -0.923509999999992 -79.972690625 -14.50828875 54.77901875 -2.38475636875
1.3803093125 -2.0625375 -80.740194375 -23.01767125 54.80136875 -2.56208925125
0.7909389375 -3.20156499999999 -81.507698125 -31.52705375 54.82371875 -2.73942213375
6.1392836875 2.65924750000001 -72.886675625 43.09083625 55.12515125 -1.17280858875
5.6030460625 1.627495 -73.589251875 34.87058875 55.14544125 -1.31810926625
5.0668084375 0.595742500000006 -74.291828125 26.65034125 55.16573125 -1.46340994375
4.5305708125 -0.436009999999994 -74.994404375 18.43009375 55.18602125 -1.60871062125
3.9943331875 -1.4677625 -75.696980625 10.20984625 55.20631125 -1.75401129875
3.4580955625 -2.499515 -76.399556875 1.98959875 55.22660125 -1.89931197625
2.9218579375 -3.53126749999999 -77.102133125 -6.23064875 55.24689125 -2.04461265375
2.3856203125 -4.56301999999999 -77.804709375 -14.45089625 55.26718125 -2.18991333125
1.8493826875 -5.5947725 -78.507285625 -22.67114375 55.28747125 -2.33521400875
1.3131450625 -6.626525 -79.209861875 -30.89139125 55.30776125 -2.48051468625
6.1832950625 -1.7311875 -71.173186875 41.12428375 55.62773375 -1.20219098625
5.7001901875 -2.655665 -71.810835625 33.19317125 55.64596375 -1.31545945875
5.2170853125 -3.5801425 -72.448484375 25.26205875 55.66419375 -1.42872793125
4.7339804375 -4.50461999999999 -73.086133125 17.33094625 55.68242375 -1.54199640375
4.2508755625 -5.4290975 -73.723781875 9.39983375 55.70065375 -1.65526487625
3.7677706875 -6.353575 -74.361430625 1.46872125 55.71888375 -1.76853334875
3.2846658125 -7.27805249999999 -74.999079375 -6.46239125 55.73711375 -1.88180182125
2.8015609375 -8.20253 -75.636728125 -14.39350375 55.75534375 -1.99507029375
2.3184560625 -9.1270075 -76.274376875 -22.32461625 55.77357375 -2.10833876625
1.8353511875 -10.051485 -76.912025625 -30.25572875 55.79180375 -2.22160723875
6.2273064375 -6.1216225 -69.459698125 39.15773125 56.13031625 -1.23157338375
5.7973343125 -6.938825 -70.032419375 31.51575375 56.14648625 -1.31280965125
5.3673621875 -7.7560275 -70.605140625 23.87377625 56.16265625 -1.39404591875
4.9373900625 -8.57323 -71.177861875 16.23179875 56.17882625 -1.47528218625
4.5074179375 -9.39043249999999 -71.750583125 8.58982125 56.19499625 -1.55651845375
4.0774458125 -10.207635 -72.323304375 0.947843749999999 56.21116625 -1.63775472125
3.6474736875 -11.0248375 -72.896025625 -6.69413375 56.22733625 -1.71899098875
3.2175015625 -11.84204 -73.468746875 -14.33611125 56.24350625 -1.80022725625
2.7875294375 -12.6592425 -74.041468125 -21.97808875 56.25967625 -1.88146352375
2.3575573125 -13.476445 -74.614189375 -29.62006625 56.27584625 -1.96269979125
6.2713178125 -10.5120575 -67.746209375 37.19117875 56.63289875 -1.26095578125
5.8944784375 -11.221985 -68.254003125 29.83833625 56.64700875 -1.31015984375
5.5176390625 -11.9319125 -68.761796875 22.48549375 56.66111875 -1.35936390625
5.1407996875 -12.64184 -69.269590625 15.13265125 56.67522875 -1.40856796875
4.7639603125 -13.3517675 -69.777384375 7.77980875 56.68933875 -1.45777203125
4.3871209375 -14.061695 -70.285178125 0.426966249999998 56.70344875 -1.50697609375
4.0102815625 -14.7716225 -70.792971875 -6.92587625 56.71755875 -1.55618015625
3.6334421875 -15.48155 -71.300765625 -14.27871875 56.73166875 -1.60538421875
3.2566028125 -16.1914775 -71.808559375 -21.63156125 56.74577875 -1.65458828125
2.8797634375 -16.901405 -72.316353125 -28.98440375 56.75988875 -1.70379234375
6.3153291875 -14.9024925 -66.032720625 35.22462625 57.13548125 -1.29033817875
5.9916225625 -15.505145 -66.475586875 28.16091875 57.14753125 -1.30751003625
5.6679159375 -16.1077975 -66.918453125 21.09721125 57.15958125 -1.32468189375
5.3442093125 -16.71045 -67.361319375 14.03350375 57.17163125 -1.34185375125
5.0205026875 -17.3131025 -67.804185625 6.96979625 57.18368125 -1.35902560875
4.6967960625 -17.915755 -68.247051875 -0.0939112500000015 57.19573125 -1.37619746625
4.3730894375 -18.5184075 -68.689918125 -7.15761875 57.20778125 -1.39336932375
4.0493828125 -19.12106 -69.132784375 -14.22132625 57.21983125 -1.41054118125
3.7256761875 -19.7237125 -69.575650625 -21.28503375 57.23188125 -1.42771303875
3.4019695625 -20.326365 -70.018516875 -28.34874125 57.24393125 -1.44488489625
6.3593405625 -19.2929275 -64.319231875 33.25807375 57.63806375 -1.31972057625
6.0887666875 -19.788305 -64.697170625 26.48350125 57.64805375 -1.30486022875
5.8181928125 -20.2836825 -65.075109375 19.70892875 57.65804375 -1.28999988125
5.5476189375 -20.77906 -65.453048125 12.93435625 57.66803375 -1.27513953375
5.2770450625 -21.2744375 -65.830986875 6.15978375 57.67802375 -1.26027918625
5.0064711875 -21.769815 -66.208925625 -0.614788750000002 57.68801375 -1.24541883875
4.7358973125 -22.2651925 -66.586864375 -7.38936125 57.69800375 -1.23055849125
4.4653234375 -22.76057 -66.964803125 -14.16393375 57.70799375 -1.21569814375
4.1947495625 -23.2559475 -67.342741875 -20.93850625 57.71798375 -1.20083779625
3.9241756875 -23.751325 -67.720680625 -27.71307875 57.72797375 -1.18597744875
6.4033519375 -23.6833625 -62.605743125 31.29152125 58.14064625 -1.34910297375
6.1859108125 -24.071465 -62.918754375 24.80608375 58.14857625 -1.30221042125
5.9684696875 -24.4595675 -63.231765625 18.32064625 58.15650625 -1.25531786875
5.7510285625 -24.84767 -63.544776875 11.83520875 58.16443625 -1.20842531625
5.5335874375 -25.2357725 -63.857788125 5.34977125 58.17236625 -1.16153276375
5.3161463125 -25.623875 -64.170799375 -1.13566625 58.18029625 -1.11464021125
5.0987051875 -26.0119775 -64.483810625 -7.62110375 58.18822625 -1.06774765875
4.8812640625 -26.40008 -64.796821875 -14.10654125 58.19615625 -1.02085510625
4.6638229375 -26.7881825 -65.109833125 -20.59197875 58.20408625 -0.97396255375
4.4463818125 -27.176285 -65.422844375 -27.07741625 58.21201625 -0.92707000125
6.4473633125 -28.0737975 -60.892254375 29.32496875 58.64322875 -1.37848537125
6.2830549375 -28.354625 -61.140338125 23.12866625 58.64909875 -1.29956061375
6.1187465625 -28.6354525 -61.388421875 16.93236375 58.65496875 -1.22063585625
5.9544381875 -28.91628 -61.636505625 10.73606125 58.66083875 -1.14171109875
5.7901298125 -29.1971075 -61.884589375 4.53975875 58.66670875 -1.06278634125
5.6258214375 -29.477935 -62.132673125 -1.65654375 58.67257875 -0.98386158375
5.4615130625 -29.7587625 -62.380756875 -7.85284625 58.67844875 -0.90493682625
5.2972046875 -30.03959 -62.628840625 -14.04914875 58.68431875 -0.82601206875
5.1328963125 -30.3204175 -62.876924375 -20.24545125 58.69018875 -0.74708731125
4.9685879375 -30.601245 -63.125008125 -26.44175375 58.69605875 -0.66816255375
6.4913746875 -32.4642325 -59.178765625 27.35841625 59.14581125 -1.40786776875
6.3801990625 -32.637785 -59.361921875 21.45124875 59.14962125 -1.29691080625
6.2690234375 -32.8113375 -59.545078125 15.54408125 59.15343125 -1.18595384375
6.1578478125 -32.98489 -59.728234375 9.63691375 59.15724125 -1.07499688125
6.0466721875 -33.1584425 -59.911390625 3.72974625 59.16105125 -0.96403991875
5.9354965625 -33.331995 -60.094546875 -2.17742125 59.16486125 -0.85308295625
5.8243209375 -33.5055475 -60.277703125 -8.08458875 59.16867125 -0.74212599375
5.7131453125 -33.6791 -60.460859375 -13.99175625 59.17248125 -0.63116903125
5.6019696875 -33.8526525 -60.644015625 -19.89892375 59.17629125 -0.52021206875
5.4907940625 -34.026205 -60.827171875 -25.80609125 59.18010125 -0.40925510625
6.5353860625 -36.8546675 -57.465276875 25.39186375 59.64839375 -1.43725016625
6.4773431875 -36.920945 -57.583505625 19.77383125 59.65014375 -1.29426099875
6.4193003125 -36.9872225 -57.701734375 14.15579875 59.65189375 -1.15127183125
6.3612574375 -37.0535 -57.819963125 8.53776625 59.65364375 -1.00828266375
6.3032145625 -37.1197775 -57.938191875 2.91973375 59.65539375 -0.86529349625
6.2451716875 -37.186055 -58.056420625 -2.69829875 59.65714375 -0.72230432875
6.1871288125 -37.2523325 -58.174649375 -8.31633125 59.65889375 -0.57931516125
6.1290859375 -37.31861 -58.292878125 -13.93436375 59.66064375 -0.43632599375
6.0710430625 -37.3848875 -58.411106875 -19.55239625 59.66239375 -0.29333682625
6.0130001875 -37.451165 -58.529335625 -25.17042875 59.66414375 -0.15034765875
6.5793974375 -41.2451025 -55.751788125 23.42531125 60.15097625 -1.46663256375
6.5744873125 -41.204105 -55.805089375 18.09641375 60.15066625 -1.29161119125
6.5695771875 -41.1631075 -55.858390625 12.76751625 60.15035625 -1.11658981875
6.5646670625 -41.12211 -55.911691875 7.43861875 60.15004625 -0.94156844625
6.5597569375 -41.0811125 -55.964993125 2.10972125 60.14973625 -0.76654707375
6.5548468125 -41.040115 -56.018294375 -3.21917625 60.14942625 -0.59152570125
6.5499366875 -40.9991175 -56.071595625 -8.54807375 60.14911625 -0.41650432875
6.5450265625 -40.95812 -56.124896875 -13.87697125 60.14880625 -0.24148295625
6.5401164375 -40.9171225 -56.178198125 -19.20586875 60.14849625 -0.0664615837500002
6.5352063125 -40.876125 -56.231499375 -24.53476625 60.14818625 0.10855978875
6.6234088125 -45.6355375 -54.038299375 21.45875875 60.65355875 -1.49601496125
6.6716314375 -45.487265 -54.026673125 16.41899625 60.65118875 -1.28896138375
6.7198540625 -45.3389925 -54.015046875 11.37923375 60.64881875 -1.08190780625
6.7680766875 -45.19072 -54.003420625 6.33947125 60.64644875 -0.87485422875
6.8162993125 -45.0424475 -53.991794375 1.29970875 60.64407875 -0.66780065125
6.8645219375 -44.894175 -53.980168125 -3.74005375 60.64170875 -0.46074707375
6.9127445625 -44.7459025 -53.968541875 -8.77981625 60.63933875 -0.25369349625
6.9609671875 -44.59763 -53.956915625 -13.81957875 60.63696875 -0.0466399187499999
7.0091898125 -44.4493575 -53.945289375 -18.85934125 60.63459875 0.16041365875
7.0574124375 -44.301085 -53.933663125 -23.89910375 60.63222875 0.36746723625
6.6674201875 -50.0259725 -52.324810625 19.49220625 61.15614125 -1.52539735875
6.7687755625 -49.770425 -52.248256875 14.74157875 61.15171125 -1.28631157625
6.8701309375 -49.5148775 -52.171703125 9.99095125 61.14728125 -1.04722579375
6.9714863125 -49.25933 -52.095149375 5.24032375 61.14285125 -0.80814001125
7.0728416875 -49.0037825 -52.018595625 0.489696249999999 61.13842125 -0.56905422875
7.1741970625 -48.748235 -51.942041875 -4.26093125 61.13399125 -0.32996844625
7.2755524375 -48.4926875 -51.865488125 -9.01155875 61.12956125 -0.0908826637500001
7.3769078125 -48.23714 -51.788934375 -13.76218625 61.12513125 0.14820311875
7.4782631875 -47.9815925 -51.712380625 -18.51281375 61.12070125 0.38728890125
7.5796185625 -47.726045 -51.635826875 -23.26344125 61.11627125 0.62637468375
6.7114315625 -54.4164075 -50.611321875 17.52565375 61.65872375 -1.55477975625
6.8659196875 -54.053585 -50.469840625 13.06416125 61.65223375 -1.28366176875
7.0204078125 -53.6907625 -50.328359375 8.60266875 61.64574375 -1.01254378125
7.1748959375 -53.32794 -50.186878125 4.14117625 61.63925375 -0.74142579375
7.3293840625 -52.9651175 -50.045396875 -0.32031625 61.63276375 -0.47030780625
7.4838721875 -52.602295 -49.903915625 -4.78180875 61.62627375 -0.19918981875
7.6383603125 -52.2394725 -49.762434375 -9.24330125 61.61978375 0.0719281687499998
7.7928484375 -51.87665 -49.620953125 -13.70479375 61.61329375 0.34304615625
7.9473365625 -51.5138275 -49.479471875 -18.16628625 61.60680375 0.61416414375
8.1018246875 -51.151005 -49.337990625 -22.62777875 61.60031375 0.88528213125
6.7554429375 -58.8068425 -48.897833125 15.55910125 62.16130625 -1.58416215375
6.9630638125 -58.336745 -48.691424375 11.38674375 62.15275625 -1.28101196125
7.1706846875 -57.8666475 -48.485015625 7.21438625 62.14420625 -0.977861768750001
7.3783055625 -57.39655 -48.278606875 3.04202875 62.13565625 -0.67471157625
7.5859264375 -56.9264525 -48.072198125 -1.13032875 62.12710625 -0.37156138375
7.7935473125 -56.456355 -47.865789375 -5.30268625 62.11855625 -0.0684111912500001
8.0011681875 -55.9862575 -47.659380625 -9.47504375 62.11000625 0.23473900125
8.2087890625 -55.51616 -47.452971875 -13.64740125 62.10145625 0.53788919375
8.4164099375 -55.0460625 -47.246563125 -17.81975875 62.09290625 0.84103938625
8.6240308125 -54.575965 -47.040154375 -21.99211625 62.08435625 1.14418957875
6.7994543125 -63.1972775 -47.184344375 13.59254875 62.66388875 -1.61354455125
7.0602079375 -62.619905 -46.913008125 9.70932625 62.65327875 -1.27836215375
7.3209615625 -62.0425325 -46.641671875 5.82610375 62.64266875 -0.94317975625
7.5817151875 -61.46516 -46.370335625 1.94288125 62.63205875 -0.60799735875
7.8424688125 -60.8877875 -46.098999375 -1.94034125 62.62144875 -0.27281496125
8.1032224375 -60.310415 -45.827663125 -5.82356375 62.61083875 0.0623674362499998
8.3639760625 -59.7330425 -45.556326875 -9.70678625 62.60022875 0.39754983375
8.6247296875 -59.15567 -45.284990625 -13.59000875 62.58961875 0.73273223125
8.8854833125 -58.5782975 -45.013654375 -17.47323125 62.57900875 1.06791462875
9.1462369375 -58.000925 -44.742318125 -21.35645375 62.56839875 1.40309702625
-8.8837725 -43.5664406875 -46.70947375 34.15193235625 -205.433636 2.2436247475
-7.1150575 -38.9892920625 -45.41909625 23.93510381875 -204.9581455 1.7711727425
-5.3463425 -34.4121434375 -44.12871875 13.71827528125 -204.482655 1.2987207375
-3.5776275 -29.8349948125 -42.83834125 3.50144674375 -204.0071645 0.8262687325
-1.8089125 -25.2578461875 -41.54796375 -6.71538179375 -203.531674 0.3538167275
-0.0401975000000013 -20.6806975625 -40.25758625 -16.93221033125 -203.0561835 -0.1186352775
1.7285175 -16.1035489375 -38.96720875 -27.14903886875 -202.580693 -0.5910872825
3.4972325 -11.5264003125 -37.67683125 -37.36586740625 -202.1052025 -1.0635392875
5.2659475 -6.9492516875 -36.38645375 -47.58269594375 -201.629712 -1.5359912925
7.0346625 -2.3721030625 -35.09607625 -57.79952448125 -201.1542215 -2.0084432975
-6.5269725 -33.8191695625 -41.73412125 35.98426131875 -178.243568 1.8304833425
-5.0245375 -29.8816186875 -40.68138875 25.84037420625 -177.8209165 1.3912655275
-3.5221025 -25.9440678125 -39.62865625 15.69648709375 -177.398265 0.9520477125
-2.0196675 -22.0065169375 -38.57592375 5.55259998125 -176.9756135 0.5128298975
-0.517232500000001 -18.0689660625 -37.52319125 -4.59128713125 -176.552962 0.0736120824999999
0.985202499999999 -14.1314151875 -36.47045875 -14.73517424375 -176.1303105 -0.3656057325
2.4876375 -10.1938643125 -35.41772625 -24.87906135625 -175.707659 -0.8048235475
3.9900725 -6.2563134375 -34.36499375 -35.02294846875 -175.2850075 -1.2440413625
5.4925075 -2.3187625625 -33.31226125 -45.16683558125 -174.862356 -1.6832591775
6.9949425 1.6187883125 -32.25952875 -55.31072269375 -174.4397045 -2.1224769925
-4.1701725 -24.0718984375 -36.75876875 37.81659028125 -151.0535 1.4173419375
-2.9340175 -20.7739453125 -35.94368125 27.74564459375 -150.6836875 1.0113583125
-1.6978625 -17.4759921875 -35.12859375 17.67469890625 -150.313875 0.6053746875
-0.461707500000003 -14.1780390625 -34.31350625 7.60375321875 -149.9440625 0.1993910625
0.7744475 -10.8800859375 -33.49841875 -2.46719246875 -149.57425 -0.2065925625
2.0106025 -7.5821328125 -32.68333125 -12.53813815625 -149.2044375 -0.6125761875
3.2467575 -4.2841796875 -31.86824375 -22.60908384375 -148.834625 -1.0185598125
4.4829125 -0.986226562499999 -31.05315625 -32.68002953125 -148.4648125 -1.4245434375
5.7190675 2.3117265625 -30.23806875 -42.75097521875 -148.095 -1.8305270625
6.9552225 5.60967968750001 -29.42298125 -52.82192090625 -147.7251875 -2.2365106875
-1.8133725 -14.3246273125 -31.78341625 39.64891924375 -123.863432 1.0042005325
-0.8434975 -11.6662719375 -31.20597375 29.65091498125 -123.5464585 0.6314510975
0.126377499999999 -9.0079165625 -30.62853125 19.65291071875 -123.229485 0.2587016625
1.0962525 -6.3495611875 -30.05108875 9.65490645625 -122.9125115 -0.1140477725
2.0661275 -3.69120581250001 -29.47364625 -0.34309780625 -122.595538 -0.4867972075
3.0360025 -1.0328504375 -28.89620375 -10.34110206875 -122.2785645 -0.8595466425
4.0058775 1.6255049375 -28.31876125 -20.33910633125 -121.961591 -1.2322960775
4.9757525 4.2838603125 -27.74131875 -30.33711059375 -121.6446175 -1.6050455125
5.9456275 6.94221568750001 -27.16387625 -40.33511485625 -121.327644 -1.9777949475
6.9155025 9.60057106250001 -26.58643375 -50.33311911875 -121.0106705 -2.3505443825
0.543427499999998 -4.5773561875 -26.80806375 41.48124820625 -96.673364 0.5910591275
1.2470225 -2.5585985625 -26.46826625 31.55618536875 -96.4092295 0.2515438825
1.9506175 -0.539840937499999 -26.12846875 21.63112253125 -96.145095 -0.0879713625000001
2.6542125 1.4789166875 -25.78867125 11.70605969375 -95.8809605 -0.4274866075
3.3578075 3.49767431250001 -25.44887375 1.78099685625 -95.616826 -0.7670018525
4.0614025 5.51643193750001 -25.10907625 -8.14406598125 -95.3526915 -1.1065170975
4.7649975 7.5351895625 -24.76927875 -18.06912881875 -95.088557 -1.4460323425
5.4685925 9.5539471875 -24.42948125 -27.99419165625 -94.8244225 -1.7855475875
6.1721875 11.5727048125 -24.08968375 -37.91925449375 -94.560288 -2.1250628325
6.8757825 13.5914624375 -23.74988625 -47.84431733125 -94.2961535 -2.4645780775
2.9002275 5.16991493750001 -21.83271125 43.31357716875 -69.483296 0.1779177225
3.3375425 6.54907481250001 -21.73055875 33.46145575625 -69.2720005 -0.1283633325
3.7748575 7.92823468750001 -21.62840625 23.60933434375 -69.060705 -0.4346443875
4.2121725 9.30739456250001 -21.52625375 13.75721293125 -68.8494095 -0.7409254425
4.6494875 10.6865544375 -21.42410125 3.90509151875 -68.638114 -1.0472064975
5.0868025 12.0657143125 -21.32194875 -5.94702989375 -68.4268185 -1.3534875525
5.5241175 13.4448741875 -21.21979625 -15.79915130625 -68.215523 -1.6597686075
5.9614325 14.8240340625 -21.11764375 -25.65127271875 -68.0042275 -1.9660496625
6.3987475 16.2031939375 -21.01549125 -35.50339413125 -67.792932 -2.2723307175
6.8360625 17.5823538125 -20.91333875 -45.35551554375 -67.5816365 -2.5786117725
5.2570275 14.9171860625 -16.85735875 45.14590613125 -42.293228 -0.2352236825
5.4280625 15.6567481875 -16.99285125 35.36672614375 -42.1347715 -0.5082705475
5.5990975 16.3963103125 -17.12834375 25.58754615625 -41.976315 -0.7813174125
5.7701325 17.1358724375 -17.26383625 15.80836616875 -41.8178585 -1.0543642775
5.9411675 17.8754345625 -17.39932875 6.02918618125 -41.659402 -1.3274111425
6.1122025 18.6149966875 -17.53482125 -3.74999380625 -41.5009455 -1.6004580075
6.2832375 19.3545588125 -17.67031375 -13.52917379375 -41.342489 -1.8735048725
6.4542725 20.0941209375 -17.80580625 -23.30835378125 -41.1840325 -2.1465517375
6.6253075 20.8336830625 -17.94129875 -33.08753376875 -41.025576 -2.4195986025
6.7963425 21.5732451875 -18.07679125 -42.86671375625 -40.8671195 -2.6926454675
7.6138275 24.6644571875 -11.88200625 46.97823509375 -15.10316 -0.6483650875
7.5185825 24.7644215625 -12.25514375 37.27199653125 -14.9975425 -0.8881777625
7.4233375 24.8643859375 -12.62828125 27.56575796875 -14.891925 -1.1279904375
7.3280925 24.9643503125 -13.00141875 17.85951940625 -14.7863075 -1.3678031125
7.2328475 25.0643146875 -13.37455625 8.15328084375 -14.68069 -1.6076157875
7.1376025 25.1642790625 -13.74769375 -1.55295771875 -14.5750725 -1.8474284625
7.0423575 25.2642434375 -14.12083125 -11.25919628125 -14.469455 -2.0872411375
6.9471125 25.3642078125 -14.49396875 -20.96543484375 -14.3638375 -2.3270538125
6.8518675 25.4641721875 -14.86710625 -30.67167340625 -14.25822 -2.5668664875
6.7566225 25.5641365625 -15.24024375 -40.37791196875 -14.1526025 -2.8066791625
9.9706275 34.4117283125 -6.90665374999998 48.81056405625 12.086908 -1.0615064925
9.6091025 33.8720949375 -7.51743624999999 39.17726691875 12.1396865 -1.2680849775
9.2475775 33.3324615625 -8.12821874999998 29.54396978125 12.192465 -1.4746634625
8.8860525 32.7928281875 -8.73900125 19.91067264375 12.2452435 -1.6812419475
8.5245275 32.2531948125 -9.34978375000001 10.27737550625 12.298022 -1.8878204325
8.1630025 31.7135614375 -9.96056625000001 0.644078368749998 12.3508005 -2.0943989175
7.8014775 31.1739280625 -10.57134875 -8.98921876875 12.403579 -2.3009774025
7.4399525 30.6342946875 -11.18213125 -18.62251590625 12.4563575 -2.5075558875
7.0784275 30.0946613125 -11.79291375 -28.25581304375 12.509136 -2.7141343725
6.7169025 29.5550279375 -12.40369625 -37.88911018125 12.5619145 -2.9207128575
12.3274275 44.1589994375 -1.93130124999999 50.64289301875 39.276976 -1.4746478975
11.6996225 42.9797683125 -2.77972874999998 41.08253730625 39.2769155 -1.6479921925
11.0718175 41.8005371875 -3.62815625 31.52218159375 39.276855 -1.8213364875
10.4440125 40.6213060625 -4.47658375000001 21.96182588125 39.2767945 -1.9946807825
9.8162075 39.4420749375 -5.32501125000001 12.40147016875 39.276734 -2.1680250775
9.1884025 38.2628438125 -6.17343875000001 2.84111445625 39.2766735 -2.3413693725
8.5605975 37.0836126875 -7.02186625000002 -6.71924125625 39.276613 -2.5147136675
7.9327925 35.9043815625 -7.87029375000001 -16.27959696875 39.2765525 -2.6880579625
7.3049875 34.7251504375 -8.71872125 -25.83995268125 39.276492 -2.8614022575
6.6771825 33.5459193125 -9.56714875000002 -35.40030839375 39.2764315 -3.0347465525
13.5326848125 46.5539425 0.457860625000007 50.59000875 53.06558125 -1.70537739125
12.7992394375 45.109435 -0.474593124999982 41.21066625 53.04065625 -1.84340267375
12.0657940625 43.6649275 -1.407046875 31.83132375 53.01573125 -1.98142795625
11.3323486875 42.22042 -2.33950062500001 22.45198125 52.99080625 -2.11945323875
10.5989033125 40.7759125 -3.27195437500001 13.07263875 52.96588125 -2.25747852125
9.8654579375 39.331405 -4.20440812500001 3.69329625 52.94095625 -2.39550380375
9.1320125625 37.8868975 -5.13686187500001 -5.68604625 52.91603125 -2.53352908625
8.3985671875 36.44239 -6.06931562500001 -15.06538875 52.89110625 -2.67155436875
7.6651218125 34.9978825 -7.001769375 -24.44473125 52.86618125 -2.80957965125
6.9316764375 33.553375 -7.93422312500001 -33.82407375 52.84125625 -2.94760493375
13.5863994375 41.5965575 0.260831875000019 48.65191125 53.45272375 -1.75369497375
12.9079533125 40.261095 -0.602029374999991 39.56165375 53.43090875 -1.85431642125
12.2295071875 38.9256325 -1.46489062499998 30.47139625 53.40909375 -1.95493786875
11.5510610625 37.59017 -2.327751875 21.38113875 53.38727875 -2.05555931625
10.8726149375 36.2547075 -3.19061312500001 12.29088125 53.36546375 -2.15618076375
10.1941688125 34.919245 -4.05347437500001 3.20062375 53.34364875 -2.25680221125
9.5157226875 33.5837825 -4.916335625 -5.88963375 53.32183375 -2.35742365875
8.8372765625 32.24832 -5.77919687499999 -14.97989125 53.30001875 -2.45804510625
8.1588304375 30.9128575 -6.64205812500001 -24.07014875 53.27820375 -2.55866655375
7.4803843125 29.577395 -7.504919375 -33.16040625 53.25638875 -2.65928800125
13.6401140625 36.6391725 0.0638031250000135 46.71381375 53.83986625 -1.80201255625
13.0166671875 35.412755 -0.729465625000002 37.91264125 53.82116125 -1.86523016875
12.3932203125 34.1863375 -1.52273437500001 29.11146875 53.80245625 -1.92844778125
11.7697734375 32.95992 -2.31600312499999 20.31029625 53.78375125 -1.99166539375
11.1463265625 31.7335025 -3.10927187500001 11.50912375 53.76504625 -2.05488300625
10.5228796875 30.507085 -3.90254062500001 2.70795125 53.74634125 -2.11810061875
9.8994328125 29.2806675 -4.695809375 -6.09322125 53.72763625 -2.18131823125
9.2759859375 28.05425 -5.48907812500002 -14.89439375 53.70893125 -2.24453584375
8.6525390625 26.8278325 -6.28234687500002 -23.69556625 53.69022625 -2.30775345625
8.0290921875 25.601415 -7.07561562500001 -32.49673875 53.67152125 -2.37097106875
13.6938286875 31.6817875 -0.133225625000001 44.77571625 54.22700875 -1.85033013875
13.1253810625 30.564415 -0.856901875000012 36.26362875 54.21141375 -1.87614391625
12.5569334375 29.4470425 -1.58057812499999 27.75154125 54.19581875 -1.90195769375
11.9884858125 28.32967 -2.30425437499999 19.23945375 54.18022375 -1.92777147125
11.4200381875 27.2122975 -3.02793062499999 10.72736625 54.16462875 -1.95358524875
10.8515905625 26.094925 -3.751606875 2.21527875 54.14903375 -1.97939902625
10.2831429375 24.9775525 -4.47528312499999 -6.29680875 54.13343875 -2.00521280375
9.7146953125 23.86018 -5.198959375 -14.80889625 54.11784375 -2.03102658125
9.1462476875 22.7428075 -5.92263562500003 -23.32098375 54.10224875 -2.05684035875
8.5778000625 21.625435 -6.64631187500002 -31.83307125 54.08665375 -2.08265413625
13.7475433125 26.7244025 -0.330254374999984 42.83761875 54.61415125 -1.89864772125
13.2340949375 25.716075 -0.984338124999975 34.61461625 54.60166625 -1.88705766375
12.7206465625 24.7077475 -1.63842187499999 26.39161375 54.58918125 -1.87546760625
12.2071981875 23.69942 -2.29250562499998 18.16861125 54.57669625 -1.86387754875
11.6937498125 22.6910925 -2.946589375 9.94560875 54.56421125 -1.85228749125
11.1803014375 21.682765 -3.600673125 1.72260625 54.55172625 -1.84069743375
10.6668530625 20.6744375 -4.25475687499999 -6.50039625 54.53924125 -1.82910737625
10.1534046875 19.66611 -4.90884062499999 -14.72339875 54.52675625 -1.81751731875
9.6399563125 18.6577825 -5.56292437499999 -22.94640125 54.51427125 -1.80592726125
9.1265079375 17.649455 -6.217008125 -31.16940375 54.50178625 -1.79433720375
13.8012579375 21.7670175 -0.527283124999998 40.89952125 55.00129375 -1.94696530375
13.3428088125 20.867735 -1.11177437499999 32.96560375 54.99191875 -1.89797141125
12.8843596875 19.9684525 -1.696265625 25.03168625 54.98254375 -1.84897751875
12.4259105625 19.06917 -2.28075687500001 17.09776875 54.97316875 -1.79998362625
11.9674614375 18.1698875 -2.86524812499999 9.16385125 54.96379375 -1.75098973375
11.5090123125 17.270605 -3.44973937499999 1.22993375 54.95441875 -1.70199584125
11.0505631875 16.3713225 -4.03423062500002 -6.70398375 54.94504375 -1.65300194875
10.5921140625 15.47204 -4.61872187500001 -14.63790125 54.93566875 -1.60400805625
10.1336649375 14.5727575 -5.203213125 -22.57181875 54.92629375 -1.55501416375
9.6752158125 13.673475 -5.78770437500001 -30.50573625 54.91691875 -1.50602027125
13.8549725625 16.8096325 -0.724311874999983 38.96142375 55.38843625 -1.99528288625
13.4515226875 16.019395 -1.23921062499997 31.31659125 55.38217125 -1.90888515875
13.0480728125 15.2291575 -1.75410937499999 23.67175875 55.37590625 -1.82248743125
12.6446229375 14.43892 -2.269008125 16.02692625 55.36964125 -1.73608970375
12.2411730625 13.6486825 -2.783906875 8.38209375 55.36337625 -1.64969197625
11.8377231875 12.858445 -3.298805625 0.737261249999999 55.35711125 -1.56329424875
11.4342733125 12.0682075 -3.813704375 -6.90757125 55.35084625 -1.47689652125
11.0308234375 11.27797 -4.328603125 -14.55240375 55.34458125 -1.39049879375
10.6273735625 10.4877325 -4.84350187499998 -22.19723625 55.33831625 -1.30410106625
10.2239236875 9.697495 -5.358400625 -29.84206875 55.33205125 -1.21770333875
13.9086871875 11.8522475 -0.921340624999977 37.02332625 55.77557875 -2.04360046875
13.5602365625 11.171055 -1.366646875 29.66757875 55.77242375 -1.91979890625
13.2117859375 10.4898625 -1.811953125 22.31183125 55.76926875 -1.79599734375
12.8633353125 9.80867 -2.25725937500001 14.95608375 55.76611375 -1.67219578125
12.5148846875 9.1274775 -2.70256562499999 7.60033625 55.76295875 -1.54839421875
12.1664340625 8.446285 -3.147871875 0.24458875 55.75980375 -1.42459265625
11.8179834375 7.7650925 -3.59317812500001 -7.11115875 55.75664875 -1.30079109375
11.4695328125 7.0839 -4.038484375 -14.46690625 55.75349375 -1.17698953125
11.1210821875 6.4027075 -4.48379062500001 -21.82265375 55.75033875 -1.05318796875
10.7726315625 5.72151500000001 -4.92909687499999 -29.17840125 55.74718375 -0.92938640625
13.9624018125 6.8948625 -1.118369375 35.08522875 56.16272125 -2.09191805125
13.6689504375 6.322715 -1.494083125 28.01856625 56.16267625 -1.93071265375
13.3754990625 5.7505675 -1.869796875 20.95190375 56.16263125 -1.76950725625
13.0820476875 5.17842 -2.24551062500001 13.88524125 56.16258625 -1.60830185875
12.7885963125 4.6062725 -2.62122437499999 6.81857875 56.16254125 -1.44709646125
12.4951449375 4.034125 -2.99693812499999 -0.24808375 56.16249625 -1.28589106375
12.2016935625 3.4619775 -3.37265187500001 -7.31474625 56.16245125 -1.12468566625
11.9082421875 2.88983 -3.748365625 -14.38140875 56.16240625 -0.96348026875
11.6147908125 2.3176825 -4.12407937500001 -21.44807125 56.16236125 -0.80227487125
11.3213394375 1.745535 -4.49979312500001 -28.51473375 56.16231625 -0.64106947375
14.0161164375 1.9374775 -1.31539812499999 33.14713125 56.54986375 -2.14023563375
13.7776643125 1.474375 -1.62151937499999 26.36955375 56.55292875 -1.94162640125
13.5392121875 1.0112725 -1.92764062499999 19.59197625 56.55599375 -1.74301716875
13.3007600625 0.548169999999996 -2.23376187500001 12.81439875 56.55905875 -1.54440793625
13.0623079375 0.0850675000000031 -2.53988312499999 6.03682125 56.56212375 -1.34579870375
12.8238558125 -0.378034999999997 -2.84600437499999 -0.74075625 56.56518875 -1.14718947125
12.5854036875 -0.841137500000004 -3.15212562500001 -7.51833375 56.56825375 -0.94858023875
12.3469515625 -1.30424 -3.458246875 -14.29591125 56.57131875 -0.74997100625
12.1084994375 -1.7673425 -3.764368125 -21.07348875 56.57438375 -0.55136177375
11.8700473125 -2.230445 -4.070489375 -27.85106625 56.57744875 -0.35275254125
14.0698310625 -3.0199075 -1.51242687499999 31.20903375 56.93700625 -2.18855321625
13.8863781875 -3.373965 -1.74895562499999 24.72054125 56.94318125 -1.95254014875
13.7029253125 -3.7280225 -1.98548437499999 18.23204875 56.94935625 -1.71652708125
13.5194724375 -4.08208 -2.22201312500001 11.74355625 56.95553125 -1.48051401375
13.3360195625 -4.4361375 -2.45854187499999 5.25506375 56.96170625 -1.24450094625
13.1525666875 -4.790195 -2.695070625 -1.23342875 56.96788125 -1.00848787875
12.9691138125 -5.1442525 -2.93159937500001 -7.72192125 56.97405625 -0.77247481125
12.7856609375 -5.49831 -3.16812812499999 -14.21041375 56.98023125 -0.53646174375
12.6022080625 -5.8523675 -3.404656875 -20.69890625 56.98640625 -0.30044867625
12.4187551875 -6.206425 -3.641185625 -27.18739875 56.99258125 -0.0644356087500001
14.1235456875 -7.9772925 -1.709455625 29.27093625 57.32414875 -2.23687079875
13.9950920625 -8.222305 -1.876391875 23.07152875 57.33343375 -1.96345389625
13.8666384375 -8.4673175 -2.043328125 16.87212125 57.34271875 -1.69003699375
13.7381848125 -8.71233000000001 -2.21026437500001 10.67271375 57.35200375 -1.41662009125
13.6097311875 -8.9573425 -2.37720062499999 4.47330625 57.36128875 -1.14320318875
13.4812775625 -9.202355 -2.54413687499999 -1.72610125 57.37057375 -0.86978628625
13.3528239375 -9.4473675 -2.71107312500001 -7.92550875 57.37985875 -0.59636938375
13.2243703125 -9.69238 -2.878009375 -14.12491625 57.38914375 -0.32295248125
13.0959166875 -9.9373925 -3.044945625 -20.32432375 57.39842875 -0.0495355787500004
12.9674630625 -10.182405 -3.211881875 -26.52373125 57.40771375 0.22388132375
14.1772603125 -12.9346775 -1.90648437499999 27.33283875 57.71129125 -2.28518838125
14.1038059375 -13.070645 -2.003828125 21.42251625 57.72368625 -1.97436764375
14.0303515625 -13.2066125 -2.101171875 15.51219375 57.73608125 -1.66354690625
13.9568971875 -13.34258 -2.198515625 9.60187125 57.74847625 -1.35272616875
13.8834428125 -13.4785475 -2.29585937499999 3.69154875 57.76087125 -1.04190543125
13.8099884375 -13.614515 -2.39320312499999 -2.21877375 57.77326625 -0.73108469375
13.7365340625 -13.7504825 -2.49054687500001 -8.12909625 57.78566125 -0.42026395625
13.6630796875 -13.88645 -2.587890625 -14.03941875 57.79805625 -0.10944321875
13.5896253125 -14.0224175 -2.68523437500001 -19.94974125 57.81045125 0.20137751875
13.5161709375 -14.158385 -2.782578125 -25.86006375 57.82284625 0.51219825625
14.2309749375 -17.8920625 -2.10351312499999 25.39474125 58.09843375 -2.33350596375
14.2125198125 -17.918985 -2.13126437499999 19.77350375 58.11393875 -1.98528139125
14.1940646875 -17.9459075 -2.15901562499999 14.15226625 58.12944375 -1.63705681875
14.1756095625 -17.97283 -2.18676687499999 8.53102875 58.14494875 -1.28883224625
14.1571544375 -17.9997525 -2.214518125 2.90979125 58.16045375 -0.94060767375
14.1386993125 -18.026675 -2.242269375 -2.71144625 58.17595875 -0.59238310125
14.1202441875 -18.0535975 -2.270020625 -8.33268375 58.19146375 -0.24415852875
14.1017890625 -18.08052 -2.297771875 -13.95392125 58.20696875 0.10406604375
14.0833339375 -18.1074425 -2.32552312499999 -19.57515875 58.22247375 0.45229061625
14.0648788125 -18.134365 -2.35327437499999 -25.19639625 58.23797875 0.80051518875
14.2846895625 -22.8494475 -2.300541875 23.45664375 58.48557625 -2.38182354625
14.3212336875 -22.767325 -2.258700625 18.12449125 58.50419125 -1.99619513875
14.3577778125 -22.6852025 -2.216859375 12.79233875 58.52280625 -1.61056673125
14.3943219375 -22.60308 -2.17501812500001 7.46018625 58.54142125 -1.22493832375
14.4308660625 -22.5209575 -2.13317687499999 2.12803375 58.56003625 -0.83930991625
14.4674101875 -22.438835 -2.09133562499999 -3.20411875 58.57865125 -0.45368150875
14.5039543125 -22.3567125 -2.04949437500001 -8.53627125 58.59726625 -0.0680531012500003
14.5404984375 -22.27459 -2.007653125 -13.86842375 58.61588125 0.31757530625
14.5770425625 -22.1924675 -1.965811875 -19.20057625 58.63449625 0.70320371375
14.6135866875 -22.110345 -1.923970625 -24.53272875 58.65311125 1.08883212125
14.3384041875 -27.8068325 -2.49757062499999 21.51854625 58.87271875 -2.43014112875
14.4299475625 -27.615665 -2.38613687499999 16.47547875 58.89444375 -2.00710888625
14.5214909375 -27.4244975 -2.27470312499999 11.43241125 58.91616875 -1.58407664375
14.6130343125 -27.23333 -2.16326937499999 6.38934375 58.93789375 -1.16104440125
14.7045776875 -27.0421625 -2.051835625 1.34627625 58.95961875 -0.73801215875
14.7961210625 -26.850995 -1.940401875 -3.69679125 58.98134375 -0.31497991625
14.8876644375 -26.6598275 -1.82896812499999 -8.73985875 59.00306875 0.10805232625
14.9792078125 -26.46866 -1.71753437499999 -13.78292625 59.02479375 0.53108456875
15.0707511875 -26.2774925 -1.60610062499999 -18.82599375 59.04651875 0.95411681125
15.1622945625 -26.086325 -1.49466687499999 -23.86906125 59.06824375 1.37714905375
14.3921188125 -32.7642175 -2.69459937500001 19.58044875 59.25986125 -2.47845871125
14.5386614375 -32.464005 -2.51357312500001 14.82646625 59.28469625 -2.01802263375
14.6852040625 -32.1637925 -2.332546875 10.07248375 59.30953125 -1.55758655625
14.8317466875 -31.86358 -2.15152062499999 5.31850125 59.33436625 -1.09715047875
14.9782893125 -31.5633675 -1.970494375 0.56451875 59.35920125 -0.63671440125
15.1248319375 -31.263155 -1.789468125 -4.18946375 59.38403625 -0.17627832375
15.2713745625 -30.9629425 -1.60844187499999 -8.94344625 59.40887125 0.28415775375
15.4179171875 -30.66273 -1.427415625 -13.69742875 59.43370625 0.74459383125
15.5644598125 -30.3625175 -1.24638937500001 -18.45141125 59.45854125 1.20502990875
15.7110024375 -30.062305 -1.065363125 -23.20539375 59.48337625 1.66546598625
14.4458334375 -37.7216025 -2.891628125 17.64235125 59.64700375 -2.52677629375
14.6473753125 -37.312345 -2.641009375 13.17745375 59.67494875 -2.02893638125
14.8489171875 -36.9030875 -2.39039062500001 8.71255625 59.70289375 -1.53109646875
15.0504590625 -36.49383 -2.139771875 4.24765875 59.73083875 -1.03325655625
15.2520009375 -36.0845725 -1.889153125 -0.21723875 59.75878375 -0.53541664375
15.4535428125 -35.675315 -1.638534375 -4.68213625 59.78672875 -0.0375767312500004
15.6550846875 -35.2660575 -1.387915625 -9.14703375 59.81467375 0.46026318125
15.8566265625 -34.8568 -1.137296875 -13.61193125 59.84261875 0.958103093749999
16.0581684375 -34.4475425 -0.886678125000001 -18.07682875 59.87056375 1.45594300625
16.2597103125 -34.038285 -0.636059374999993 -22.54172625 59.89850875 1.95378291875
14.4995480625 -42.6789875 -3.08865687499999 15.70425375 60.03414625 -2.57509387625
14.7560891875 -42.160685 -2.768445625 11.52844125 60.06520125 -2.03985012875
15.0126303125 -41.6423825 -2.44823437499999 7.35262875 60.09625625 -1.50460638125
15.2691714375 -41.12408 -2.128023125 3.17681625 60.12731125 -0.96936263375
15.5257125625 -40.6057775 -1.807811875 -0.99899625 60.15836625 -0.43411888625
15.7822536875 -40.087475 -1.487600625 -5.17480875 60.18942125 0.10112486125
16.0387948125 -39.5691725 -1.167389375 -9.35062125 60.22047625 0.63636860875
16.2953359375 -39.05087 -0.847178124999989 -13.52643375 60.25153125 1.17161235625
16.5518770625 -38.5325675 -0.526966874999994 -17.70224625 60.28258625 1.70685610375
16.8084181875 -38.014265 -0.20675562499999 -21.87805875 60.31364125 2.24209985125
14.5532626875 -47.6363725 -3.285685625 13.76615625 60.42128875 -2.62341145875
14.8648030625 -47.009025 -2.89588187499999 9.87942875 60.45545375 -2.05076387625
15.1763434375 -46.3816775 -2.506078125 5.99270125 60.48961875 -1.47811629375
15.4878838125 -45.75433 -2.116274375 2.10597375 60.52378375 -0.90546871125
15.7994241875 -45.1269825 -1.726470625 -1.78075375 60.55794875 -0.33282112875
16.1109645625 -44.499635 -1.336666875 -5.66748125 60.59211375 0.23982645375
16.4225049375 -43.8722875 -0.946863125000003 -9.55420875 60.62627875 0.81247403625
16.7340453125 -43.24494 -0.557059374999997 -13.44093625 60.66044375 1.38512161875
17.0455856875 -42.6175925 -0.16725562499999 -17.32766375 60.69460875 1.95776920125
17.3571260625 -41.990245 0.222548125000003 -21.21439125 60.72877375 2.53041678375
5.7477775 -8.5204730625 55.57707375 35.56071601875 -204.2864765 2.2897165525
7.5120725 -3.9453491875 56.85039625 25.34182630625 -203.910042 1.8987511575
9.2763675 0.629774687499999 58.12371875 15.12293659375 -203.5336075 1.5077857625
11.0406625 5.20489856250001 59.39704125 4.90404688125 -203.157173 1.1168203675
12.8049575 9.7800224375 60.67036375 -5.31484283125 -202.7807385 0.7258549725
14.5692525 14.3551463125 61.94368625 -15.53373254375 -202.404304 0.3348895775
16.3335475 18.9302701875 63.21700875 -25.75262225625 -202.0278695 -0.0560758174999998
18.0978425 23.5053940625 64.49033125 -35.97151196875 -201.651435 -0.4470412125
19.8621375 28.0805179375 65.76365375 -46.19040168125 -201.2750005 -0.8380066075
21.6264325 32.6556418125 67.03697625 -56.40929139375 -200.898566 -1.2289720025
7.3606875 0.339478312500004 58.32792125 37.20461880625 -177.2162695 1.8042885575
8.8606825 4.2768449375 59.36828875 27.05862116875 -176.888146 1.4519501725
10.3606775 8.2142115625 60.40865625 16.91262353125 -176.5600225 1.0996117875
11.8606725 12.1515781875 61.44902375 6.76662589375 -176.231899 0.7472734025
13.3606675 16.0889448125 62.48939125 -3.37937174375 -175.9037755 0.3949350175
14.8606625 20.0263114375 63.52975875 -13.52536938125 -175.575652 0.0425966324999999
16.3606575 23.9636780625 64.57012625 -23.67136701875 -175.2475285 -0.3097417525
17.8606525 27.9010446875 65.61049375 -33.81736465625 -174.919405 -0.6620801375
19.3606475 31.8384113125 66.65086125 -43.96336229375 -174.5912815 -1.0144185225
20.8606425 35.7757779375 67.69122875 -54.10935993125 -174.263158 -1.3667569075
8.9735975 9.1994296875 61.07876875 38.84852159375 -150.1460625 1.3188605625
10.2092925 12.4990390625 61.88618125 28.77541603125 -149.86625 1.0051491875
11.4449875 15.7986484375 62.69359375 18.70231046875 -149.5864375 0.6914378125
12.6806825 19.0982578125 63.50100625 8.62920490625 -149.306625 0.3777264375
13.9163775 22.3978671875 64.30841875 -1.44390065625 -149.0268125 0.0640150625000001
15.1520725 25.6974765625 65.11583125 -11.51700621875 -148.747 -0.2496963125
16.3877675 28.9970859375 65.92324375 -21.59011178125 -148.4671875 -0.5634076875
17.6234625 32.2966953125 66.73065625 -31.66321734375 -148.187375 -0.8771190625
18.8591575 35.5963046875 67.53806875 -41.73632290625 -147.9075625 -1.1908304375
20.0948525 38.8959140625 68.34548125 -51.80942846875 -147.62775 -1.5045418125
10.5865075 18.0593810625 63.82961625 40.49242438125 -123.0758555 0.8334325675
11.5579025 20.7212331875 64.40407375 30.49221089375 -122.844354 0.5583482025
12.5292975 23.3830853125 64.97853125 20.49199740625 -122.6128525 0.2832638375
13.5006925 26.0449374375 65.55298875 10.49178391875 -122.381351 0.00817947250000009
14.4720875 28.7067895625 66.12744625 0.491570431250001 -122.1498495 -0.2669048925
15.4434825 31.3686416875 66.70190375 -9.50864305625 -121.918348 -0.5419892575
16.4148775 34.0304938125 67.27636125 -19.50885654375 -121.6868465 -0.8170736225
17.3862725 36.6923459375 67.85081875 -29.50907003125 -121.455345 -1.0921579875
18.3576675 39.3541980625 68.42527625 -39.50928351875 -121.2238435 -1.3672423525
19.3290625 42.0160501875 68.99973375 -49.50949700625 -120.992342 -1.6423267175
12.1994175 26.9193324375 66.58046375 42.13632716875 -96.0056485 0.3480045725
12.9065125 28.9434273125 66.92196625 32.20900575625 -95.822458 0.1115472175
13.6136075 30.9675221875 67.26346875 22.28168434375 -95.6392675 -0.1249101375
14.3207025 32.9916170625 67.60497125 12.35436293125 -95.456077 -0.3613674925
15.0277975 35.0157119375 67.94647375 2.42704151875 -95.2728865 -0.5978248475
15.7348925 37.0398068125 68.28797625 -7.50027989375 -95.089696 -0.8342822025
16.4419875 39.0639016875 68.62947875 -17.42760130625 -94.9065055 -1.0707395575
17.1490825 41.0879965625 68.97098125 -27.35492271875 -94.723315 -1.3071969125
17.8561775 43.1120914375 69.31248375 -37.28224413125 -94.5401245 -1.5436542675
18.5632725 45.1361863125 69.65398625 -47.20956554375 -94.356934 -1.7801116225
13.8123275 35.7792838125 69.33131125 43.78022995625 -68.9354415 -0.1374234225
14.2551225 37.1656214375 69.43985875 33.92580061875 -68.800562 -0.3352537675
14.6979175 38.5519590625 69.54840625 24.07137128125 -68.6656825 -0.5330841125
15.1407125 39.9382966875 69.65695375 14.21694194375 -68.530803 -0.7309144575
15.5835075 41.3246343125 69.76550125 4.36251260625 -68.3959235 -0.9287448025
16.0263025 42.7109719375 69.87404875 -5.49191673125 -68.261044 -1.1265751475
16.4690975 44.0973095625 69.98259625 -15.34634606875 -68.1261645 -1.3244054925
16.9118925 45.4836471875 70.09114375 -25.20077540625 -67.991285 -1.5222358375
17.3546875 46.8699848125 70.19969125 -35.05520474375 -67.8564055 -1.7200661825
17.7974825 48.2563224375 70.30823875 -44.90963408125 -67.721526 -1.9178965275
15.4252375 44.6392351875 72.08215875 45.42413274375 -41.8652345 -0.6228514175
15.6037325 45.3878155625 71.95775125 35.64259548125 -41.778666 -0.7820547525
15.7822275 46.1363959375 71.83334375 25.86105821875 -41.6920975 -0.9412580875
15.9607225 46.8849763125 71.70893625 16.07952095625 -41.605529 -1.1004614225
16.1392175 47.6335566875 71.58452875 6.29798369375 -41.5189605 -1.2596647575
16.3177125 48.3821370625 71.46012125 -3.48355356875 -41.432392 -1.4188680925
16.4962075 49.1307174375 71.33571375 -13.26509083125 -41.3458235 -1.5780714275
16.6747025 49.8792978125 71.21130625 -23.04662809375 -41.259255 -1.7372747625
16.8531975 50.6278781875 71.08689875 -32.82816535625 -41.1726865 -1.8964780975
17.0316925 51.3764585625 70.96249125 -42.60970261875 -41.086118 -2.0556814325
17.0381475 53.4991865625 74.83300625 47.06803553125 -14.7950275 -1.1082794125
16.9523425 53.6100096875 74.47564375 37.35939034375 -14.75677 -1.2288557375
16.8665375 53.7208328125 74.11828125 27.65074515625 -14.7185125 -1.3494320625
16.7807325 53.8316559375 73.76091875 17.94209996875 -14.680255 -1.4700083875
16.6949275 53.9424790625 73.40355625 8.23345478125 -14.6419975 -1.5905847125
16.6091225 54.0533021875 73.04619375 -1.47519040625 -14.60374 -1.7111610375
16.5233175 54.1641253125 72.68883125 -11.18383559375 -14.5654825 -1.8317373625
16.4375125 54.2749484375 72.33146875 -20.89248078125 -14.527225 -1.9523136875
16.3517075 54.3857715625 71.97410625 -30.60112596875 -14.4889675 -2.0728900125
16.2659025 54.4965946875 71.61674375 -40.30977115625 -14.45071 -2.1934663375
18.6510575 62.3591379375 77.58385375 48.71193831875 12.2751795 -1.5937074075
18.3009525 61.8322038125 76.99353625 39.07618520625 12.265126 -1.6756567225
17.9508475 61.3052696875 76.40321875 29.44043209375 12.2550725 -1.7576060375
17.6007425 60.7783355625 75.81290125 19.80467898125 12.245019 -1.8395553525
17.2506375 60.2514014375 75.22258375 10.16892586875 12.2349655 -1.9215046675
16.9005325 59.7244673125 74.63226625 0.533172756249999 12.224912 -2.0034539825
16.5504275 59.1975331875 74.04194875 -9.10258035625 12.2148585 -2.0854032975
16.2003225 58.6705990625 73.45163125 -18.73833346875 12.204805 -2.1673526125
15.8502175 58.1436649375 72.86131375 -28.37408658125 12.1947515 -2.2493019275
15.5001125 57.6167308125 72.27099625 -38.00983969375 12.184698 -2.3312512425
20.2639675 71.2190893125 80.33470125 50.35584110625 39.3453865 -2.0791354025
19.6495625 70.0543979375 79.51142875 40.79298006875 39.287022 -2.1224577075
19.0351575 68.8897065625 78.68815625 31.23011903125 39.2286575 -2.1657800125
18.4207525 67.7250151875 77.86488375 21.66725799375 39.170293 -2.2091023175
17.8063475 66.5603238125 77.04161125 12.10439695625 39.1119285 -2.2524246225
17.1919425 65.3956324375 76.21833875 2.54153591875 39.053564 -2.2957469275
16.5775375 64.2309410625 75.39506625 -7.02132511875 38.9951995 -2.3390692325
15.9631325 63.0662496875 74.57179375 -16.58418615625 38.936835 -2.3823915375
15.3487275 61.9015583125 73.74852125 -26.14704719375 38.8784705 -2.4257138425
14.7343225 60.7368669375 72.92524875 -35.70990823125 38.820106 -2.4690361475
21.1021314375 72.8868975 80.656351875 50.22297125 53.01634125 -2.35547578375
20.3840093125 71.458735 79.753730625 40.84107375 52.93796125 -2.35809685125
19.6658871875 70.0305725 78.851109375 31.45917625 52.85958125 -2.36071791875
18.9477650625 68.60241 77.948488125 22.07727875 52.78120125 -2.36333898625
18.2296429375 67.1742475 77.045866875 12.69538125 52.70282125 -2.36596005375
17.5115208125 65.746085 76.143245625 3.31348375 52.62444125 -2.36858112125
16.7933986875 64.3179225 75.240624375 -6.06841375 52.54606125 -2.37120218875
16.0752765625 62.88976 74.338003125 -15.45031125 52.46768125 -2.37382325625
15.3571544375 61.4615975 73.435381875 -24.83220875 52.38930125 -2.37644432375
14.6390323125 60.033435 72.532760625 -34.21410625 52.31092125 -2.37906539125
21.1655493125 67.3625625 78.548805625 48.31332875 53.28804375 -2.42272855125
20.5042929375 66.045215 77.720441875 39.22046625 53.21794375 -2.38257415375
19.8430365625 64.7278675 76.892078125 30.12760375 53.14784375 -2.34241975625
19.1817801875 63.41052 76.063714375 21.03474125 53.07774375 -2.30226535875
18.5205238125 62.0931725 75.235350625 11.94187875 53.00764375 -2.26211096125
17.8592674375 60.775825 74.406986875 2.84901625 52.93754375 -2.22195656375
17.1980110625 59.4584775 73.578623125 -6.24384625 52.86744375 -2.18180216625
16.5367546875 58.14113 72.750259375 -15.33670875 52.79734375 -2.14164776875
15.8754983125 56.8237825 71.921895625 -24.42957125 52.72724375 -2.10149337125
15.2142419375 55.506435 71.093531875 -33.52243375 52.65714375 -2.06133897375
21.2289671875 61.8382275 76.441259375 46.40368625 53.55974625 -2.48998131875
20.6245765625 60.631695 75.687153125 37.59985875 53.49792625 -2.40705145625
20.0201859375 59.4251625 74.933046875 28.79603125 53.43610625 -2.32412159375
19.4157953125 58.21863 74.178940625 19.99220375 53.37428625 -2.24119173125
18.8114046875 57.0120975 73.424834375 11.18837625 53.31246625 -2.15826186875
18.2070140625 55.805565 72.670728125 2.38454875 53.25064625 -2.07533200625
17.6026234375 54.5990325 71.916621875 -6.41927875 53.18882625 -1.99240214375
16.9982328125 53.3925 71.162515625 -15.22310625 53.12700625 -1.90947228125
16.3938421875 52.1859675 70.408409375 -24.02693375 53.06518625 -1.82654241875
15.7894515625 50.979435 69.654303125 -32.83076125 53.00336625 -1.74361255625
21.2923850625 56.3138925 74.333713125 44.49404375 53.83144875 -2.55723408625
20.7448601875 55.218175 73.653864375 35.97925125 53.77790875 -2.43152875875
20.1973353125 54.1224575 72.974015625 27.46445875 53.72436875 -2.30582343125
19.6498104375 53.02674 72.294166875 18.94966625 53.67082875 -2.18011810375
19.1022855625 51.9310225 71.614318125 10.43487375 53.61728875 -2.05441277625
18.5547606875 50.835305 70.934469375 1.92008125 53.56374875 -1.92870744875
18.0072358125 49.7395875 70.254620625 -6.59471125 53.51020875 -1.80300212125
17.4597109375 48.64387 69.574771875 -15.10950375 53.45666875 -1.67729679375
16.9121860625 47.5481525 68.894923125 -23.62429625 53.40312875 -1.55159146625
16.3646611875 46.452435 68.215074375 -32.13908875 53.34958875 -1.42588613875
21.3558029375 50.7895575 72.226166875 42.58440125 54.10315125 -2.62448685375
20.8651438125 49.804655 71.620575625 34.35864375 54.05789125 -2.45600606125
20.3744846875 48.8197525 71.014984375 26.13288625 54.01263125 -2.28752526875
19.8838255625 47.83485 70.409393125 17.90712875 53.96737125 -2.11904447625
19.3931664375 46.8499475 69.803801875 9.68137125 53.92211125 -1.95056368375
18.9025073125 45.865045 69.198210625 1.45561375 53.87685125 -1.78208289125
18.4118481875 44.8801425 68.592619375 -6.77014375 53.83159125 -1.61360209875
17.9211890625 43.89524 67.987028125 -14.99590125 53.78633125 -1.44512130625
17.4305299375 42.9103375 67.381436875 -23.22165875 53.74107125 -1.27664051375
16.9398708125 41.925435 66.775845625 -31.44741625 53.69581125 -1.10815972125
21.4192208125 45.2652225 70.118620625 40.67475875 54.37485375 -2.69173962125
20.9854274375 44.391135 69.587286875 32.73803625 54.33787375 -2.48048336375
20.5516340625 43.5170475 69.055953125 24.80131375 54.30089375 -2.26922710625
20.1178406875 42.64296 68.524619375 16.86459125 54.26391375 -2.05797084875
19.6840473125 41.7688725 67.993285625 8.92786875 54.22693375 -1.84671459125
19.2502539375 40.894785 67.461951875 0.991146250000001 54.18995375 -1.63545833375
18.8164605625 40.0206975 66.930618125 -6.94557625 54.15297375 -1.42420207625
18.3826671875 39.14661 66.399284375 -14.88229875 54.11599375 -1.21294581875
17.9488738125 38.2725225 65.867950625 -22.81902125 54.07901375 -1.00168956125
17.5150804375 37.398435 65.336616875 -30.75574375 54.04203375 -0.79043330375
21.4826386875 39.7408875 68.011074375 38.76511625 54.64655625 -2.75899238875
21.1057110625 38.977615 67.553998125 31.11742875 54.61785625 -2.50496066625
20.7287834375 38.2143425 67.096921875 23.46974125 54.58915625 -2.25092894375
20.3518558125 37.45107 66.639845625 15.82205375 54.56045625 -1.99689722125
19.9749281875 36.6877975 66.182769375 8.17436625 54.53175625 -1.74286549875
19.5980005625 35.924525 65.725693125 0.526678749999999 54.50305625 -1.48883377625
19.2210729375 35.1612525 65.268616875 -7.12100875 54.47435625 -1.23480205375
18.8441453125 34.39798 64.811540625 -14.76869625 54.44565625 -0.98077033125
18.4672176875 33.6347075 64.354464375 -22.41638375 54.41695625 -0.72673860875
18.0902900625 32.871435 63.897388125 -30.06407125 54.38825625 -0.47270688625
21.5460565625 34.2165525 65.903528125 36.85547375 54.91825875 -2.82624515625
21.2259946875 33.564095 65.520709375 29.49682125 54.89783875 -2.52943796875
20.9059328125 32.9116375 65.137890625 22.13816875 54.87741875 -2.23263078125
20.5858709375 32.25918 64.755071875 14.77951625 54.85699875 -1.93582359375
20.2658090625 31.6067225 64.372253125 7.42086375 54.83657875 -1.63901640625
19.9457471875 30.954265 63.989434375 0.0622112500000001 54.81615875 -1.34220921875
19.6256853125 30.3018075 63.606615625 -7.29644125 54.79573875 -1.04540203125
19.3056234375 29.64935 63.223796875 -14.65509375 54.77531875 -0.74859484375
18.9855615625 28.9968925 62.840978125 -22.01374625 54.75489875 -0.45178765625
18.6654996875 28.344435 62.458159375 -29.37239875 54.73447875 -0.15498046875
21.6094744375 28.6922175 63.795981875 34.94583125 55.18996125 -2.89349792375
21.3462783125 28.150575 63.487420625 27.87621375 55.17782125 -2.55391527125
21.0830821875 27.6089325 63.178859375 20.80659625 55.16568125 -2.21433261875
20.8198860625 27.06729 62.870298125 13.73697875 55.15354125 -1.87474996625
20.5566899375 26.5256475 62.561736875 6.66736125 55.14140125 -1.53516731375
20.2934938125 25.984005 62.253175625 -0.40225625 55.12926125 -1.19558466125
20.0302976875 25.4423625 61.944614375 -7.47187375 55.11712125 -0.85600200875
19.7671015625 24.90072 61.636053125 -14.54149125 55.10498125 -0.51641935625
19.5039054375 24.3590775 61.327491875 -21.61110875 55.09284125 -0.17683670375
19.2407093125 23.817435 61.018930625 -28.68072625 55.08070125 0.16274594875
21.6728923125 23.1678825 61.688435625 33.03618875 55.46166375 -2.96075069125
21.4665619375 22.737055 61.454131875 26.25560625 55.45780375 -2.57839257375
21.2602315625 22.3062275 61.219828125 19.47502375 55.45394375 -2.19603445625
21.0539011875 21.8754 60.985524375 12.69444125 55.45008375 -1.81367633875
20.8475708125 21.4445725 60.751220625 5.91385875 55.44622375 -1.43131822125
20.6412404375 21.013745 60.516916875 -0.866723749999999 55.44236375 -1.04896010375
20.4349100625 20.5829175 60.282613125 -7.64730625 55.43850375 -0.66660198625
20.2285796875 20.15209 60.048309375 -14.42788875 55.43464375 -0.28424386875
20.0222493125 19.7212625 59.814005625 -21.20847125 55.43078375 0.0981142487499996
19.8159189375 19.290435 59.579701875 -27.98905375 55.42692375 0.48047236625
21.7363101875 17.6435475 59.580889375 31.12654625 55.73336625 -3.02800345875
21.5868455625 17.323535 59.420843125 24.63499875 55.73778625 -2.60286987625
21.4373809375 17.0035225 59.260796875 18.14345125 55.74220625 -2.17773629375
21.2879163125 16.68351 59.100750625 11.65190375 55.74662625 -1.75260271125
21.1384516875 16.3634975 58.940704375 5.16035625 55.75104625 -1.32746912875
20.9889870625 16.043485 58.780658125 -1.33119125 55.75546625 -0.90233554625
20.8395224375 15.7234725 58.620611875 -7.82273875 55.75988625 -0.47720196375
20.6900578125 15.40346 58.460565625 -14.31428625 55.76430625 -0.0520683812500003
20.5405931875 15.0834475 58.300519375 -20.80583375 55.76872625 0.37306520125
20.3911285625 14.763435 58.140473125 -27.29738125 55.77314625 0.79819878375
21.7997280625 12.1192125 57.473343125 29.21690375 56.00506875 -3.09525622625
21.7071291875 11.910015 57.387554375 23.01439125 56.01776875 -2.62734717875
21.6145303125 11.7008175 57.301765625 16.81187875 56.03046875 -2.15943813125
21.5219314375 11.49162 57.215976875 10.60936625 56.04316875 -1.69152908375
21.4293325625 11.2824225 57.130188125 4.40685375 56.05586875 -1.22362003625
21.3367336875 11.073225 57.044399375 -1.79565875 56.06856875 -0.75571098875
21.2441348125 10.8640275 56.958610625 -7.99817125 56.08126875 -0.28780194125
21.1515359375 10.65483 56.872821875 -14.20068375 56.09396875 0.18010710625
21.0589370625 10.4456325 56.787033125 -20.40319625 56.10666875 0.64801615375
20.9663381875 10.236435 56.701244375 -26.60570875 56.11936875 1.11592520125
21.8631459375 6.5948775 55.365796875 27.30726125 56.27677125 -3.16250899375
21.8274128125 6.496495 55.354265625 21.39378375 56.29775125 -2.65182448125
21.7916796875 6.3981125 55.342734375 15.48030625 56.31873125 -2.14113996875
21.7559465625 6.29973 55.331203125 9.56682875 56.33971125 -1.63045545625
21.7202134375 6.2013475 55.319671875 3.65335125 56.36069125 -1.11977094375
21.6844803125 6.102965 55.308140625 -2.26012625 56.38167125 -0.609086431250001
21.6487471875 6.0045825 55.296609375 -8.17360375 56.40265125 -0.0984019187500001
21.6130140625 5.9062 55.285078125 -14.08708125 56.42363125 0.41228259375
21.5772809375 5.8078175 55.273546875 -20.00055875 56.44461125 0.92296710625
21.5415478125 5.709435 55.262015625 -25.91403625 56.46559125 1.43365161875
21.9265638125 1.0705425 53.258250625 25.39761875 56.54847375 -3.22976176125
21.9476964375 1.082975 53.320976875 19.77317625 56.57773375 -2.67630178375
21.9688290625 1.0954075 53.383703125 14.14873375 56.60699375 -2.12284180625
21.9899616875 1.10784 53.446429375 8.52429125 56.63625375 -1.56938182875
22.0110943125 1.1202725 53.509155625 2.89984875 56.66551375 -1.01592185125
22.0322269375 1.132705 53.571881875 -2.72459375 56.69477375 -0.46246187375
22.0533595625 1.1451375 53.634608125 -8.34903625 56.72403375 0.0909981037499994
22.0744921875 1.15757 53.697334375 -13.97347875 56.75329375 0.64445808125
22.0956248125 1.1700025 53.760060625 -19.59792125 56.78255375 1.19791805875
22.1167574375 1.182435 53.822786875 -25.22236375 56.81181375 1.75137803625
21.9899816875 -4.4537925 51.150704375 23.48797625 56.82017625 -3.29701452875
22.0679800625 -4.330545 51.287688125 18.15256875 56.85771625 -2.70077908625
22.1459784375 -4.2072975 51.424671875 12.81716125 56.89525625 -2.10454364375
22.2239768125 -4.08405 51.561655625 7.48175375 56.93279625 -1.50830820125
22.3019751875 -3.9608025 51.698639375 2.14634625 56.97033625 -0.91207275875
22.3799735625 -3.837555 51.835623125 -3.18906125 57.00787625 -0.31583731625
22.4579719375 -3.7143075 51.972606875 -8.52446875 57.04541625 0.28039812625
22.5359703125 -3.59106 52.109590625 -13.85987625 57.08295625 0.87663356875
22.6139686875 -3.4678125 52.246574375 -19.19528375 57.12049625 1.47286901125
22.6919670625 -3.344565 52.383558125 -24.53069125 57.15803625 2.06910445375
22.0533995625 -9.9781275 49.043158125 21.57833375 57.09187875 -3.36426729625
22.1882636875 -9.74406500000001 49.254399375 16.53196125 57.13769875 -2.72525638875
22.3231278125 -9.51000250000001 49.465640625 11.48558875 57.18351875 -2.08624548125
22.4579919375 -9.27594 49.676881875 6.43921625 57.22933875 -1.44723457375
22.5928560625 -9.0418775 49.888123125 1.39284375 57.27515875 -0.808223666250001
22.7277201875 -8.807815 50.099364375 -3.65352875 57.32097875 -0.16921275875
22.8625843125 -8.5737525 50.310605625 -8.69990125 57.36679875 0.46979814875
22.9974484375 -8.33969 50.521846875 -13.74627375 57.41261875 1.10880905625
23.1323125625 -8.1056275 50.733088125 -18.79264625 57.45843875 1.74781996375
23.2671766875 -7.871565 50.944329375 -23.83901875 57.50425875 2.38683087125
22.1168174375 -15.5024625 46.935611875 19.66869125 57.36358125 -3.43152006375
22.3085473125 -15.157585 47.221110625 14.91135375 57.41768125 -2.74973369125
22.5002771875 -14.8127075 47.506609375 10.15401625 57.47178125 -2.06794731875
22.6920070625 -14.46783 47.792108125 5.39667875 57.52588125 -1.38616094625
22.8837369375 -14.1229525 48.077606875 0.63934125 57.57998125 -0.70437457375
23.0754668125 -13.778075 48.363105625 -4.11799625 57.63408125 -0.0225882012500003
23.2671966875 -13.4331975 48.648604375 -8.87533375 57.68818125 0.65919817125
23.4589265625 -13.08832 48.934103125 -13.63267125 57.74228125 1.34098454375
23.6506564375 -12.7434425 49.219601875 -18.39000875 57.79638125 2.02277091625
23.8423863125 -12.398565 49.505100625 -23.14734625 57.85048125 2.70455728875
22.1802353125 -21.0267975 44.828065625 17.75904875 57.63528375 -3.49877283125
22.4288309375 -20.571105 45.187821875 13.29074625 57.69766375 -2.77421099375
22.6774265625 -20.1154125 45.547578125 8.82244375 57.76004375 -2.04964915625
22.9260221875 -19.65972 45.907334375 4.35414125 57.82242375 -1.32508731875
23.1746178125 -19.2040275 46.267090625 -0.11416125 57.88480375 -0.600525481250001
23.4232134375 -18.748335 46.626846875 -4.58246375 57.94718375 0.12403635625
23.6718090625 -18.2926425 46.986603125 -9.05076625 58.00956375 0.84859819375
23.9204046875 -17.83695 47.346359375 -13.51906875 58.07194375 1.57316003125
24.1690003125 -17.3812575 47.706115625 -17.98737125 58.13432375 2.29772186875
24.4175959375 -16.925565 48.065871875 -22.45567375 58.19670375 3.02228370625
22.2436531875 -26.5511325 42.720519375 15.84940625 57.90698625 -3.56602559875
22.5491145625 -25.984625 43.154533125 11.67013875 57.97764625 -2.79868829625
22.8545759375 -25.4181175 43.588546875 7.49087125 58.04830625 -2.03135099375
23.1600373125 -24.85161 44.022560625 3.31160375 58.11896625 -1.26401369125
23.4654986875 -24.2851025 44.456574375 -0.86766375 58.18962625 -0.496676388750001
23.7709600625 -23.718595 44.890588125 -5.04693125 58.26028625 0.27066091375
24.0764214375 -23.1520875 45.324601875 -9.22619875 58.33094625 1.03799821625
24.3818828125 -22.58558 45.758615625 -13.40546625 58.40160625 1.80533551875
24.6873441875 -22.0190725 46.192629375 -17.58473375 58.47226625 2.57267282125
24.9928055625 -21.452565 46.626643125 -21.76400125 58.54292625 3.34001012375
22.3070710625 -32.0754675 40.612973125 13.93976375 58.17868875 -3.63327836625
22.6693981875 -31.398145 41.121244375 10.04953125 58.25762875 -2.82316559875
23.0317253125 -30.7208225 41.629515625 6.15929875 58.33656875 -2.01305283125
23.3940524375 -30.0435 42.137786875 2.26906625 58.41550875 -1.20294006375
23.7563795625 -29.3661775 42.646058125 -1.62116625 58.49444875 -0.392827296250001
24.1187066875 -28.688855 43.154329375 -5.51139875 58.57338875 0.41728547125
24.4810338125 -28.0115325 43.662600625 -9.40163125 58.65232875 1.22739823875
24.8433609375 -27.33421 44.170871875 -13.29186375 58.73126875 2.03751100625
25.2056880625 -26.6568875 44.679143125 -17.18209625 58.81020875 2.84762377375
25.5680151875 -25.979565 45.187414375 -21.07232875 58.88914875 3.65773654125
20.3793275 26.5254945625 157.86362125 36.96949968125 -203.139317 2.3358083575
22.1392025 31.0985936875 159.11988875 26.74854879375 -202.8619385 2.0263295725
23.8990775 35.6716928125 160.37615625 16.52759790625 -202.58456 1.7168507875
25.6589525 40.2447919375 161.63242375 6.30664701875 -202.3071815 1.4073720025
27.4188275 44.8178910625 162.88869125 -3.91430386875 -202.029803 1.0978932175
29.1787025 49.3909901875 164.14495875 -14.13525475625 -201.7524245 0.7884144325
30.9385775 53.9640893125 165.40122625 -24.35620564375 -201.475046 0.4789356475
32.6984525 58.5371884375 166.65749375 -34.57715653125 -201.1976675 0.1694568625
34.4583275 63.1102875625 167.91376125 -44.79810741875 -200.920289 -0.1400219225
36.2182025 67.6833866875 169.17002875 -55.01905830625 -200.6429105 -0.4495007075
21.2483475 34.4981261875 158.38996375 38.42497629375 -176.188971 1.7780937725
22.7459025 38.4353085625 159.41796625 28.27686813125 -175.9553755 1.5126348175
24.2434575 42.3724909375 160.44596875 18.12875996875 -175.72178 1.2471758625
25.7410125 46.3096733125 161.47397125 7.98065180625 -175.4881845 0.9817169075
27.2385675 50.2468556875 162.50197375 -2.16745635625 -175.254589 0.7162579525
28.7361225 54.1840380625 163.52997625 -12.31556451875 -175.0209935 0.4507989975
30.2336775 58.1212204375 164.55797875 -22.46367268125 -174.787398 0.1853400425
31.7312325 62.0584028125 165.58598125 -32.61178084375 -174.5538025 -0.0801189125000001
33.2287875 65.9955851875 166.61398375 -42.75988900625 -174.320207 -0.3455778675
34.7263425 69.9327675625 167.64198625 -52.90799716875 -174.0866115 -0.6110368225
22.1173675 42.4707578125 158.91630625 39.88045290625 -149.238625 1.2203791875
23.3526025 45.7720234375 159.71604375 29.80518746875 -149.0488125 0.9989400625
24.5878375 49.0732890625 160.51578125 19.72992203125 -148.859 0.7775009375
25.8230725 52.3745546875 161.31551875 9.65465659375 -148.6691875 0.5560618125
27.0583075 55.6758203125 162.11525625 -0.420608843749998 -148.479375 0.3346226875
28.2935425 58.9770859375 162.91499375 -10.49587428125 -148.2895625 0.1131835625
29.5287775 62.2783515625 163.71473125 -20.57113971875 -148.09975 -0.1082555625
30.7640125 65.5796171875 164.51446875 -30.64640515625 -147.9099375 -0.3296946875
31.9992475 68.8808828125 165.31420625 -40.72167059375 -147.720125 -0.5511338125
33.2344825 72.1821484375 166.11394375 -50.79693603125 -147.5303125 -0.7725729375
22.9863875 50.4433894375 159.44264875 41.33592951875 -122.288279 0.6626646025
23.9593025 53.1087383125 160.01412125 31.33350680625 -122.1422495 0.4852453075
24.9322175 55.7740871875 160.58559375 21.33108409375 -121.99622 0.3078260125
25.9051325 58.4394360625 161.15706625 11.32866138125 -121.8501905 0.1304067175
26.8780475 61.1047849375 161.72853875 1.32623866875 -121.704161 -0.0470125774999999
27.8509625 63.7701338125 162.30001125 -8.67618404375 -121.5581315 -0.2244318725
28.8238775 66.4354826875 162.87148375 -18.67860675625 -121.412102 -0.4018511675
29.7967925 69.1008315625 163.44295625 -28.68102946875 -121.2660725 -0.5792704625
30.7697075 71.7661804375 164.01442875 -38.68345218125 -121.120043 -0.7566897575
31.7426225 74.4315293125 164.58590125 -48.68587489375 -120.9740135 -0.9341090525
23.8554075 58.4160210625 159.96899125 42.79140613125 -95.337933 0.1049500175
24.5660025 60.4454531875 160.31219875 32.86182614375 -95.2356865 -0.0284494474999998
25.2765975 62.4748853125 160.65540625 22.93224615625 -95.13344 -0.1618489125
25.9871925 64.5043174375 160.99861375 13.00266616875 -95.0311935 -0.2952483775
26.6977875 66.5337495625 161.34182125 3.07308618125 -94.928947 -0.4286478425
27.4083825 68.5631816875 161.68502875 -6.85649380625 -94.8267005 -0.5620473075
28.1189775 70.5926138125 162.02823625 -16.78607379375 -94.724454 -0.6954467725
28.8295725 72.6220459375 162.37144375 -26.71565378125 -94.6222075 -0.8288462375
29.5401675 74.6514780625 162.71465125 -36.64523376875 -94.519961 -0.9622457025
30.2507625 76.6809101875 163.05785875 -46.57481375625 -94.4177145 -1.0956451675
24.7244275 66.3886526875 160.49533375 44.24688274375 -68.387587 -0.4527645675
25.1727025 67.7821680625 160.61027625 34.39014548125 -68.3291235 -0.5421442025
25.6209775 69.1756834375 160.72521875 24.53340821875 -68.27066 -0.6315238375
26.0692525 70.5691988125 160.84016125 14.67667095625 -68.2121965 -0.7209034725
26.5175275 71.9627141875 160.95510375 4.81993369375 -68.153733 -0.8102831075
26.9658025 73.3562295625 161.07004625 -5.03680356875 -68.0952695 -0.8996627425
27.4140775 74.7497449375 161.18498875 -14.89354083125 -68.036806 -0.9890423775
27.8623525 76.1432603125 161.29993125 -24.75027809375 -67.9783425 -1.0784220125
28.3106275 77.5367756875 161.41487375 -34.60701535625 -67.919879 -1.1678016475
28.7589025 78.9302910625 161.52981625 -44.46375261875 -67.8614155 -1.2571812825
25.5934475 74.3612843125 161.02167625 45.70235935625 -41.437241 -1.0104791525
25.7794025 75.1188829375 160.90835375 35.91846481875 -41.4225605 -1.0558389575
25.9653575 75.8764815625 160.79503125 26.13457028125 -41.40788 -1.1011987625
26.1513125 76.6340801875 160.68170875 16.35067574375 -41.3931995 -1.1465585675
26.3372675 77.3916788125 160.56838625 6.56678120625 -41.378519 -1.1919183725
26.5232225 78.1492774375 160.45506375 -3.21711333125 -41.3638385 -1.2372781775
26.7091775 78.9068760625 160.34174125 -13.00100786875 -41.349158 -1.2826379825
26.8951325 79.6644746875 160.22841875 -22.78490240625 -41.3344775 -1.3279977875
27.0810875 80.4220733125 160.11509625 -32.56879694375 -41.319797 -1.3733575925
27.2670425 81.1796719375 160.00177375 -42.35269148125 -41.3051165 -1.4187173975
26.4624675 82.3339159375 161.54801875 47.15783596875 -14.486895 -1.5681937375
26.3861025 82.4555978125 161.20643125 37.44678415625 -14.5159975 -1.5695337125
26.3097375 82.5772796875 160.86484375 27.73573234375 -14.5451 -1.5708736875
26.2333725 82.6989615625 160.52325625 18.02468053125 -14.5742025 -1.5722136625
26.1570075 82.8206434375 160.18166875 8.31362871875 -14.603305 -1.5735536375
26.0806425 82.9423253125 159.84008125 -1.39742309375 -14.6324075 -1.5748936125
26.0042775 83.0640071875 159.49849375 -11.10847490625 -14.66151 -1.5762335875
25.9279125 83.1856890625 159.15690625 -20.81952671875 -14.6906125 -1.5775735625
25.8515475 83.3073709375 158.81531875 -30.53057853125 -14.719715 -1.5789135375
25.7751825 83.4290528125 158.47373125 -40.24163034375 -14.7488175 -1.5802535125
27.3314875 90.3065475625 162.07436125 48.61331258125 12.463451 -2.1259083225
26.9928025 89.7923126875 161.50450875 38.97510349375 12.3905655 -2.0832284675
26.6541175 89.2780778125 160.93465625 29.33689440625 12.31768 -2.0405486125
26.3154325 88.7638429375 160.36480375 19.69868531875 12.2447945 -1.9978687575
25.9767475 88.2496080625 159.79495125 10.06047623125 12.171909 -1.9551889025
25.6380625 87.7353731875 159.22509875 0.42226714375 12.0990235 -1.9125090475
25.2993775 87.2211383125 158.65524625 -9.21594194375 12.026138 -1.8698291925
24.9606925 86.7069034375 158.08539375 -18.85415103125 11.9532525 -1.8271493375
24.6220075 86.1926685625 157.51554125 -28.49236011875 11.880367 -1.7844694825
24.2833225 85.6784336875 156.94568875 -38.13056920625 11.8074815 -1.7417896275
28.2005075 98.2791791875 162.60070375 50.06878919375 39.413797 -2.6836229075
27.5995025 97.1290275625 161.80258625 40.50342283125 39.2971285 -2.5969232225
26.9984975 95.9788759375 161.00446875 30.93805646875 39.18046 -2.5102235375
26.3974925 94.8287243125 160.20635125 21.37269010625 39.0637915 -2.4235238525
25.7964875 93.6785726875 159.40823375 11.80732374375 38.947123 -2.3368241675
25.1954825 92.5284210625 158.61011625 2.24195738125 38.8304545 -2.2501244825
24.5944775 91.3782694375 157.81199875 -7.32340898125 38.713786 -2.1634247975
23.9934725 90.2281178125 157.01388125 -16.88877534375 38.5971175 -2.0767251125
23.3924675 89.0779661875 156.21576375 -26.45414170625 38.480449 -1.9900254275
22.7914625 87.9278145625 155.41764625 -36.01950806875 38.3637805 -1.9033257425
28.6715780625 99.2198525 160.854843125 49.85593375 52.96710125 -3.00557417625
27.9687791875 97.808035 159.982054375 40.47148125 52.83526625 -2.87279102875
27.2659803125 96.3962175 159.109265625 31.08702875 52.70343125 -2.74000788125
26.5631814375 94.9844 158.236476875 21.70257625 52.57159625 -2.60722473375
25.8603825625 93.5725825 157.363688125 12.31812375 52.43976125 -2.47444158625
25.1575836875 92.160765 156.490899375 2.93367125 52.30792625 -2.34165843875
24.4547848125 90.7489475 155.618110625 -6.45078125 52.17609125 -2.20887529125
23.7519859375 89.33713 154.745321875 -15.83523375 52.04425625 -2.07609214375
23.0491870625 87.9253125 153.872533125 -25.21968625 51.91242125 -1.94330899625
22.3463881875 86.513495 152.999744375 -34.60413875 51.78058625 -1.81052584875
28.7446991875 93.1285675 156.836779375 47.97474625 53.12336375 -3.09176212875
28.1006325625 91.829335 156.042913125 38.87927875 53.00497875 -2.91083188625
27.4565659375 90.5301025 155.249046875 29.78381125 52.88659375 -2.72990164375
26.8124993125 89.23087 154.455180625 20.68834375 52.76820875 -2.54897140125
26.1684326875 87.9316375 153.661314375 11.59287625 52.64982375 -2.36804115875
25.5243660625 86.632405 152.867448125 2.49740875 52.53143875 -2.18711091625
24.8802994375 85.3331725 152.073581875 -6.59805875 52.41305375 -2.00618067375
24.2362328125 84.03394 151.279715625 -15.69352625 52.29466875 -1.82525043125
23.5921661875 82.7347075 150.485849375 -24.78899375 52.17628375 -1.64432018875
22.9480995625 81.435475 149.691983125 -33.88446125 52.05789875 -1.46338994625
28.8178203125 87.0372825 152.818715625 46.09355875 53.27962625 -3.17795008125
28.2324859375 85.850635 152.103771875 37.28707625 53.17469125 -2.94887274375
27.6471515625 84.6639875 151.388828125 28.48059375 53.06975625 -2.71979540625
27.0618171875 83.47734 150.673884375 19.67411125 52.96482125 -2.49071806875
26.4764828125 82.2906925 149.958940625 10.86762875 52.85988625 -2.26164073125
25.8911484375 81.104045 149.243996875 2.06114625 52.75495125 -2.03256339375
25.3058140625 79.9173975 148.529053125 -6.74533625 52.65001625 -1.80348605625
24.7204796875 78.73075 147.814109375 -15.55181875 52.54508125 -1.57440871875
24.1351453125 77.5441025 147.099165625 -24.35830125 52.44014625 -1.34533138125
23.5498109375 76.357455 146.384221875 -33.16478375 52.33521125 -1.11625404375
28.8909414375 80.9459975 148.800651875 44.21237125 53.43588875 -3.26413803375
28.3643393125 79.871935 148.164630625 35.69487375 53.34440375 -2.98691360125
27.8377371875 78.7978725 147.528609375 27.17737625 53.25291875 -2.70968916875
27.3111350625 77.72381 146.892588125 18.65987875 53.16143375 -2.43246473625
26.7845329375 76.6497475 146.256566875 10.14238125 53.06994875 -2.15524030375
26.2579308125 75.575685 145.620545625 1.62488375 52.97846375 -1.87801587125
25.7313286875 74.5016225 144.984524375 -6.89261375 52.88697875 -1.60079143875
25.2047265625 73.42756 144.348503125 -15.41011125 52.79549375 -1.32356700625
24.6781244375 72.3534975 143.712481875 -23.92760875 52.70400875 -1.04634257375
24.1515223125 71.279435 143.076460625 -32.44510625 52.61252375 -0.76911814125
28.9640625625 74.8547125 144.782588125 42.33118375 53.59215125 -3.35032598625
28.4961926875 73.893235 144.225489375 34.10267125 53.51411625 -3.02495445875
28.0283228125 72.9317575 143.668390625 25.87415875 53.43608125 -2.69958293125
27.5604529375 71.97028 143.111291875 17.64564625 53.35804625 -2.37421140375
27.0925830625 71.0088025 142.554193125 9.41713375 53.28001125 -2.04883987625
26.6247131875 70.047325 141.997094375 1.18862125 53.20197625 -1.72346834875
26.1568433125 69.0858475 141.439995625 -7.03989125 53.12394125 -1.39809682125
25.6889734375 68.12437 140.882896875 -15.26840375 53.04590625 -1.07272529375
25.2211035625 67.1628925 140.325798125 -23.49691625 52.96787125 -0.74735376625
24.7532336875 66.201415 139.768699375 -31.72542875 52.88983625 -0.42198223875
29.0371836875 68.7634275 140.764524375 40.44999625 53.74841375 -3.43651393875
28.6280460625 67.914535 140.286348125 32.51046875 53.68382875 -3.06299531625
28.2189084375 67.0656425 139.808171875 24.57094125 53.61924375 -2.68947669375
27.8097708125 66.21675 139.329995625 16.63141375 53.55465875 -2.31595807125
27.4006331875 65.3678575 138.851819375 8.69188625 53.49007375 -1.94243944875
26.9914955625 64.518965 138.373643125 0.752358749999999 53.42548875 -1.56892082625
26.5823579375 63.6700725 137.895466875 -7.18716875 53.36090375 -1.19540220375
26.1732203125 62.82118 137.417290625 -15.12669625 53.29631875 -0.82188358125
25.7640826875 61.9722875 136.939114375 -23.06622375 53.23173375 -0.44836495875
25.3549450625 61.123395 136.460938125 -31.00575125 53.16714875 -0.0748463362500002
29.1103048125 62.6721425 136.746460625 38.56880875 53.90467625 -3.52270189125
28.7598994375 61.935835 136.347206875 30.91826625 53.85354125 -3.10103617375
28.4094940625 61.1995275 135.947953125 23.26772375 53.80240625 -2.67937045625
28.0590886875 60.46322 135.548699375 15.61718125 53.75127125 -2.25770473875
27.7086833125 59.7269125 135.149445625 7.96663875 53.70013625 -1.83603902125
27.3582779375 58.990605 134.750191875 0.31609625 53.64900125 -1.41437330375
27.0078725625 58.2542975 134.350938125 -7.33444625 53.59786625 -0.99270758625
26.6574671875 57.51799 133.951684375 -14.98498875 53.54673125 -0.57104186875
26.3070618125 56.7816825 133.552430625 -22.63553125 53.49559625 -0.14937615125
25.9566564375 56.045375 133.153176875 -30.28607375 53.44446125 0.27228956625
29.1834259375 56.5808575 132.728396875 36.68762125 54.06093875 -3.60888984375
28.8917528125 55.957135 132.408065625 29.32606375 54.02325375 -3.13907703125
28.6000796875 55.3334125 132.087734375 21.96450625 53.98556875 -2.66926421875
28.3084065625 54.70969 131.767403125 14.60294875 53.94788375 -2.19945140625
28.0167334375 54.0859675 131.447071875 7.24139125 53.91019875 -1.72963859375
27.7250603125 53.462245 131.126740625 -0.120166250000001 53.87251375 -1.25982578125
27.4333871875 52.8385225 130.806409375 -7.48172375 53.83482875 -0.79001296875
27.1417140625 52.2148 130.486078125 -14.84328125 53.79714375 -0.32020015625
26.8500409375 51.5910775 130.165746875 -22.20483875 53.75945875 0.14961265625
26.5583678125 50.967355 129.845415625 -29.56639625 53.72177375 0.61942546875
29.2565470625 50.4895725 128.710333125 34.80643375 54.21720125 -3.69507779625
29.0236061875 49.978435 128.468924375 27.73386125 54.19296625 -3.17711788875
28.7906653125 49.4672975 128.227515625 20.66128875 54.16873125 -2.65915798125
28.5577244375 48.95616 127.986106875 13.58871625 54.14449625 -2.14119807375
28.3247835625 48.4450225 127.744698125 6.51614375 54.12026125 -1.62323816625
28.0918426875 47.933885 127.503289375 -0.556428750000001 54.09602625 -1.10527825875
27.8589018125 47.4227475 127.261880625 -7.62900125 54.07179125 -0.58731835125
27.6259609375 46.91161 127.020471875 -14.70157375 54.04755625 -0.0693584437500002
27.3930200625 46.4004725 126.779063125 -21.77414625 54.02332125 0.448601463749999
27.1600791875 45.889335 126.537654375 -28.84671875 53.99908625 0.96656137125
29.3296681875 44.3982875 124.692269375 32.92524625 54.37346375 -3.78126574875
29.1554595625 43.999735 124.529783125 26.14165875 54.36267875 -3.21515874625
28.9812509375 43.6011825 124.367296875 19.35807125 54.35189375 -2.64905174375
28.8070423125 43.20263 124.204810625 12.57448375 54.34110875 -2.08294474125
28.6328336875 42.8040775 124.042324375 5.79089625 54.33032375 -1.51683773875
28.4586250625 42.405525 123.879838125 -0.992691250000001 54.31953875 -0.95073073625
28.2844164375 42.0069725 123.717351875 -7.77627875 54.30875375 -0.38462373375
28.1102078125 41.60842 123.554865625 -14.55986625 54.29796875 0.18148326875
27.9359991875 41.2098675 123.392379375 -21.34345375 54.28718375 0.74759027125
27.7617905625 40.811315 123.229893125 -28.12704125 54.27639875 1.31369727375
29.4027893125 38.3070025 120.674205625 31.04405875 54.52972625 -3.86745370125
29.2873129375 38.021035 120.590641875 24.54945625 54.53239125 -3.25319960375
29.1718365625 37.7350675 120.507078125 18.05485375 54.53505625 -2.63894550625
29.0563601875 37.4491 120.423514375 11.56025125 54.53772125 -2.02469140875
28.9408838125 37.1631325 120.339950625 5.06564875 54.54038625 -1.41043731125
28.8254074375 36.877165 120.256386875 -1.42895375 54.54305125 -0.79618321375
28.7099310625 36.5911975 120.172823125 -7.92355625 54.54571625 -0.18192911625
28.5944546875 36.30523 120.089259375 -14.41815875 54.54838125 0.43232498125
28.4789783125 36.0192625 120.005695625 -20.91276125 54.55104625 1.04657907875
28.3635019375 35.733295 119.922131875 -27.40736375 54.55371125 1.66083317625
29.4759104375 32.2157175 116.656141875 29.16287125 54.68598875 -3.95364165375
29.4191663125 32.042335 116.651500625 22.95725375 54.70210375 -3.29124046125
29.3624221875 31.8689525 116.646859375 16.75163625 54.71821875 -2.62883926875
29.3056780625 31.69557 116.642218125 10.54601875 54.73433375 -1.96643807625
29.2489339375 31.5221875 116.637576875 4.34040125 54.75044875 -1.30403688375
29.1921898125 31.348805 116.632935625 -1.86521625 54.76656375 -0.64163569125
29.1354456875 31.1754225 116.628294375 -8.07083375 54.78267875 0.0207655012499998
29.0787015625 31.00204 116.623653125 -14.27645125 54.79879375 0.68316669375
29.0219574375 30.8286575 116.619011875 -20.48206875 54.81490875 1.34556788625
28.9652133125 30.655275 116.614370625 -26.68768625 54.83102375 2.00796907875
29.5490315625 26.1244325 112.638078125 27.28168375 54.84225125 -4.03982960625
29.5510196875 26.063635 112.712359375 21.36505125 54.87181625 -3.32928131875
29.5530078125 26.0028375 112.786640625 15.44841875 54.90138125 -2.61873303125
29.5549959375 25.94204 112.860921875 9.53178625 54.93094625 -1.90818474375
29.5569840625 25.8812425 112.935203125 3.61515375 54.96051125 -1.19763645625
29.5589721875 25.820445 113.009484375 -2.30147875 54.99007625 -0.48708816875
29.5609603125 25.7596475 113.083765625 -8.21811125 55.01964125 0.22346011875
29.5629484375 25.69885 113.158046875 -14.13474375 55.04920625 0.93400840625
29.5649365625 25.6380525 113.232328125 -20.05137625 55.07877125 1.64455669375
29.5669246875 25.577255 113.306609375 -25.96800875 55.10833625 2.35510498125
29.6221526875 20.0331475 108.620014375 25.40049625 54.99851375 -4.12601755875
29.6828730625 20.084935 108.773218125 19.77284875 55.04152875 -3.36732217625
29.7435934375 20.1367225 108.926421875 14.14520125 55.08454375 -2.60862679375
29.8043138125 20.18851 109.079625625 8.51755375 55.12755875 -1.84993141125
29.8650341875 20.2402975 109.232829375 2.88990625 55.17057375 -1.09123602875
29.9257545625 20.292085 109.386033125 -2.73774125 55.21358875 -0.33254064625
29.9864749375 20.3438725 109.539236875 -8.36538875 55.25660375 0.42615473625
30.0471953125 20.39566 109.692440625 -13.99303625 55.29961875 1.18485011875
30.1079156875 20.4474475 109.845644375 -19.62068375 55.34263375 1.94354550125
30.1686360625 20.499235 109.998848125 -25.24833125 55.38564875 2.70224088375
29.6952738125 13.9418625 104.601950625 23.51930875 55.15477625 -4.21220551125
29.8147264375 14.106235 104.834076875 18.18064625 55.21124125 -3.40536303375
29.9341790625 14.2706075 105.066203125 12.84198375 55.26770625 -2.59852055625
30.0536316875 14.43498 105.298329375 7.50332125 55.32417125 -1.79167807875
30.1730843125 14.5993525 105.530455625 2.16465875 55.38063625 -0.984835601250001
30.2925369375 14.763725 105.762581875 -3.17400375 55.43710125 -0.17799312375
30.4119895625 14.9280975 105.994708125 -8.51266625 55.49356625 0.62884935375
30.5314421875 15.09247 106.226834375 -13.85132875 55.55003125 1.43569183125
30.6508948125 15.2568425 106.458960625 -19.18999125 55.60649625 2.24253430875
30.7703474375 15.421215 106.691086875 -24.52865375 55.66296125 3.04937678625
29.7683949375 7.8505775 100.583886875 21.63812125 55.31103875 -4.29839346375
29.9465798125 8.12753499999999 100.894935625 16.58844375 55.38095375 -3.44340389125
30.1247646875 8.4044925 101.205984375 11.53876625 55.45086875 -2.58841431875
30.3029495625 8.68145 101.517033125 6.48908875 55.52078375 -1.73342474625
30.4811344375 8.9584075 101.828081875 1.43941125 55.59069875 -0.87843517375
30.6593193125 9.235365 102.139130625 -3.61026625 55.66061375 -0.0234456012500005
30.8375041875 9.5123225 102.450179375 -8.65994375 55.73052875 0.831543971249999
31.0156890625 9.78928 102.761228125 -13.70962125 55.80044375 1.68653354375
31.1938739375 10.0662375 103.072276875 -18.75929875 55.87035875 2.54152311625
31.3720588125 10.343195 103.383325625 -23.80897625 55.94027375 3.39651268875
29.8415160625 1.7592925 96.565823125 19.75693375 55.46730125 -4.38458141625
30.0784331875 2.148835 96.955794375 14.99624125 55.55066625 -3.48144474875
30.3153503125 2.5383775 97.345765625 10.23554875 55.63403125 -2.57830808125
30.5522674375 2.92792 97.735736875 5.47485625 55.71739625 -1.67517141375
30.7891845625 3.3174625 98.125708125 0.714163749999999 55.80076125 -0.77203474625
31.0261016875 3.707005 98.515679375 -4.04652875 55.88412625 0.13110192125
31.2630188125 4.0965475 98.905650625 -8.80722125 55.96749125 1.03423858875
31.4999359375 4.48609 99.295621875 -13.56791375 56.05085625 1.93737525625
31.7368530625 4.8756325 99.685593125 -18.32860625 56.13422125 2.84051192375
31.9737701875 5.265175 100.075564375 -23.08929875 56.21758625 3.74364859125
29.9146371875 -4.3319925 92.547759375 17.87574625 55.62356375 -4.47076936875
30.2102865625 -3.829865 93.016653125 13.40403875 55.72037875 -3.51948560625
30.5059359375 -3.3277375 93.485546875 8.93233125 55.81719375 -2.56820184375
30.8015853125 -2.82561 93.954440625 4.46062375 55.91400875 -1.61691808125
31.0972346875 -2.3234825 94.423334375 -0.0110837500000003 56.01082375 -0.665634318750001
31.3928840625 -1.821355 94.892228125 -4.48279125 56.10763875 0.28564944375
31.6885334375 -1.3192275 95.361121875 -8.95449875 56.20445375 1.23693320625
31.9841828125 -0.817100000000003 95.830015625 -13.42620625 56.30126875 2.18821696875
32.2798321875 -0.314972500000002 96.298909375 -17.89791375 56.39808375 3.13950073125
32.5754815625 0.187154999999998 96.767803125 -22.36962125 56.49489875 4.09078449375
29.9877583125 -10.4232775 88.529695625 15.99455875 55.77982625 -4.55695732125
30.3421399375 -9.808565 89.077511875 11.81183625 55.89009125 -3.55752646375
30.6965215625 -9.1938525 89.625328125 7.62911375 56.00035625 -2.55809560625
31.0509031875 -8.57914 90.173144375 3.44639125 56.11062125 -1.55866474875
31.4052848125 -7.9644275 90.720960625 -0.73633125 56.22088625 -0.55923389125
31.7596664375 -7.349715 91.268776875 -4.91905375 56.33115125 0.440196966249999
32.1140480625 -6.7350025 91.816593125 -9.10177625 56.44141625 1.43962782375
32.4684296875 -6.12029 92.364409375 -13.28449875 56.55168125 2.43905868125
32.8228113125 -5.5055775 92.912225625 -17.46722125 56.66194625 3.43848953875
33.1771929375 -4.890865 93.460041875 -21.64994375 56.77221125 4.43792039625
30.0608794375 -16.5145625 84.511631875 14.11337125 55.93608875 -4.64314527375
30.4739933125 -15.787265 85.138370625 10.21963375 56.05980375 -3.59556732125
30.8871071875 -15.0599675 85.765109375 6.32589625 56.18351875 -2.54798936875
31.3002210625 -14.33267 86.391848125 2.43215875 56.30723375 -1.50041141625
31.7133349375 -13.6053725 87.018586875 -1.46157875 56.43094875 -0.452833463750001
32.1264488125 -12.878075 87.645325625 -5.35531625 56.55466375 0.59474448875
32.5395626875 -12.1507775 88.272064375 -9.24905375 56.67837875 1.64232244125
32.9526765625 -11.42348 88.898803125 -13.14279125 56.80209375 2.68990039375
33.3657904375 -10.6961825 89.525541875 -17.03652875 56.92580875 3.73747834625
33.7789043125 -9.968885 90.152280625 -20.93026625 57.04952375 4.78505629875
35.0108775 61.5714621875 260.15016875 38.37828334375 -201.9921575 2.3819001625
36.7663325 66.1425365625 261.38938125 28.15527128125 -201.813835 2.1539079875
38.5217875 70.7136109375 262.62859375 17.93225921875 -201.6355125 1.9259158125
40.2772425 75.2846853125 263.86780625 7.70924715625 -201.45719 1.6979236375
42.0326975 79.8557596875 265.10701875 -2.51376490625 -201.2788675 1.4699314625
43.7881525 84.4268340625 266.34623125 -12.73677696875 -201.100545 1.2419392875
45.5436075 88.9979084375 267.58544375 -22.95978903125 -200.9222225 1.0139471125
47.2990625 93.5689828125 268.82465625 -33.18280109375 -200.7439 0.7859549375
49.0545175 98.1400571875 270.06386875 -43.40581315625 -200.5655775 0.5579627625
50.8099725 102.7111315625 271.30308125 -53.62882521875 -200.387255 0.3299705875
35.1360075 68.6567740625 258.45200625 39.64533378125 -175.1616725 1.7518989875
36.6311225 72.5937721875 259.46764375 29.49511509375 -175.022605 1.5733194625
38.1262375 76.5307703125 260.48328125 19.34489640625 -174.8835375 1.3947399375
39.6213525 80.4677684375 261.49891875 9.19467771875 -174.74447 1.2161604125
41.1164675 84.4047665625 262.51455625 -0.955540968749999 -174.6054025 1.0375808875
42.6115825 88.3417646875 263.53019375 -11.10575965625 -174.466335 0.8590013625
44.1066975 92.2787628125 264.54583125 -21.25597834375 -174.3272675 0.6804218375
45.6018125 96.2157609375 265.56146875 -31.40619703125 -174.1882 0.5018423125
47.0969275 100.1527590625 266.57710625 -41.55641571875 -174.0491325 0.3232627875
48.5920425 104.0897571875 267.59274375 -51.70663440625 -173.910065 0.1446832625
35.2611375 75.7420859375 256.75384375 40.91238421875 -148.3311875 1.1218978125
36.4959125 79.0450078125 257.54590625 30.83495890625 -148.231375 0.9927309375
37.7306875 82.3479296875 258.33796875 20.75753359375 -148.1315625 0.8635640625
38.9654625 85.6508515625 259.13003125 10.68010828125 -148.03175 0.7343971875
40.2002375 88.9537734375 259.92209375 0.602682968750001 -147.9319375 0.6052303125
41.4350125 92.2566953125 260.71415625 -9.47474234375 -147.832125 0.4760634375
42.6697875 95.5596171875 261.50621875 -19.55216765625 -147.7323125 0.3468965625
43.9045625 98.8625390625 262.29828125 -29.62959296875 -147.6325 0.2177296875
45.1393375 102.1654609375 263.09034375 -39.70701828125 -147.5326875 0.0885628124999999
46.3741125 105.4683828125 263.88240625 -49.78444359375 -147.432875 -0.0406040625
35.3862675 82.8273978125 255.05568125 42.17943465625 -121.5007025 0.4918966375
36.3607025 85.4962434375 255.62416875 32.17480271875 -121.440145 0.4121424125
37.3351375 88.1650890625 256.19265625 22.17017078125 -121.3795875 0.3323881875
38.3095725 90.8339346875 256.76114375 12.16553884375 -121.31903 0.2526339625
39.2840075 93.5027803125 257.32963125 2.16090690625 -121.2584725 0.1728797375
40.2584425 96.1716259375 257.89811875 -7.84372503125 -121.197915 0.0931255125000001
41.2328775 98.8404715625 258.46660625 -17.84835696875 -121.1373575 0.0133712875000001
42.2073125 101.5093171875 259.03509375 -27.85298890625 -121.0768 -0.0663829374999998
43.1817475 104.1781628125 259.60358125 -37.85762084375 -121.0162425 -0.1461371625
44.1561825 106.8470084375 260.17206875 -47.86225278125 -120.955685 -0.2258913875
35.5113975 89.9127096875 253.35751875 43.44648509375 -94.6702175 -0.1381045375
36.2254925 91.9474790625 253.70243125 33.51464653125 -94.648915 -0.1684461125
36.9395875 93.9822484375 254.04734375 23.58280796875 -94.6276125 -0.1987876875
37.6536825 96.0170178125 254.39225625 13.65096940625 -94.60631 -0.2291292625
38.3677775 98.0517871875 254.73716875 3.71913084375 -94.5850075 -0.2594708375
39.0818725 100.0865565625 255.08208125 -6.21270771875 -94.563705 -0.2898124125
39.7959675 102.1213259375 255.42699375 -16.14454628125 -94.5424025 -0.3201539875
40.5100625 104.1560953125 255.77190625 -26.07638484375 -94.5211 -0.3504955625
41.2241575 106.1908646875 256.11681875 -36.00822340625 -94.4997975 -0.3808371375
41.9382525 108.2256340625 256.46173125 -45.94006196875 -94.478495 -0.4111787125
35.6365275 96.9980215625 251.65935625 44.71353553125 -67.8397325 -0.7681057125
36.0902825 98.3987146875 251.78069375 34.85449034375 -67.857685 -0.7490346375
36.5440375 99.7994078125 251.90203125 24.99544515625 -67.8756375 -0.7299635625
36.9977925 101.2001009375 252.02336875 15.13639996875 -67.89359 -0.7108924875
37.4515475 102.6007940625 252.14470625 5.27735478125 -67.9115425 -0.6918214125
37.9053025 104.0014871875 252.26604375 -4.58169040625 -67.929495 -0.6727503375
38.3590575 105.4021803125 252.38738125 -14.44073559375 -67.9474475 -0.6536792625
38.8128125 106.8028734375 252.50871875 -24.29978078125 -67.9654 -0.6346081875
39.2665675 108.2035665625 252.63005625 -34.15882596875 -67.9833525 -0.6155371125
39.7203225 109.6042596875 252.75139375 -44.01787115625 -68.001305 -0.5964660375
35.7616575 104.0833334375 249.96119375 45.98058596875 -41.0092475 -1.3981068875
35.9550725 104.8499503125 249.85895625 36.19433415625 -41.066455 -1.3296231625
36.1484875 105.6165671875 249.75671875 26.40808234375 -41.1236625 -1.2611394375
36.3419025 106.3831840625 249.65448125 16.62183053125 -41.18087 -1.1926557125
36.5353175 107.1498009375 249.55224375 6.83557871875 -41.2380775 -1.1241719875
36.7287325 107.9164178125 249.45000625 -2.95067309375 -41.295285 -1.0556882625
36.9221475 108.6830346875 249.34776875 -12.73692490625 -41.3524925 -0.9872045375
37.1155625 109.4496515625 249.24553125 -22.52317671875 -41.4097 -0.9187208125
37.3089775 110.2162684375 249.14329375 -32.30942853125 -41.4669075 -0.8502370875
37.5023925 110.9828853125 249.04105625 -42.09568034375 -41.524115 -0.7817533625
35.8867875 111.1686453125 248.26303125 47.24763640625 -14.1787625 -2.0281080625
35.8198625 111.3011859375 247.93721875 37.53417796875 -14.275225 -1.9102116875
35.7529375 111.4337265625 247.61140625 27.82071953125 -14.3716875 -1.7923153125
35.6860125 111.5662671875 247.28559375 18.10726109375 -14.46815 -1.6744189375
35.6190875 111.6988078125 246.95978125 8.39380265625 -14.5646125 -1.5565225625
35.5521625 111.8313484375 246.63396875 -1.31965578125 -14.661075 -1.4386261875
35.4852375 111.9638890625 246.30815625 -11.03311421875 -14.7575375 -1.3207298125
35.4183125 112.0964296875 245.98234375 -20.74657265625 -14.854 -1.2028334375
35.3513875 112.2289703125 245.65653125 -30.46003109375 -14.9504625 -1.0849370625
35.2844625 112.3615109375 245.33071875 -40.17348953125 -15.046925 -0.9670406875
36.0119175 118.2539571875 246.56486875 48.51468684375 12.6517225 -2.6581092375
35.6846525 117.7524215625 246.01548125 38.87402178125 12.516005 -2.4908002125
35.3573875 117.2508859375 245.46609375 29.23335671875 12.3802875 -2.3234911875
35.0301225 116.7493503125 244.91670625 19.59269165625 12.24457 -2.1561821625
34.7028575 116.2478146875 244.36731875 9.95202659375 12.1088525 -1.9888731375
34.3755925 115.7462790625 243.81793125 0.311361531250002 11.973135 -1.8215641125
34.0483275 115.2447434375 243.26854375 -9.32930353125 11.8374175 -1.6542550875
33.7210625 114.7432078125 242.71915625 -18.96996859375 11.7017 -1.4869460625
33.3937975 114.2416721875 242.16976875 -28.61063365625 11.5659825 -1.3196370375
33.0665325 113.7401365625 241.62038125 -38.25129871875 11.430265 -1.1523280125
36.1370475 125.3392690625 244.86670625 49.78173728125 39.4822075 -3.2881104125
35.5494425 124.2036571875 244.09374375 40.21386559375 39.307235 -3.0713887375
34.9618375 123.0680453125 243.32078125 30.64599390625 39.1322625 -2.8546670625
34.3742325 121.9324334375 242.54781875 21.07812221875 38.95729 -2.6379453875
33.7866275 120.7968215625 241.77485625 11.51025053125 38.7823175 -2.4212237125
33.1990225 119.6612096875 241.00189375 1.94237884375 38.607345 -2.2045020375
32.6114175 118.5255978125 240.22893125 -7.62549284375 38.4323725 -1.9877803625
32.0238125 117.3899859375 239.45596875 -17.19336453125 38.2574 -1.7710586875
31.4362075 116.2543740625 238.68300625 -26.76123621875 38.0824275 -1.5543370125
30.8486025 115.1187621875 237.91004375 -36.32910790625 37.907455 -1.3376153375
36.2410246875 125.5528075 241.053334375 49.48889625 52.91786125 -3.65567256875
35.5535490625 124.157335 240.210378125 40.10188875 52.73257125 -3.38748520625
34.8660734375 122.7618625 239.367421875 30.71488125 52.54728125 -3.11929784375
34.1785978125 121.36639 238.524465625 21.32787375 52.36199125 -2.85111048125
33.4911221875 119.9709175 237.681509375 11.94086625 52.17670125 -2.58292311875
32.8036465625 118.575445 236.838553125 2.55385875 51.99141125 -2.31473575625
32.1161709375 117.1799725 235.995596875 -6.83314875 51.80612125 -2.04654839375
31.4286953125 115.7845 235.152640625 -16.22015625 51.62083125 -1.77836103125
30.7412196875 114.3890275 234.309684375 -25.60716375 51.43554125 -1.51017366875
30.0537440625 112.993555 233.466728125 -34.99417125 51.25025125 -1.24198630625
36.3238490625 118.8945725 235.124753125 47.63616375 52.95868375 -3.76079570625
35.6969721875 117.613455 234.365384375 38.53809125 52.79201375 -3.43908961875
35.0700953125 116.3323375 233.606015625 29.44001875 52.62534375 -3.11738353125
34.4432184375 115.05122 232.846646875 20.34194625 52.45867375 -2.79567744375
33.8163415625 113.7701025 232.087278125 11.24387375 52.29200375 -2.47397135625
33.1894646875 112.488985 231.327909375 2.14580125 52.12533375 -2.15226526875
32.5625878125 111.2078675 230.568540625 -6.95227125 51.95866375 -1.83055918125
31.9357109375 109.92675 229.809171875 -16.05034375 51.79199375 -1.50885309375
31.3088340625 108.6456325 229.049803125 -25.14841625 51.62532375 -1.18714700625
30.6819571875 107.364515 228.290434375 -34.24648875 51.45865375 -0.86544091875
36.4066734375 112.2363375 229.196171875 45.78343125 52.99950625 -3.86591884375
35.8403953125 111.069575 228.520390625 36.97429375 52.85145625 -3.49069403125
35.2741171875 109.9028125 227.844609375 28.16515625 52.70340625 -3.11546921875
34.7078390625 108.73605 227.168828125 19.35601875 52.55535625 -2.74024440625
34.1415609375 107.5692875 226.493046875 10.54688125 52.40730625 -2.36501959375
33.5752828125 106.402525 225.817265625 1.73774375 52.25925625 -1.98979478125
33.0090046875 105.2357625 225.141484375 -7.07139375 52.11120625 -1.61456996875
32.4427265625 104.069 224.465703125 -15.88053125 51.96315625 -1.23934515625
31.8764484375 102.9022375 223.789921875 -24.68966875 51.81510625 -0.86412034375
31.3101703125 101.735475 223.114140625 -33.49880625 51.66705625 -0.48889553125
36.4894978125 105.5781025 223.267590625 43.93069875 53.04032875 -3.97104198125
35.9838184375 104.525695 222.675396875 35.41049625 52.91089875 -3.54229844375
35.4781390625 103.4732875 222.083203125 26.89029375 52.78146875 -3.11355490625
34.9724596875 102.42088 221.491009375 18.37009125 52.65203875 -2.68481136875
34.4667803125 101.3684725 220.898815625 9.84988875 52.52260875 -2.25606783125
33.9611009375 100.316065 220.306621875 1.32968625 52.39317875 -1.82732429375
33.4554215625 99.2636575 219.714428125 -7.19051625 52.26374875 -1.39858075625
32.9497421875 98.21125 219.122234375 -15.71071875 52.13431875 -0.96983721875
32.4440628125 97.1588425 218.530040625 -24.23092125 52.00488875 -0.54109368125
31.9383834375 96.106435 217.937846875 -32.75112375 51.87545875 -0.11235014375
36.5723221875 98.9198675 217.339009375 42.07796625 53.08115125 -4.07616511875
36.1272415625 97.981815 216.830403125 33.84669875 52.97034125 -3.59390285625
35.6821609375 97.0437625 216.321796875 25.61543125 52.85953125 -3.11164059375
35.2370803125 96.10571 215.813190625 17.38416375 52.74872125 -2.62937833125
34.7919996875 95.1676575 215.304584375 9.15289625 52.63791125 -2.14711606875
34.3469190625 94.229605 214.795978125 0.921628750000002 52.52710125 -1.66485380625
33.9018384375 93.2915525 214.287371875 -7.30963875 52.41629125 -1.18259154375
33.4567578125 92.3535 213.778765625 -15.54090625 52.30548125 -0.70032928125
33.0116771875 91.4154475 213.270159375 -23.77217375 52.19467125 -0.21806701875
32.5665965625 90.477395 212.761553125 -32.00344125 52.08386125 0.26419524375
36.6551465625 92.2616325 211.410428125 40.22523375 53.12197375 -4.18128825625
36.2706646875 91.437935 210.985409375 32.28290125 53.02978375 -3.64550726875
35.8861828125 90.6142375 210.560390625 24.34056875 52.93759375 -3.10972628125
35.5017009375 89.79054 210.135371875 16.39823625 52.84540375 -2.57394529375
35.1172190625 88.9668425 209.710353125 8.45590375 52.75321375 -2.03816430625
34.7327371875 88.143145 209.285334375 0.51357125 52.66102375 -1.50238331875
34.3482553125 87.3194475 208.860315625 -7.42876125 52.56883375 -0.96660233125
33.9637734375 86.49575 208.435296875 -15.37109375 52.47664375 -0.43082134375
33.5792915625 85.6720525 208.010278125 -23.31342625 52.38445375 0.10495964375
33.1948096875 84.848355 207.585259375 -31.25575875 52.29226375 0.64074063125
36.7379709375 85.6033975 205.481846875 38.37250125 53.16279625 -4.28641139375
36.4140878125 84.894055 205.140415625 30.71910375 53.08922625 -3.69711168125
36.0902046875 84.1847125 204.798984375 23.06570625 53.01565625 -3.10781196875
35.7663215625 83.47537 204.457553125 15.41230875 52.94208625 -2.51851225625
35.4424384375 82.7660275 204.116121875 7.75891125 52.86851625 -1.92921254375
35.1185553125 82.056685 203.774690625 0.105513750000001 52.79494625 -1.33991283125
34.7946721875 81.3473425 203.433259375 -7.54788375 52.72137625 -0.75061311875
34.4707890625 80.638 203.091828125 -15.20128125 52.64780625 -0.16131340625
34.1469059375 79.9286575 202.750396875 -22.85467875 52.57423625 0.42798630625
33.8230228125 79.219315 202.408965625 -30.50807625 52.50066625 1.01728601875
36.8207953125 78.9451625 199.553265625 36.51976875 53.20361875 -4.39153453125
36.5575109375 78.350175 199.295421875 29.15530625 53.14866875 -3.74871609375
36.2942265625 77.7551875 199.037578125 21.79084375 53.09371875 -3.10589765625
36.0309421875 77.1602 198.779734375 14.42638125 53.03876875 -2.46307921875
35.7676578125 76.5652125 198.521890625 7.06191875 52.98381875 -1.82026078125
35.5043734375 75.970225 198.264046875 -0.30254375 52.92886875 -1.17744234375
35.2410890625 75.3752375 198.006203125 -7.66700625 52.87391875 -0.53462390625
34.9778046875 74.78025 197.748359375 -15.03146875 52.81896875 0.10819453125
34.7145203125 74.1852625 197.490515625 -22.39593125 52.76401875 0.75101296875
34.4512359375 73.590275 197.232671875 -29.76039375 52.70906875 1.39383140625
36.9036196875 72.2869275 193.624684375 34.66703625 53.24444125 -4.49665766875
36.7009340625 71.806295 193.450428125 27.59150875 53.20811125 -3.80032050625
36.4982484375 71.3256625 193.276171875 20.51598125 53.17178125 -3.10398334375
36.2955628125 70.84503 193.101915625 13.44045375 53.13545125 -2.40764618125
36.0928771875 70.3643975 192.927659375 6.36492625 53.09912125 -1.71130901875
35.8901915625 69.883765 192.753403125 -0.71060125 53.06279125 -1.01497185625
35.6875059375 69.4031325 192.579146875 -7.78612875 53.02646125 -0.31863469375
35.4848203125 68.9225 192.404890625 -14.86165625 52.99013125 0.37770246875
35.2821346875 68.4418675 192.230634375 -21.93718375 52.95380125 1.07403963125
35.0794490625 67.961235 192.056378125 -29.01271125 52.91747125 1.77037679375
36.9864440625 65.6286925 187.696103125 32.81430375 53.28526375 -4.60178080625
36.8443571875 65.262415 187.605434375 26.02771125 53.26755375 -3.85192491875
36.7022703125 64.8961375 187.514765625 19.24111875 53.24984375 -3.10206903125
36.5601834375 64.52986 187.424096875 12.45452625 53.23213375 -2.35221314375
36.4180965625 64.1635825 187.333428125 5.66793375 53.21442375 -1.60235725625
36.2760096875 63.797305 187.242759375 -1.11865875 53.19671375 -0.85250136875
36.1339228125 63.4310275 187.152090625 -7.90525125 53.17900375 -0.10264548125
35.9918359375 63.06475 187.061421875 -14.69184375 53.16129375 0.64721040625
35.8497490625 62.6984725 186.970753125 -21.47843625 53.14358375 1.39706629375
35.7076621875 62.332195 186.880084375 -28.26502875 53.12587375 2.14692218125
37.0692684375 58.9704575 181.767521875 30.96157125 53.32608625 -4.70690394375
36.9877803125 58.718535 181.760440625 24.46391375 53.32699625 -3.90352933125
36.9062921875 58.4666125 181.753359375 17.96625625 53.32790625 -3.10015471875
36.8248040625 58.21469 181.746278125 11.46859875 53.32881625 -2.29678010625
36.7433159375 57.9627675 181.739196875 4.97094125 53.32972625 -1.49340549375
36.6618278125 57.710845 181.732115625 -1.52671625 53.33063625 -0.69003088125
36.5803396875 57.4589225 181.725034375 -8.02437375 53.33154625 0.11334373125
36.4988515625 57.207 181.717953125 -14.52203125 53.33245625 0.916718343749999
36.4173634375 56.9550775 181.710871875 -21.01968875 53.33336625 1.72009295625
36.3358753125 56.703155 181.703790625 -27.51734625 53.33427625 2.52346756875
37.1520928125 52.3122225 175.838940625 29.10883875 53.36690875 -4.81202708125
37.1312034375 52.174655 175.915446875 22.90011625 53.38643875 -3.95513374375
37.1103140625 52.0370875 175.991953125 16.69139375 53.40596875 -3.09824040625
37.0894246875 51.89952 176.068459375 10.48267125 53.42549875 -2.24134706875
37.0685353125 51.7619525 176.144965625 4.27394875 53.44502875 -1.38445373125
37.0476459375 51.624385 176.221471875 -1.93477375 53.46455875 -0.52756039375
37.0267565625 51.4868175 176.297978125 -8.14349625 53.48408875 0.32933294375
37.0058671875 51.34925 176.374484375 -14.35221875 53.50361875 1.18622628125
36.9849778125 51.2116825 176.450990625 -20.56094125 53.52314875 2.04311961875
36.9640884375 51.074115 176.527496875 -26.76966375 53.54267875 2.90001295625
37.2349171875 45.6539875 169.910359375 27.25610625 53.40773125 -4.91715021875
37.2746265625 45.630775 170.070453125 21.33631875 53.44588125 -4.00673815625
37.3143359375 45.6075625 170.230546875 15.41653125 53.48403125 -3.09632609375
37.3540453125 45.58435 170.390640625 9.49674375 53.52218125 -2.18591403125
37.3937546875 45.5611375 170.550734375 3.57695625 53.56033125 -1.27550196875
37.4334640625 45.537925 170.710828125 -2.34283125 53.59848125 -0.36508990625
37.4731734375 45.5147125 170.870921875 -8.26261875 53.63663125 0.54532215625
37.5128828125 45.4915 171.031015625 -14.18240625 53.67478125 1.45573421875
37.5525921875 45.4682875 171.191109375 -20.10219375 53.71293125 2.36614628125
37.5923015625 45.445075 171.351203125 -26.02198125 53.75108125 3.27655834375
37.3177415625 38.9957525 163.981778125 25.40337375 53.44855375 -5.02227335625
37.4180496875 39.086895 164.225459375 19.77252125 53.50532375 -4.05834256875
37.5183578125 39.1780375 164.469140625 14.14166875 53.56209375 -3.09441178125
37.6186659375 39.26918 164.712821875 8.51081625 53.61886375 -2.13048099375
37.7189740625 39.3603225 164.956503125 2.87996375 53.67563375 -1.16655020625
37.8192821875 39.451465 165.200184375 -2.75088875 53.73240375 -0.20261941875
37.9195903125 39.5426075 165.443865625 -8.38174125 53.78917375 0.761311368749999
38.0198984375 39.63375 165.687546875 -14.01259375 53.84594375 1.72524215625
38.1202065625 39.7248925 165.931228125 -19.64344625 53.90271375 2.68917294375
38.2205146875 39.816035 166.174909375 -25.27429875 53.95948375 3.65310373125
37.4005659375 32.3375175 158.053196875 23.55064125 53.48937625 -5.12739649375
37.5614728125 32.543015 158.380465625 18.20872375 53.56476625 -4.10994698125
37.7223796875 32.7485125 158.707734375 12.86680625 53.64015625 -3.09249746875
37.8832865625 32.95401 159.035003125 7.52488875 53.71554625 -2.07504795625
38.0441934375 33.1595075 159.362271875 2.18297125 53.79093625 -1.05759844375
38.2051003125 33.365005 159.689540625 -3.15894625 53.86632625 -0.0401489312500003
38.3660071875 33.5705025 160.016809375 -8.50086375 53.94171625 0.97730058125
38.5269140625 33.776 160.344078125 -13.84278125 54.01710625 1.99475009375
38.6878209375 33.9814975 160.671346875 -19.18469875 54.09249625 3.01219960625
38.8487278125 34.186995 160.998615625 -24.52661625 54.16788625 4.02964911875
37.4833903125 25.6792825 152.124615625 21.69790875 53.53019875 -5.23251963125
37.7048959375 25.999135 152.535471875 16.64492625 53.62420875 -4.16155139375
37.9264015625 26.3189875 152.946328125 11.59194375 53.71821875 -3.09058315625
38.1479071875 26.63884 153.357184375 6.53896125 53.81222875 -2.01961491875
38.3694128125 26.9586925 153.768040625 1.48597875 53.90623875 -0.94864668125
38.5909184375 27.278545 154.178896875 -3.56700375 54.00024875 0.12232155625
38.8124240625 27.5983975 154.589753125 -8.61998625 54.09425875 1.19328979375
39.0339296875 27.91825 155.000609375 -13.67296875 54.18826875 2.26425803125
39.2554353125 28.2381025 155.411465625 -18.72595125 54.28227875 3.33522626875
39.4769409375 28.557955 155.822321875 -23.77893375 54.37628875 4.40619450625
37.5662146875 19.0210475 146.196034375 19.84517625 53.57102125 -5.33764276875
37.8483190625 19.455255 146.690478125 15.08112875 53.68365125 -4.21315580625
38.1304234375 19.8894625 147.184921875 10.31708125 53.79628125 -3.08866884375
38.4125278125 20.32367 147.679365625 5.55303375 53.90891125 -1.96418188125
38.6946321875 20.7578775 148.173809375 0.78898625 54.02154125 -0.839694918750001
38.9767365625 21.192085 148.668253125 -3.97506125 54.13417125 0.28479204375
39.2588409375 21.6262925 149.162696875 -8.73910875 54.24680125 1.40927900625
39.5409453125 22.0605 149.657140625 -13.50315625 54.35943125 2.53376596875
39.8230496875 22.4947075 150.151584375 -18.26720375 54.47206125 3.65825293125
40.1051540625 22.928915 150.646028125 -23.03125125 54.58469125 4.78273989375
37.6490390625 12.3628125 140.267453125 17.99244375 53.61184375 -5.44276590625
37.9917421875 12.911375 140.845484375 13.51733125 53.74309375 -4.26476021875
38.3344453125 13.4599375 141.423515625 9.04221875 53.87434375 -3.08675453125
38.6771484375 14.0085 142.001546875 4.56710625 54.00559375 -1.90874884375
39.0198515625 14.5570625 142.579578125 0.0919937500000005 54.13684375 -0.730743156250001
39.3625546875 15.105625 143.157609375 -4.38311875 54.26809375 0.44726253125
39.7052578125 15.6541875 143.735640625 -8.85823125 54.39934375 1.62526821875
40.0479609375 16.20275 144.313671875 -13.33334375 54.53059375 2.80327390625
40.3906640625 16.7513125 144.891703125 -17.80845625 54.66184375 3.98127959375
40.7333671875 17.299875 145.469734375 -22.28356875 54.79309375 5.15928528125
37.7318634375 5.7045775 134.338871875 16.13971125 53.65266625 -5.54788904375
38.1351653125 6.367495 135.000490625 11.95353375 53.80253625 -4.31636463125
38.5384671875 7.0304125 135.662109375 7.76735625 53.95240625 -3.08484021875
38.9417690625 7.69333 136.323728125 3.58117875 54.10227625 -1.85331580625
39.3450709375 8.3562475 136.985346875 -0.604998750000001 54.25214625 -0.62179139375
39.7483728125 9.019165 137.646965625 -4.79117625 54.40201625 0.609733018749999
40.1516746875 9.6820825 138.308584375 -8.97735375 54.55188625 1.84125743125
40.5549765625 10.345 138.970203125 -13.16353125 54.70175625 3.07278184375
40.9582784375 11.0079175 139.631821875 -17.34970875 54.85162625 4.30430625625
41.3615803125 11.670835 140.293440625 -21.53588625 55.00149625 5.53583066875
37.8146878125 -0.953657499999998 128.410290625 14.28697875 53.69348875 -5.65301218125
38.2785884375 -0.176384999999997 129.155496875 10.38973625 53.86197875 -4.36796904375
38.7424890625 0.600887500000004 129.900703125 6.49249375 54.03046875 -3.08292590625
39.2063896875 1.37816 130.645909375 2.59525125 54.19895875 -1.79788276875
39.6702903125 2.1554325 131.391115625 -1.30199125 54.36744875 -0.512839631250001
40.1341909375 2.932705 132.136321875 -5.19923375 54.53593875 0.772203506249999
40.5980915625 3.7099775 132.881528125 -9.09647625 54.70442875 2.05724664375
41.0619921875 4.48725 133.626734375 -12.99371875 54.87291875 3.34228978125
41.5258928125 5.2645225 134.371940625 -16.89096125 55.04140875 4.62733291875
41.9897934375 6.041795 135.117146875 -20.78820375 55.20989875 5.91237605625
49.6424275 96.6174298125 362.43671625 39.78706700625 -200.844998 2.4279919675
51.3934625 101.1864794375 363.65887375 29.56199376875 -200.7657315 2.2814864025
53.1444975 105.7555290625 364.88103125 19.33692053125 -200.686465 2.1349808375
54.8955325 110.3245786875 366.10318875 9.11184729375 -200.6071985 1.9884752725
56.6465675 114.8936283125 367.32534625 -1.11322594375 -200.527932 1.8419697075
58.3976025 119.4626779375 368.54750375 -11.33829918125 -200.4486655 1.6954641425
60.1486375 124.0317275625 369.76966125 -21.56337241875 -200.369399 1.5489585775
61.8996725 128.6007771875 370.99181875 -31.78844565625 -200.2901325 1.4024530125
63.6507075 133.1698268125 372.21397625 -42.01351889375 -200.210866 1.2559474475
65.4017425 137.7388764375 373.43613375 -52.23859213125 -200.1315995 1.1094418825
49.0236675 102.8154219375 358.51404875 40.86569126875 -174.134374 1.7257042025
50.5163425 106.7522358125 359.51732125 30.71336205625 -174.0898345 1.6340041075
52.0090175 110.6890496875 360.52059375 20.56103284375 -174.045295 1.5423040125
53.5016925 114.6258635625 361.52386625 10.40870363125 -174.0007555 1.4506039175
54.9943675 118.5626774375 362.52713875 0.256374418750002 -173.956216 1.3589038225
56.4870425 122.4994913125 363.53041125 -9.89595479375 -173.9116765 1.2672037275
57.9797175 126.4363051875 364.53368375 -20.04828400625 -173.867137 1.1755036325
59.4723925 130.3731190625 365.53695625 -30.20061321875 -173.8225975 1.0838035375
60.9650675 134.3099329375 366.54022875 -40.35294243125 -173.778058 0.9921034425
62.4577425 138.2467468125 367.54350125 -50.50527164375 -173.7335185 0.9004033475
48.4049075 109.0134140625 354.59138125 41.94431553125 -147.42375 1.0234164375
49.6392225 112.3179921875 355.37576875 31.86473034375 -147.4139375 0.9865218125
50.8735375 115.6225703125 356.16015625 21.78514515625 -147.404125 0.9496271875
52.1078525 118.9271484375 356.94454375 11.70555996875 -147.3943125 0.9127325625
53.3421675 122.2317265625 357.72893125 1.62597478125 -147.3845 0.8758379375
54.5764825 125.5363046875 358.51331875 -8.45361040625 -147.3746875 0.8389433125
55.8107975 128.8408828125 359.29770625 -18.53319559375 -147.364875 0.8020486875
57.0451125 132.1454609375 360.08209375 -28.61278078125 -147.3550625 0.7651540625
58.2794275 135.4500390625 360.86648125 -38.69236596875 -147.34525 0.7282594375
59.5137425 138.7546171875 361.65086875 -48.77195115625 -147.3354375 0.6913648125
47.7861475 115.2114061875 350.66871375 43.02293979375 -120.713126 0.3211286725
48.7621025 117.8837485625 351.23421625 33.01609863125 -120.7380405 0.339039517500001
49.7380575 120.5560909375 351.79971875 23.00925746875 -120.762955 0.3569503625
50.7140125 123.2284333125 352.36522125 13.00241630625 -120.7878695 0.3748612075
51.6899675 125.9007756875 352.93072375 2.99557514375 -120.812784 0.3927720525
52.6659225 128.5731180625 353.49622625 -7.01126601875 -120.8376985 0.4106828975
53.6418775 131.2454604375 354.06172875 -17.01810718125 -120.862613 0.4285937425
54.6178325 133.9178028125 354.62723125 -27.02494834375 -120.8875275 0.4465045875
55.5937875 136.5901451875 355.19273375 -37.03178950625 -120.912442 0.4644154325
56.5697425 139.2624875625 355.75823625 -47.03863066875 -120.9373565 0.4823262775
47.1673875 121.4093983125 346.74604625 44.10156405625 -94.002502 -0.3811590925
47.8849825 123.4495049375 347.09266375 34.16746691875 -94.0621435 -0.3084427775
48.6025775 125.4896115625 347.43928125 24.23336978125 -94.121785 -0.2357264625
49.3201725 127.5297181875 347.78589875 14.29927264375 -94.1814265 -0.1630101475
50.0377675 129.5698248125 348.13251625 4.36517550625 -94.241068 -0.0902938325000001
50.7553625 131.6099314375 348.47913375 -5.56892163125 -94.3007095 -0.0175775175000002
51.4729575 133.6500380625 348.82575125 -15.50301876875 -94.360351 0.0551387974999999
52.1905525 135.6901446875 349.17236875 -25.43711590625 -94.4199925 0.1278551125
52.9081475 137.7302513125 349.51898625 -35.37121304375 -94.479634 0.2005714275
53.6257425 139.7703579375 349.86560375 -45.30531018125 -94.5392755 0.2732877425
46.5486275 127.6073904375 342.82337875 45.18018831875 -67.291878 -1.0834468575
47.0078625 129.0152613125 342.95111125 35.31883520625 -67.3862465 -0.9559250725
47.4670975 130.4231321875 343.07884375 25.45748209375 -67.480615 -0.8284032875
47.9263325 131.8310030625 343.20657625 15.59612898125 -67.5749835 -0.7008815025
48.3855675 133.2388739375 343.33430875 5.73477586875 -67.669352 -0.5733597175
48.8448025 134.6467448125 343.46204125 -4.12657724375 -67.7637205 -0.4458379325
49.3040375 136.0546156875 343.58977375 -13.98793035625 -67.858089 -0.3183161475
49.7632725 137.4624865625 343.71750625 -23.84928346875 -67.9524575 -0.1907943625
50.2225075 138.8703574375 343.84523875 -33.71063658125 -68.046826 -0.0632725775000003
50.6817425 140.2782283125 343.97297125 -43.57198969375 -68.1411945 0.0642492074999997
45.9298675 133.8053825625 338.90071125 46.25881258125 -40.581254 -1.7857346225
46.1307425 134.5810176875 338.80955875 36.47020349375 -40.7103495 -1.6034073675
46.3316175 135.3566528125 338.71840625 26.68159440625 -40.839445 -1.4210801125
46.5324925 136.1322879375 338.62725375 16.89298531875 -40.9685405 -1.2387528575
46.7333675 136.9079230625 338.53610125 7.10437623125 -41.097636 -1.0564256025
46.9342425 137.6835581875 338.44494875 -2.68423285625 -41.2267315 -0.8740983475
47.1351175 138.4591933125 338.35379625 -12.47284194375 -41.355827 -0.6917710925
47.3359925 139.2348284375 338.26264375 -22.26145103125 -41.4849225 -0.5094438375
47.5368675 140.0104635625 338.17149125 -32.05006011875 -41.614018 -0.3271165825
47.7377425 140.7860986875 338.08033875 -41.83866920625 -41.7431135 -0.1447893275
45.3111075 140.0033746875 334.97804375 47.33743684375 -13.87063 -2.4880223875
45.2536225 140.1467740625 334.66800625 37.62157178125 -14.0344525 -2.2508896625
45.1961375 140.2901734375 334.35796875 27.90570671875 -14.198275 -2.0137569375
45.1386525 140.4335728125 334.04793125 18.18984165625 -14.3620975 -1.7766242125
45.0811675 140.5769721875 333.73789375 8.47397659375 -14.52592 -1.5394914875
45.0236825 140.7203715625 333.42785625 -1.24188846875 -14.6897425 -1.3023587625
44.9661975 140.8637709375 333.11781875 -10.95775353125 -14.853565 -1.0652260375
44.9087125 141.0071703125 332.80778125 -20.67361859375 -15.0173875 -0.8280933125
44.8512275 141.1505696875 332.49774375 -30.38948365625 -15.18121 -0.5909605875
44.7937425 141.2939690625 332.18770625 -40.10534871875 -15.3450325 -0.3538278625
44.6923475 146.2013668125 331.05537625 48.41606110625 12.839994 -3.1903101525
44.3765025 145.7125304375 330.52645375 38.77294006875 12.6414445 -2.8983719575
44.0606575 145.2236940625 329.99753125 29.12981903125 12.442895 -2.6064337625
43.7448125 144.7348576875 329.46860875 19.48669799375 12.2443455 -2.3144955675
43.4289675 144.2460213125 328.93968625 9.84357695625 12.045796 -2.0225573725
43.1131225 143.7571849375 328.41076375 0.200455918750001 11.8472465 -1.7306191775
42.7972775 143.2683485625 327.88184125 -9.44266511875 11.648697 -1.4386809825
42.4814325 142.7795121875 327.35291875 -19.08578615625 11.4501475 -1.1467427875
42.1655875 142.2906758125 326.82399625 -28.72890719375 11.251598 -0.8548045925
41.8497425 141.8018394375 326.29507375 -38.37202823125 11.0530485 -0.5628663975
44.0735875 152.3993589375 327.13270875 49.49468536875 39.550618 -3.8925979175
43.4993825 151.2782868125 326.38490125 39.92430835625 39.3173415 -3.5458542525
42.9251775 150.1572146875 325.63709375 30.35393134375 39.084065 -3.1991105875
42.3509725 149.0361425625 324.88928625 20.78355433125 38.8507885 -2.8523669225
41.7767675 147.9150704375 324.14147875 11.21317731875 38.617512 -2.5056232575
41.2025625 146.7939983125 323.39367125 1.64280030625 38.3842355 -2.1588795925
40.6283575 145.6729261875 322.64586375 -7.92757670625 38.150959 -1.8121359275
40.0541525 144.5518540625 321.89805625 -17.49795371875 37.9176825 -1.4653922625
39.4799475 143.4307819375 321.15024875 -27.06833073125 37.684406 -1.1186485975
38.9057425 142.3097098125 320.40244125 -36.63870774375 37.4511295 -0.7719049325
43.8104713125 151.8857625 321.251825625 49.12185875 52.86862125 -4.30577096125
43.1383189375 150.506635 320.438701875 39.73229625 52.62987625 -3.90217938375
42.4661665625 149.1275075 319.625578125 30.34273375 52.39113125 -3.49858780625
41.7940141875 147.74838 318.812454375 20.95317125 52.15238625 -3.09499622875
41.1218618125 146.3692525 317.999330625 11.56360875 51.91364125 -2.69140465125
40.4497094375 144.990125 317.186206875 2.17404625 51.67489625 -2.28781307375
39.7775570625 143.6109975 316.373083125 -7.21551625 51.43615125 -1.88422149625
39.1054046875 142.23187 315.559959375 -16.60507875 51.19740625 -1.48062991875
38.4332523125 140.8527425 314.746835625 -25.99464125 50.95866125 -1.07703834125
37.7610999375 139.473615 313.933711875 -35.38420375 50.71991625 -0.67344676375
43.9029989375 144.6605775 313.412726875 47.29758125 52.79400375 -4.42982928375
43.2933118125 143.397575 312.687855625 38.19690375 52.57904875 -3.96734735125
42.6836246875 142.1345725 311.962984375 29.09622625 52.36409375 -3.50486541875
42.0739375625 140.87157 311.238113125 19.99554875 52.14913875 -3.04238348625
41.4642504375 139.6085675 310.513241875 10.89487125 51.93418375 -2.57990155375
40.8545633125 138.345565 309.788370625 1.79419375 51.71922875 -2.11741962125
40.2448761875 137.0825625 309.063499375 -7.30648375 51.50427375 -1.65493768875
39.6351890625 135.81956 308.338628125 -16.40716125 51.28931875 -1.19245575625
39.0255019375 134.5565575 307.613756875 -25.50783875 51.07436375 -0.72997382375
38.4158148125 133.293555 306.888885625 -34.60851625 50.85940875 -0.26749189125
43.9955265625 137.4353925 305.573628125 45.47330375 52.71938625 -4.55388760625
43.4483046875 136.288515 304.937009375 36.66151125 52.52822125 -4.03251531875
42.9010828125 135.1416375 304.300390625 27.84971875 52.33705625 -3.51114303125
42.3538609375 133.99476 303.663771875 19.03792625 52.14589125 -2.98977074375
41.8066390625 132.8478825 303.027153125 10.22613375 51.95472625 -2.46839845625
41.2594171875 131.701005 302.390534375 1.41434125 51.76356125 -1.94702616875
40.7121953125 130.5541275 301.753915625 -7.39745125 51.57239625 -1.42565388125
40.1649734375 129.40725 301.117296875 -16.20924375 51.38123125 -0.90428159375
39.6177515625 128.2603725 300.480678125 -25.02103625 51.19006625 -0.38290930625
39.0705296875 127.113495 299.844059375 -33.83282875 50.99890125 0.13846298125
44.0880541875 130.2102075 297.734529375 43.64902625 52.64476875 -4.67794592875
43.6032975625 129.179455 297.186163125 35.12611875 52.47739375 -4.09768328625
43.1185409375 128.1487025 296.637796875 26.60321125 52.31001875 -3.51742064375
42.6337843125 127.11795 296.089430625 18.08030375 52.14264375 -2.93715800125
42.1490276875 126.0871975 295.541064375 9.55739625 51.97526875 -2.35689535875
41.6642710625 125.056445 294.992698125 1.03448875 51.80789375 -1.77663271625
41.1795144375 124.0256925 294.444331875 -7.48841875 51.64051875 -1.19637007375
40.6947578125 122.99494 293.895965625 -16.01132625 51.47314375 -0.61610743125
40.2100011875 121.9641875 293.347599375 -24.53423375 51.30576875 -0.0358447887500005
39.7252445625 120.933435 292.799233125 -33.05714125 51.13839375 0.54441785375
44.1805818125 122.9850225 289.895430625 41.82474875 52.57015125 -4.80200425125
43.7582904375 122.070395 289.435316875 33.59072625 52.42656625 -4.16285125375
43.3359990625 121.1557675 288.975203125 25.35670375 52.28298125 -3.52369825625
42.9137076875 120.24114 288.515089375 17.12268125 52.13939625 -2.88454525875
42.4914163125 119.3265125 288.054975625 8.88865875 51.99581125 -2.24539226125
42.0691249375 118.411885 287.594861875 0.654636250000003 51.85222625 -1.60623926375
41.6468335625 117.4972575 287.134748125 -7.57938625 51.70864125 -0.96708626625
41.2245421875 116.58263 286.674634375 -15.81340875 51.56505625 -0.32793326875
40.8022508125 115.6680025 286.214520625 -24.04743125 51.42147125 0.311219728749999
40.3799594375 114.753375 285.754406875 -32.28145375 51.27788625 0.95037272625
44.2731094375 115.7598375 282.056331875 40.00047125 52.49553375 -4.92606257375
43.9132833125 114.961335 281.684470625 32.05533375 52.37573875 -4.22801922125
43.5534571875 114.1628325 281.312609375 24.11019625 52.25594375 -3.52997586875
43.1936310625 113.36433 280.940748125 16.16505875 52.13614875 -2.83193251625
42.8338049375 112.5658275 280.568886875 8.21992125 52.01635375 -2.13388916375
42.4739788125 111.767325 280.197025625 0.274783750000001 51.89655875 -1.43584581125
42.1141526875 110.9688225 279.825164375 -7.67035375 51.77676375 -0.73780245875
41.7543265625 110.17032 279.453303125 -15.61549125 51.65696875 -0.0397591062500003
41.3945004375 109.3718175 279.081441875 -23.56062875 51.53717375 0.65828424625
41.0346743125 108.573315 278.709580625 -31.50576625 51.41737875 1.35632759875
44.3656370625 108.5346525 274.217233125 38.17619375 52.42091625 -5.05012089625
44.0682761875 107.852275 273.933624375 30.51994125 52.32491125 -4.29318718875
43.7709153125 107.1698975 273.650015625 22.86368875 52.22890625 -3.53625348125
43.4735544375 106.48752 273.366406875 15.20743625 52.13290125 -2.77931977375
43.1761935625 105.8051425 273.082798125 7.55118375 52.03689625 -2.02238606625
42.8788326875 105.122765 272.799189375 -0.105068749999997 51.94089125 -1.26545235875
42.5814718125 104.4403875 272.515580625 -7.76132125 51.84488625 -0.50851865125
42.2841109375 103.75801 272.231971875 -15.41757375 51.74888125 0.24841505625
41.9867500625 103.0756325 271.948363125 -23.07382625 51.65287625 1.00534876375
41.6893891875 102.393255 271.664754375 -30.73007875 51.55687125 1.76228247125
44.4581646875 101.3094675 266.378134375 36.35191625 52.34629875 -5.17417921875
44.2232690625 100.743215 266.182778125 28.98454875 52.27408375 -4.35835515625
43.9883734375 100.1769625 265.987421875 21.61718125 52.20186875 -3.54253109375
43.7534778125 99.61071 265.792065625 14.24981375 52.12965375 -2.72670703125
43.5185821875 99.0444575 265.596709375 6.88244625 52.05743875 -1.91088296875
43.2836865625 98.478205 265.401353125 -0.48492125 51.98522375 -1.09505890625
43.0487909375 97.9119525 265.205996875 -7.85228875 51.91300875 -0.27923484375
42.8138953125 97.3457 265.010640625 -15.21965625 51.84079375 0.53658921875
42.5789996875 96.7794475 264.815284375 -22.58702375 51.76857875 1.35241328125
42.3441040625 96.213195 264.619928125 -29.95439125 51.69636375 2.16823734375
44.5506923125 94.0842825 258.539035625 34.52763875 52.27168125 -5.29823754125
44.3782619375 93.634155 258.431931875 27.44915625 52.22325625 -4.42352312375
44.2058315625 93.1840275 258.324828125 20.37067375 52.17483125 -3.54880870625
44.0334011875 92.7339 258.217724375 13.29219125 52.12640625 -2.67409428875
43.8609708125 92.2837725 258.110620625 6.21370875 52.07798125 -1.79937987125
43.6885404375 91.833645 258.003516875 -0.864773750000001 52.02955625 -0.92466545375
43.5161100625 91.3835175 257.896413125 -7.94325625 51.98113125 -0.0499510362500006
43.3436796875 90.93339 257.789309375 -15.02173875 51.93270625 0.82476338125
43.1712493125 90.4832625 257.682205625 -22.10022125 51.88428125 1.69947779875
42.9988189375 90.033135 257.575101875 -29.17870375 51.83585625 2.57419221625
44.6432199375 86.8590975 250.699936875 32.70336125 52.19706375 -5.42229586375
44.5332548125 86.525095 250.681085625 25.91376375 52.17242875 -4.48869109125
44.4232896875 86.1910925 250.662234375 19.12416625 52.14779375 -3.55508631875
44.3133245625 85.85709 250.643383125 12.33456875 52.12315875 -2.62148154625
44.2033594375 85.5230875 250.624531875 5.54497125 52.09852375 -1.68787677375
44.0933943125 85.189085 250.605680625 -1.24462625 52.07388875 -0.75427200125
43.9834291875 84.8550825 250.586829375 -8.03422375 52.04925375 0.17933277125
43.8734640625 84.52108 250.567978125 -14.82382125 52.02461875 1.11293754375
43.7634989375 84.1870775 250.549126875 -21.61341875 51.99998375 2.04654231625
43.6535338125 83.853075 250.530275625 -28.40301625 51.97534875 2.98014708875
44.7357475625 79.6339125 242.860838125 30.87908375 52.12244625 -5.54635418625
44.6882476875 79.416035 242.930239375 24.37837125 52.12160125 -4.55385905875
44.6407478125 79.1981575 242.999640625 17.87765875 52.12075625 -3.56136393125
44.5932479375 78.98028 243.069041875 11.37694625 52.11991125 -2.56886880375
44.5457480625 78.7624025 243.138443125 4.87623375 52.11906625 -1.57637367625
44.4982481875 78.544525 243.207844375 -1.62447875 52.11822125 -0.58387854875
44.4507483125 78.3266475 243.277245625 -8.12519125 52.11737625 0.40861657875
44.4032484375 78.10877 243.346646875 -14.62590375 52.11653125 1.40111170625
44.3557485625 77.8908925 243.416048125 -21.12661625 52.11568625 2.39360683375
44.3082486875 77.673015 243.485449375 -27.62732875 52.11484125 3.38610196125
44.8282751875 72.4087275 235.021739375 29.05480625 52.04782875 -5.67041250875
44.8432405625 72.306975 235.179393125 22.84297875 52.07077375 -4.61902702625
44.8582059375 72.2052225 235.337046875 16.63115125 52.09371875 -3.56764154375
44.8731713125 72.10347 235.494700625 10.41932375 52.11666375 -2.51625606125
44.8881366875 72.0017175 235.652354375 4.20749625 52.13960875 -1.46487057875
44.9031020625 71.899965 235.810008125 -2.00433125 52.16255375 -0.41348509625
44.9180674375 71.7982125 235.967661875 -8.21615875 52.18549875 0.63790038625
44.9330328125 71.69646 236.125315625 -14.42798625 52.20844375 1.68928586875
44.9479981875 71.5947075 236.282969375 -20.63981375 52.23138875 2.74067135125
44.9629635625 71.492955 236.440623125 -26.85164125 52.25433375 3.79205683375
44.9208028125 65.1835425 227.182640625 27.23052875 51.97321125 -5.79447083125
44.9982334375 65.197915 227.428546875 21.30758625 52.01994625 -4.68419499375
45.0756640625 65.2122875 227.674453125 15.38464375 52.06668125 -3.57391915625
45.1530946875 65.22666 227.920359375 9.46170125 52.11341625 -2.46364331875
45.2305253125 65.2410325 228.166265625 3.53875875 52.16015125 -1.35336748125
45.3079559375 65.255405 228.412171875 -2.38418375 52.20688625 -0.24309164375
45.3853865625 65.2697775 228.658078125 -8.30712625 52.25362125 0.867184193749999
45.4628171875 65.28415 228.903984375 -14.23006875 52.30035625 1.97746003125
45.5402478125 65.2985225 229.149890625 -20.15301125 52.34709125 3.08773586875
45.6176784375 65.312895 229.395796875 -26.07595375 52.39382625 4.19801170625
45.0133304375 57.9583575 219.343541875 25.40625125 51.89859375 -5.91852915375
45.1532263125 58.088855 219.677700625 19.77219375 51.96911875 -4.74936296125
45.2931221875 58.2193525 220.011859375 14.13813625 52.03964375 -3.58019676875
45.4330180625 58.34985 220.346018125 8.50407875 52.11016875 -2.41103057625
45.5729139375 58.4803475 220.680176875 2.87002125 52.18069375 -1.24186438375
45.7128098125 58.610845 221.014335625 -2.76403625 52.25121875 -0.0726981912500009
45.8527056875 58.7413425 221.348494375 -8.39809375 52.32174375 1.09646800125
45.9926015625 58.87184 221.682653125 -14.03215125 52.39226875 2.26563419375
46.1324974375 59.0023375 222.016811875 -19.66620875 52.46279375 3.43480038625
46.2723933125 59.132835 222.350970625 -25.30026625 52.53331875 4.60396657875
45.1058580625 50.7331725 211.504443125 23.58197375 51.82397625 -6.04258747625
45.3082191875 50.979795 211.926854375 18.23680125 51.91829125 -4.81453092875
45.5105803125 51.2264175 212.349265625 12.89162875 52.01260625 -3.58647438125
45.7129414375 51.47304 212.771676875 7.54645625 52.10692125 -2.35841783375
45.9153025625 51.7196625 213.194088125 2.20128375 52.20123625 -1.13036128625
46.1176636875 51.966285 213.616499375 -3.14388875 52.29555125 0.0976952612499995
46.3200248125 52.2129075 214.038910625 -8.48906125 52.38986625 1.32575180875
46.5223859375 52.45953 214.461321875 -13.83423375 52.48418125 2.55380835625
46.7247470625 52.7061525 214.883733125 -19.17940625 52.57849625 3.78186490375
46.9271081875 52.952775 215.306144375 -24.52457875 52.67281125 5.00992145125
45.1983856875 43.5079875 203.665344375 21.75769625 51.74935875 -6.16664579875
45.4632120625 43.870735 204.176008125 16.70140875 51.86746375 -4.87969889625
45.7280384375 44.2334825 204.686671875 11.64512125 51.98556875 -3.59275199375
45.9928648125 44.59623 205.197335625 6.58883375 52.10367375 -2.30580509125
46.2576911875 44.9589775 205.707999375 1.53254625 52.22177875 -1.01885818875
46.5225175625 45.321725 206.218663125 -3.52374125 52.33988375 0.268088713749999
46.7873439375 45.6844725 206.729326875 -8.58002875 52.45798875 1.55503561625
47.0521703125 46.04722 207.239990625 -13.63631625 52.57609375 2.84198251875
47.3169966875 46.4099675 207.750654375 -18.69260375 52.69419875 4.12892942125
47.5818230625 46.772715 208.261318125 -23.74889125 52.81230375 5.41587632375
45.2909133125 36.2828025 195.826245625 19.93341875 51.67474125 -6.29070412125
45.6182049375 36.761675 196.425161875 15.16601625 51.81663625 -4.94486686375
45.9454965625 37.2405475 197.024078125 10.39861375 51.95853125 -3.59902960625
46.2727881875 37.71942 197.622994375 5.63121125 52.10042625 -2.25319234875
46.6000798125 38.1982925 198.221910625 0.863808750000001 52.24232125 -0.907355091250001
46.9273714375 38.677165 198.820826875 -3.90359375 52.38421625 0.43848216625
47.2546630625 39.1560375 199.419743125 -8.67099625 52.52611125 1.78431942375
47.5819546875 39.63491 200.018659375 -13.43839875 52.66800625 3.13015668125
47.9092463125 40.1137825 200.617575625 -18.20580125 52.80990125 4.47599393875
48.2365379375 40.592655 201.216491875 -22.97320375 52.95179625 5.82183119625
45.3834409375 29.0576175 187.987146875 18.10914125 51.60012375 -6.41476244375
45.7731978125 29.652615 188.674315625 13.63062375 51.76580875 -5.01003483125
46.1629546875 30.2476125 189.361484375 9.15210625 51.93149375 -3.60530721875
46.5527115625 30.84261 190.048653125 4.67358875 52.09717875 -2.20057960625
46.9424684375 31.4376075 190.735821875 0.19507125 52.26286375 -0.795851993750001
47.3322253125 32.032605 191.422990625 -4.28344625 52.42854875 0.60887561875
47.7219821875 32.6276025 192.110159375 -8.76196375 52.59423375 2.01360323125
48.1117390625 33.2226 192.797328125 -13.24048125 52.75991875 3.41833084375
48.5014959375 33.8175975 193.484496875 -17.71899875 52.92560375 4.82305845625
48.8912528125 34.412595 194.171665625 -22.19751625 53.09128875 6.22778606875
45.4759685625 21.8324325 180.148048125 16.28486375 51.52550625 -6.53882076625
45.9281906875 22.543555 180.923469375 12.09523125 51.71498125 -5.07520279875
46.3804128125 23.2546775 181.698890625 7.90559875 51.90445625 -3.61158483125
46.8326349375 23.9658 182.474311875 3.71596625 52.09393125 -2.14796686375
47.2848570625 24.6769225 183.249733125 -0.47366625 52.28340625 -0.684348896250001
47.7370791875 25.388045 184.025154375 -4.66329875 52.47288125 0.779269071249999
48.1893013125 26.0991675 184.800575625 -8.85293125 52.66235625 2.24288703875
48.6415234375 26.81029 185.575996875 -13.04256375 52.85183125 3.70650500625
49.0937455625 27.5214125 186.351418125 -17.23219625 53.04130625 5.17012297375
49.5459676875 28.232535 187.126839375 -21.42182875 53.23078125 6.63374094125
45.5684961875 14.6072475 172.308949375 14.46058625 51.45088875 -6.66287908875
46.0831835625 15.434495 173.172623125 10.55983875 51.66415375 -5.14037076625
46.5978709375 16.2617425 174.036296875 6.65909125 51.87741875 -3.61786244375
47.1125583125 17.08899 174.899970625 2.75834375 52.09068375 -2.09535412125
47.6272456875 17.9162375 175.763644375 -1.14240375 52.30394875 -0.57284579875
48.1419330625 18.743485 176.627318125 -5.04315125 52.51721375 0.949662523749999
48.6566204375 19.5707325 177.490991875 -8.94389875 52.73047875 2.47217084625
49.1713078125 20.39798 178.354665625 -12.84464625 52.94374375 3.99467916875
49.6859951875 21.2252275 179.218339375 -16.74539375 53.15700875 5.51718749125
50.2006825625 22.052475 180.082013125 -20.64614125 53.37027375 7.03969581375
64.2739775 131.6633974375 464.72326375 41.19585066875 -199.6978385 2.4740837725
66.0205925 136.2304223125 465.92836625 30.96871625625 -199.717628 2.4090648175
67.7672075 140.7974471875 467.13346875 20.74158184375 -199.7374175 2.3440458625
69.5138225 145.3644720625 468.33857125 10.51444743125 -199.757207 2.2790269075
71.2604375 149.9314969375 469.54367375 0.287313018750001 -199.7769965 2.2140079525
73.0070525 154.4985218125 470.74877625 -9.93982139375 -199.796786 2.1489889975
74.7536675 159.0655466875 471.95387875 -20.16695580625 -199.8165755 2.0839700425
76.5002825 163.6325715625 473.15898125 -30.39409021875 -199.836365 2.0189510875
78.2468975 168.1995964375 474.36408375 -40.62122463125 -199.8561545 1.9539321325
79.9935125 172.7666213125 475.56918625 -50.84835904375 -199.875944 1.8889131775
62.9113275 136.9740698125 458.57609125 42.08604875625 -173.1070755 1.6995094175
64.4015625 140.9106994375 459.56699875 31.93160901875 -173.157064 1.6946887525
65.8917975 144.8473290625 460.55790625 21.77716928125 -173.2070525 1.6898680875
67.3820325 148.7839586875 461.54881375 11.62272954375 -173.257041 1.6850474225
68.8722675 152.7205883125 462.53972125 1.46828980625 -173.3070295 1.6802267575
70.3625025 156.6572179375 463.53062875 -8.68614993125 -173.357018 1.6754060925
71.8527375 160.5938475625 464.52153625 -18.84058966875 -173.4070065 1.6705854275
73.3429725 164.5304771875 465.51244375 -28.99502940625 -173.456995 1.6657647625
74.8332075 168.4671068125 466.50335125 -39.14946914375 -173.5069835 1.6609440975
76.3234425 172.4037364375 467.49425875 -49.30390888125 -173.556972 1.6561234325
61.5486775 142.2847421875 452.42891875 42.97624684375 -146.5163125 0.9249350625
62.7825325 145.5909765625 453.20563125 32.89450178125 -146.5965 0.9803126875
64.0163875 148.8972109375 453.98234375 22.81275671875 -146.6766875 1.0356903125
65.2502425 152.2034453125 454.75905625 12.73101165625 -146.756875 1.0910679375
66.4840975 155.5096796875 455.53576875 2.64926659375 -146.8370625 1.1464455625
67.7179525 158.8159140625 456.31248125 -7.43247846875 -146.91725 1.2018231875
68.9518075 162.1221484375 457.08919375 -17.51422353125 -146.9974375 1.2572008125
70.1856625 165.4283828125 457.86590625 -27.59596859375 -147.077625 1.3125784375
71.4195175 168.7346171875 458.64261875 -37.67771365625 -147.1578125 1.3679560625
72.6533725 172.0408515625 459.41933125 -47.75945871875 -147.238 1.4233336875
60.1860275 147.5954145625 446.28174625 43.86644493125 -119.9255495 0.150360707500001
61.1635025 150.2712536875 446.84426375 33.85739454375 -120.035936 0.2659366225
62.1409775 152.9470928125 447.40678125 23.84834415625 -120.1463225 0.3815125375
63.1184525 155.6229319375 447.96929875 13.83929376875 -120.256709 0.4970884525
64.0959275 158.2987710625 448.53181625 3.83024338125 -120.3670955 0.6126643675
65.0734025 160.9746101875 449.09433375 -6.17880700625 -120.477482 0.7282402825
66.0508775 163.6504493125 449.65685125 -16.18785739375 -120.5878685 0.8438161975
67.0283525 166.3262884375 450.21936875 -26.19690778125 -120.698255 0.9593921125
68.0058275 169.0021275625 450.78188625 -36.20595816875 -120.8086415 1.0749680275
68.9833025 171.6779666875 451.34440375 -46.21500855625 -120.919028 1.1905439425
58.8233775 152.9060869375 440.13457375 44.75664301875 -93.3347865 -0.6242136475
59.5444725 154.9515308125 440.48289625 34.82028730625 -93.475372 -0.4484394425
60.2655675 156.9969746875 440.83121875 24.88393159375 -93.6159575 -0.2726652375
60.9866625 159.0424185625 441.17954125 14.94757588125 -93.756543 -0.0968910324999999
61.7077575 161.0878624375 441.52786375 5.01122016875 -93.8971285 0.0788831725000001
62.4288525 163.1333063125 441.87618625 -4.92513554375 -94.037714 0.2546573775
63.1499475 165.1787501875 442.22450875 -14.86149125625 -94.1782995 0.4304315825
63.8710425 167.2241940625 442.57283125 -24.79784696875 -94.318885 0.6062057875
64.5921375 169.2696379375 442.92115375 -34.73420268125 -94.4594705 0.7819799925
65.3132325 171.3150818125 443.26947625 -44.67055839375 -94.600056 0.9577541975
57.4607275 158.2167593125 433.98740125 45.64684110625 -66.7440235 -1.3987880025
57.9254425 159.6318079375 434.12152875 35.78318006875 -66.914808 -1.1628155075
58.3901575 161.0468565625 434.25565625 25.91951903125 -67.0855925 -0.9268430125
58.8548725 162.4619051875 434.38978375 16.05585799375 -67.256377 -0.6908705175
59.3195875 163.8769538125 434.52391125 6.19219695625 -67.4271615 -0.4548980225
59.7843025 165.2920024375 434.65803875 -3.67146408125 -67.597946 -0.2189255275
60.2490175 166.7070510625 434.79216625 -13.53512511875 -67.7687305 0.0170469674999999
60.7137325 168.1220996875 434.92629375 -23.39878615625 -67.939515 0.2530194625
61.1784475 169.5371483125 435.06042125 -33.26244719375 -68.1102995 0.4889919575
61.6431625 170.9521969375 435.19454875 -43.12610823125 -68.281084 0.7249644525
56.0980775 163.5274316875 427.84022875 46.53703919375 -40.1532605 -2.1733623575
56.3064125 164.3120850625 427.76016125 36.74607283125 -40.354244 -1.8771915725
56.5147475 165.0967384375 427.68009375 26.95510646875 -40.5552275 -1.5810207875
56.7230825 165.8813918125 427.60002625 17.16414010625 -40.756211 -1.2848500025
56.9314175 166.6660451875 427.51995875 7.37317374375 -40.9571945 -0.9886792175
57.1397525 167.4506985625 427.43989125 -2.41779261875 -41.158178 -0.6925084325
57.3480875 168.2353519375 427.35982375 -12.20875898125 -41.3591615 -0.3963376475
57.5564225 169.0200053125 427.27975625 -21.99972534375 -41.560145 -0.1001668625
57.7647575 169.8046586875 427.19968875 -31.79069170625 -41.7611285 0.1960039225
57.9730925 170.5893120625 427.11962125 -41.58165806875 -41.962112 0.4921747075
54.7354275 168.8381040625 421.69305625 47.42723728125 -13.5624975 -2.9479367125
54.6873825 168.9923621875 421.39879375 37.70896559375 -13.79368 -2.5915676375
54.6393375 169.1466203125 421.10453125 27.99069390625 -14.0248625 -2.2351985625
54.5912925 169.3008784375 420.81026875 18.27242221875 -14.256045 -1.8788294875
54.5432475 169.4551365625 420.51600625 8.55415053125 -14.4872275 -1.5224604125
54.4952025 169.6093946875 420.22174375 -1.16412115625 -14.71841 -1.1660913375
54.4471575 169.7636528125 419.92748125 -10.88239284375 -14.9495925 -0.8097222625
54.3991125 169.9179109375 419.63321875 -20.60066453125 -15.180775 -0.4533531875
54.3510675 170.0721690625 419.33895625 -30.31893621875 -15.4119575 -0.0969841125
54.3030225 170.2264271875 419.04469375 -40.03720790625 -15.64314 0.2593849625
53.3727775 174.1487764375 415.54588375 48.31743536875 13.0282655 -3.7225110675
53.0683525 173.6726393125 415.03742625 38.67185835625 12.766884 -3.3059437025
52.7639275 173.1965021875 414.52896875 29.02628134375 12.5055025 -2.8893763375
52.4595025 172.7203650625 414.02051125 19.38070433125 12.244121 -2.4728089725
52.1550775 172.2442279375 413.51205375 9.73512731875 11.9827395 -2.0562416075
51.8506525 171.7680908125 413.00359625 0.0895503062500019 11.721358 -1.6396742425
51.5462275 171.2919536875 412.49513875 -9.55602670625 11.4599765 -1.2231068775
51.2418025 170.8158165625 411.98668125 -19.20160371875 11.198595 -0.8065395125
50.9373775 170.3396794375 411.47822375 -28.84718073125 10.9372135 -0.3899721475
50.6329525 169.8635423125 410.96976625 -38.49275774375 10.675832 0.0265952175000001
52.0101275 179.4594488125 409.39871125 49.20763345625 39.6190285 -4.4970854225
51.4493225 178.3529164375 408.67605875 39.63475111875 39.327448 -4.0203197675
50.8885175 177.2463840625 407.95340625 30.06186878125 39.0358675 -3.5435541125
50.3277125 176.1398516875 407.23075375 20.48898644375 38.744287 -3.0667884575
49.7669075 175.0333193125 406.50810125 10.91610410625 38.4527065 -2.5900228025
49.2061025 173.9267869375 405.78544875 1.34322176875 38.161126 -2.1132571475
48.6452975 172.8202545625 405.06279625 -8.22966056875 37.8695455 -1.6364914925
48.0844925 171.7137221875 404.34014375 -17.80254290625 37.577965 -1.1597258375
47.5236875 170.6071898125 403.61749125 -27.37542524375 37.2863845 -0.6829601825
46.9628825 169.5006574375 402.89483875 -36.94830758125 36.994804 -0.2061945275
51.3799179375 178.2187175 401.450316875 48.75482125 52.81938125 -4.95586935375
50.7230888125 176.855935 400.667025625 39.36270375 52.52718125 -4.41687356125
50.0662596875 175.4931525 399.883734375 29.97058625 52.23498125 -3.87787776875
49.4094305625 174.13037 399.100443125 20.57846875 51.94278125 -3.33888197625
48.7526014375 172.7675875 398.317151875 11.18635125 51.65058125 -2.79988618375
48.0957723125 171.404805 397.533860625 1.79423375 51.35838125 -2.26089039125
47.4389431875 170.0420225 396.750569375 -7.59788375 51.06618125 -1.72189459875
46.7821140625 168.67924 395.967278125 -16.99000125 50.77398125 -1.18289880625
46.1252849375 167.3164575 395.183986875 -26.38211875 50.48178125 -0.64390301375
45.4684558125 165.953675 394.400695625 -35.77423625 50.18958125 -0.10490722125
51.4821488125 170.4265825 391.700700625 46.95899875 52.62932375 -5.09886286125
50.8896514375 169.181695 391.010326875 37.85571625 52.36608375 -4.49560508375
50.2971540625 167.9368075 390.319953125 28.75243375 52.10284375 -3.89234730625
49.7046566875 166.69192 389.629579375 19.64915125 51.83960375 -3.28908952875
49.1121593125 165.4470325 388.939205625 10.54586875 51.57636375 -2.68583175125
48.5196619375 164.202145 388.248831875 1.44258625 51.31312375 -2.08257397375
47.9271645625 162.9572575 387.558458125 -7.66069625 51.04988375 -1.47931619625
47.3346671875 161.71237 386.868084375 -16.76397875 50.78664375 -0.87605841875
46.7421698125 160.4674825 386.177710625 -25.86726125 50.52340375 -0.27280064125
46.1496724375 159.222595 385.487336875 -34.97054375 50.26016375 0.33045713625
51.5843796875 162.6344475 381.951084375 45.16317625 52.43926625 -5.24185636875
51.0562140625 161.507455 381.353628125 36.34872875 52.20498625 -4.57433660625
50.5280484375 160.3804625 380.756171875 27.53428125 51.97070625 -3.90681684375
49.9998828125 159.25347 380.158715625 18.71983375 51.73642625 -3.23929708125
49.4717171875 158.1264775 379.561259375 9.90538625 51.50214625 -2.57177731875
48.9435515625 156.999485 378.963803125 1.09093875 51.26786625 -1.90425755625
48.4153859375 155.8724925 378.366346875 -7.72350875 51.03358625 -1.23673779375
47.8872203125 154.7455 377.768890625 -16.53795625 50.79930625 -0.56921803125
47.3590546875 153.6185075 377.171434375 -25.35240375 50.56502625 0.0983017312499998
46.8308890625 152.491515 376.573978125 -34.16685125 50.33074625 0.76582149375
51.6866105625 154.8423125 372.201468125 43.36735375 52.24920875 -5.38484987625
51.2227766875 153.833215 371.696929375 34.84174125 52.04388875 -4.65306812875
50.7589428125 152.8241175 371.192390625 26.31612875 51.83856875 -3.92128638125
50.2951089375 151.81502 370.687851875 17.79051625 51.63324875 -3.18950463375
49.8312750625 150.8059225 370.183313125 9.26490375 51.42792875 -2.45772288625
49.3674411875 149.796825 369.678774375 0.73929125 51.22260875 -1.72594113875
48.9036073125 148.7877275 369.174235625 -7.78632125 51.01728875 -0.99415939125
48.4397734375 147.77863 368.669696875 -16.31193375 50.81196875 -0.26237764375
47.9759395625 146.7695325 368.165158125 -24.83754625 50.60664875 0.46940410375
47.5121056875 145.760435 367.660619375 -33.36315875 50.40132875 1.20118585125
51.7888414375 147.0501775 362.451851875 41.57153125 52.05915125 -5.52784338375
51.3893393125 146.158975 362.040230625 33.33475375 51.88279125 -4.73179965125
50.9898371875 145.2677725 361.628609375 25.09797625 51.70643125 -3.93575591875
50.5903350625 144.37657 361.216988125 16.86119875 51.53007125 -3.13971218625
50.1908329375 143.4853675 360.805366875 8.62442125 51.35371125 -2.34366845375
49.7913308125 142.594165 360.393745625 0.387643750000002 51.17735125 -1.54762472125
49.3918286875 141.7029625 359.982124375 -7.84913375 51.00099125 -0.75158098875
48.9923265625 140.81176 359.570503125 -16.08591125 50.82463125 0.0444627437499999
48.5928244375 139.9205575 359.158881875 -24.32268875 50.64827125 0.84050647625
48.1933223125 139.029355 358.747260625 -32.55946625 50.47191125 1.63655020875
51.8910723125 139.2580425 352.702235625 39.77570875 51.86909375 -5.67083689125
51.5559019375 138.484735 352.383531875 31.82776625 51.72169375 -4.81053117375
51.2207315625 137.7114275 352.064828125 23.87982375 51.57429375 -3.95022545625
50.8855611875 136.93812 351.746124375 15.93188125 51.42689375 -3.08991973875
50.5503908125 136.1648125 351.427420625 7.98393875 51.27949375 -2.22961402125
50.2152204375 135.391505 351.108716875 0.0359962499999999 51.13209375 -1.36930830375
49.8800500625 134.6181975 350.790013125 -7.91194625 50.98469375 -0.50900258625
49.5448796875 133.84489 350.471309375 -15.85988875 50.83729375 0.35130313125
49.2097093125 133.0715825 350.152605625 -23.80783125 50.68989375 1.21160884875
48.8745389375 132.298275 349.833901875 -31.75577375 50.54249375 2.07191456625
51.9933031875 131.4659075 342.952619375 37.97988625 51.67903625 -5.81383039875
51.7224645625 130.810495 342.726833125 30.32077875 51.56059625 -4.88926269625
51.4516259375 130.1550825 342.501046875 22.66167125 51.44215625 -3.96469499375
51.1807873125 129.49967 342.275260625 15.00256375 51.32371625 -3.04012729125
50.9099486875 128.8442575 342.049474375 7.34345625 51.20527625 -2.11555958875
50.6391100625 128.188845 341.823688125 -0.315651249999998 51.08683625 -1.19099188625
50.3682714375 127.5334325 341.597901875 -7.97475875 50.96839625 -0.26642418375
50.0974328125 126.87802 341.372115625 -15.63386625 50.84995625 0.65814351875
49.8265941875 126.2226075 341.146329375 -23.29297375 50.73151625 1.58271122125
49.5557555625 125.567195 340.920543125 -30.95208125 50.61307625 2.50727892375
52.0955340625 123.6737725 333.203003125 36.18406375 51.48897875 -5.95682390625
51.8890271875 123.136255 333.070134375 28.81379125 51.39949875 -4.96799421875
51.6825203125 122.5987375 332.937265625 21.44351875 51.31001875 -3.97916453125
51.4760134375 122.06122 332.804396875 14.07324625 51.22053875 -2.99033484375
51.2695065625 121.5237025 332.671528125 6.70297375 51.13105875 -2.00150515625
51.0629996875 120.986185 332.538659375 -0.667298749999998 51.04157875 -1.01267546875
50.8564928125 120.4486675 332.405790625 -8.03757125 50.95209875 -0.0238457812500002
50.6499859375 119.91115 332.272921875 -15.40784375 50.86261875 0.96498390625
50.4434790625 119.3736325 332.140053125 -22.77811625 50.77313875 1.95381359375
50.2369721875 118.836115 332.007184375 -30.14838875 50.68365875 2.94264328125
52.1977649375 115.8816375 323.453386875 34.38824125 51.29892125 -6.09981741375
52.0555898125 115.462015 323.413435625 27.30680375 51.23840125 -5.04672574125
51.9134146875 115.0423925 323.373484375 20.22536625 51.17788125 -3.99363406875
51.7712395625 114.62277 323.333533125 13.14392875 51.11736125 -2.94054239625
51.6290644375 114.2031475 323.293581875 6.06249125 51.05684125 -1.88745072375
51.4868893125 113.783525 323.253630625 -1.01894625 50.99632125 -0.83435905125
51.3447141875 113.3639025 323.213679375 -8.10038375 50.93580125 0.21873262125
51.2025390625 112.94428 323.173728125 -15.18182125 50.87528125 1.27182429375
51.0603639375 112.5246575 323.133776875 -22.26325875 50.81476125 2.32491596625
50.9181888125 112.105035 323.093825625 -29.34469625 50.75424125 3.37800763875
52.2999958125 108.0895025 313.703770625 32.59241875 51.10886375 -6.24281092125
52.2221524375 107.787775 313.756736875 25.79981625 51.07730375 -5.12545726375
52.1443090625 107.4860475 313.809703125 19.00721375 51.04574375 -4.00810360625
52.0664656875 107.18432 313.862669375 12.21461125 51.01418375 -2.89074994875
51.9886223125 106.8825925 313.915635625 5.42200875 50.98262375 -1.77339629125
51.9107789375 106.580865 313.968601875 -1.37059375 50.95106375 -0.65604263375
51.8329355625 106.2791375 314.021568125 -8.16319625 50.91950375 0.461311023749999
51.7550921875 105.97741 314.074534375 -14.95579875 50.88794375 1.57866468125
51.6772488125 105.6756825 314.127500625 -21.74840125 50.85638375 2.69601833875
51.5994054375 105.373955 314.180466875 -28.54100375 50.82482375 3.81337199625
52.4022266875 100.2973675 303.954154375 30.79659625 50.91880625 -6.38580442875
52.3887150625 100.113535 304.100038125 24.29282875 50.91620625 -5.20418878625
52.3752034375 99.9297025 304.245921875 17.78906125 50.91360625 -4.02257314375
52.3616918125 99.74587 304.391805625 11.28529375 50.91100625 -2.84095750125
52.3481801875 99.5620375 304.537689375 4.78152625 50.90840625 -1.65934185875
52.3346685625 99.378205 304.683573125 -1.72224125 50.90580625 -0.47772621625
52.3211569375 99.1943725 304.829456875 -8.22600875 50.90320625 0.70388942625
52.3076453125 99.01054 304.975340625 -14.72977625 50.90060625 1.88550506875
52.2941336875 98.8267075 305.121224375 -21.23354375 50.89800625 3.06712071125
52.2806220625 98.642875 305.267108125 -27.73731125 50.89540625 4.24873635375
52.5044575625 92.5052325 294.204538125 29.00077375 50.72874875 -6.52879793625
52.5552776875 92.439295 294.443339375 22.78584125 50.75510875 -5.28292030875
52.6060978125 92.3733575 294.682140625 16.57090875 50.78146875 -4.03704268125
52.6569179375 92.30742 294.920941875 10.35597625 50.80782875 -2.79116505375
52.7077380625 92.2414825 295.159743125 4.14104375 50.83418875 -1.54528742625
52.7585581875 92.175545 295.398544375 -2.07388875 50.86054875 -0.29940979875
52.8093783125 92.1096075 295.637345625 -8.28882125 50.88690875 0.94646782875
52.8601984375 92.04367 295.876146875 -14.50375375 50.91326875 2.19234545625
52.9110185625 91.9777325 296.114948125 -20.71868625 50.93962875 3.43822308375
52.9618386875 91.911795 296.353749375 -26.93361875 50.96598875 4.68410071125
52.6066884375 84.7130975 284.454921875 27.20495125 50.53869125 -6.67179144375
52.7218403125 84.765055 284.786640625 21.27885375 50.59401125 -5.36165183125
52.8369921875 84.8170125 285.118359375 15.35275625 50.64933125 -4.05151221875
52.9521440625 84.86897 285.450078125 9.42665875 50.70465125 -2.74137260625
53.0672959375 84.9209275 285.781796875 3.50056125 50.75997125 -1.43123299375
53.1824478125 84.972885 286.113515625 -2.42553625 50.81529125 -0.121093381250001
53.2975996875 85.0248425 286.445234375 -8.35163375 50.87061125 1.18904623125
53.4127515625 85.0768 286.776953125 -14.27773125 50.92593125 2.49918584375
53.5279034375 85.1287575 287.108671875 -20.20382875 50.98125125 3.80932545625
53.6430553125 85.180715 287.440390625 -26.12992625 51.03657125 5.11946506875
52.7089193125 76.9209625 274.705305625 25.40912875 50.34863375 -6.81478495125
52.8884029375 77.090815 275.129941875 19.77186625 50.43291375 -5.44038335375
53.0678865625 77.2606675 275.554578125 14.13460375 50.51719375 -4.06598175625
53.2473701875 77.43052 275.979214375 8.49734125 50.60147375 -2.69158015875
53.4268538125 77.6003725 276.403850625 2.86007875 50.68575375 -1.31717856125
53.6063374375 77.770225 276.828486875 -2.77718375 50.77003375 0.0572230362499994
53.7858210625 77.9400775 277.253123125 -8.41444625 50.85431375 1.43162463375
53.9653046875 78.10993 277.677759375 -14.05170875 50.93859375 2.80602623125
54.1447883125 78.2797825 278.102395625 -19.68897125 51.02287375 4.18042782875
54.3242719375 78.449635 278.527031875 -25.32623375 51.10715375 5.55482942625
52.8111501875 69.1288275 264.955689375 23.61330625 50.15857625 -6.95777845875
53.0549655625 69.416575 265.473243125 18.26487875 50.27181625 -5.51911487625
53.2987809375 69.7043225 265.990796875 12.91645125 50.38505625 -4.08045129375
53.5425963125 69.99207 266.508350625 7.56802375 50.49829625 -2.64178771125
53.7864116875 70.2798175 267.025904375 2.21959625 50.61153625 -1.20312412875
54.0302270625 70.567565 267.543458125 -3.12883125 50.72477625 0.23553945375
54.2740424375 70.8553125 268.061011875 -8.47725875 50.83801625 1.67420303625
54.5178578125 71.14306 268.578565625 -13.82568625 50.95125625 3.11286661875
54.7616731875 71.4308075 269.096119375 -19.17411375 51.06449625 4.55153020125
55.0054885625 71.718555 269.613673125 -24.52254125 51.17773625 5.99019378375
52.9133810625 61.3366925 255.206073125 21.81748375 49.96851875 -7.10077196625
53.2215281875 61.742335 255.816544375 16.75789125 50.11071875 -5.59784639875
53.5296753125 62.1479775 256.427015625 11.69829875 50.25291875 -4.09492083125
53.8378224375 62.55362 257.037486875 6.63870625 50.39511875 -2.59199526375
54.1459695625 62.9592625 257.647958125 1.57911375 50.53731875 -1.08906969625
54.4541166875 63.364905 258.258429375 -3.48047875 50.67951875 0.41385587125
54.7622638125 63.7705475 258.868900625 -8.54007125 50.82171875 1.91678143875
55.0704109375 64.17619 259.479371875 -13.59966375 50.96391875 3.41970700625
55.3785580625 64.5818325 260.089843125 -18.65925625 51.10611875 4.92263257375
55.6867051875 64.987475 260.700314375 -23.71884875 51.24831875 6.42555814125
53.0156119375 53.5445575 245.456456875 20.02166125 49.77846125 -7.24376547375
53.3880908125 54.068095 246.159845625 15.25090375 49.94962125 -5.67657792125
53.7605696875 54.5916325 246.863234375 10.48014625 50.12078125 -4.10939036875
54.1330485625 55.11517 247.566623125 5.70938875 50.29194125 -2.54220281625
54.5055274375 55.6387075 248.270011875 0.93863125 50.46310125 -0.975015263750001
54.8780063125 56.162245 248.973400625 -3.83212625 50.63426125 0.59217228875
55.2504851875 56.6857825 249.676789375 -8.60288375 50.80542125 2.15935984125
55.6229640625 57.20932 250.380178125 -13.37364125 50.97658125 3.72654739375
55.9954429375 57.7328575 251.083566875 -18.14439875 51.14774125 5.29373494625
56.3679218125 58.256395 251.786955625 -22.91515625 51.31890125 6.86092249875
53.1178428125 45.7524225 235.706840625 18.22583875 49.58840375 -7.38675898125
53.5546534375 46.393855 236.503146875 13.74391625 49.78852375 -5.75530944375
53.9914640625 47.0352875 237.299453125 9.26199375 49.98864375 -4.12385990625
54.4282746875 47.67672 238.095759375 4.78007125 50.18876375 -2.49241036875
54.8650853125 48.3181525 238.892065625 0.29814875 50.38888375 -0.860960831250001
55.3018959375 48.959585 239.688371875 -4.18377375 50.58900375 0.77048870625
55.7387065625 49.6010175 240.484678125 -8.66569625 50.78912375 2.40193824375
56.1755171875 50.24245 241.280984375 -13.14761875 50.98924375 4.03338778125
56.6123278125 50.8838825 242.077290625 -17.62954125 51.18936375 5.66483731875
57.0491384375 51.525315 242.873596875 -22.11146375 51.38948375 7.29628685625
53.2200736875 37.9602875 225.957224375 16.43001625 49.39834625 -7.52975248875
53.7212160625 38.719615 226.846448125 12.23692875 49.62742625 -5.83404096625
54.2223584375 39.4789425 227.735671875 8.04384125 49.85650625 -4.13832944375
54.7235008125 40.23827 228.624895625 3.85075375 50.08558625 -2.44261792125
55.2246431875 40.9975975 229.514119375 -0.34233375 50.31466625 -0.74690639875
55.7257855625 41.756925 230.403343125 -4.53542125 50.54374625 0.948805123749999
56.2269279375 42.5162525 231.292566875 -8.72850875 50.77282625 2.64451664625
56.7280703125 43.27558 232.181790625 -12.92159625 51.00190625 4.34022816875
57.2292126875 44.0349075 233.071014375 -17.11468375 51.23098625 6.03593969125
57.7303550625 44.794235 233.960238125 -21.30777125 51.46006625 7.73165121375
53.3223045625 30.1681525 216.207608125 14.63419375 49.20828875 -7.67274599625
53.8877786875 31.045375 217.189749375 10.72994125 49.46632875 -5.91277248875
54.4532528125 31.9225975 218.171890625 6.82568875 49.72436875 -4.15279898125
55.0187269375 32.79982 219.154031875 2.92143625 49.98240875 -2.39282547375
55.5842010625 33.6770425 220.136173125 -0.98281625 50.24044875 -0.632851966250001
56.1496751875 34.554265 221.118314375 -4.88706875 50.49848875 1.12712154125
56.7151493125 35.4314875 222.100455625 -8.79132125 50.75652875 2.88709504875
57.2806234375 36.30871 223.082596875 -12.69557375 51.01456875 4.64706855625
57.8460975625 37.1859325 224.064738125 -16.59982625 51.27260875 6.40704206375
58.4115716875 38.063155 225.046879375 -20.50407875 51.53064875 8.16701557125
-54.1969775 -149.9569949375 -455.19401375 -66.60473991875 -229.2077965 -5.1072996225
-56.2575725 -155.1892023125 -456.80901625 -56.32301725625 -230.150462 -4.2972382675
-58.3181675 -160.4214096875 -458.42401875 -46.04129459375 -231.0931275 -3.4871769125
-60.3787625 -165.6536170625 -460.03902125 -35.75957193125 -232.035793 -2.6771155575
-62.4393575 -170.8858244375 -461.65402375 -25.47784926875 -232.9784585 -1.8670542025
-64.4999525 -176.1180318125 -463.26902625 -15.19612660625 -233.921124 -1.0569928475
-66.5605475 -181.3502391875 -464.88402875 -4.91440394375 -234.8637895 -0.2469314925
-68.6211425 -186.5824465625 -466.49903125 5.36731871875 -235.806455 0.5631298625
-70.6817375 -191.8146539375 -468.11403375 15.64904138125 -236.7491205 1.3731912175
-72.7423325 -197.0468613125 -469.72903625 25.93076404375 -237.691786 2.1832525725
-57.0615375 -157.4309073125 -466.75974125 -69.84902300625 -256.2387495 -5.0882707675
-59.3963325 -163.3100744375 -468.63114875 -59.49416151875 -257.252366 -4.2665465025
-61.7311275 -169.1892415625 -470.50255625 -49.13930003125 -258.2659825 -3.4448222375
-64.0659225 -175.0684086875 -472.37396375 -38.78443854375 -259.279599 -2.6230979725
-66.4007175 -180.9475758125 -474.24537125 -28.42957705625 -260.2932155 -1.8013737075
-68.7355125 -186.8267429375 -476.11677875 -18.07471556875 -261.306832 -0.9796494425
-71.0703075 -192.7059100625 -477.98818625 -7.71985408125 -262.3204485 -0.1579251775
-73.4051025 -198.5850771875 -479.85959375 2.63500740625 -263.334065 0.6637990875
-75.7398975 -204.4642443125 -481.73100125 12.98986889375 -264.3476815 1.4855233525
-78.0746925 -210.3434114375 -483.60240875 23.34473038125 -265.361298 2.3072476175
-59.9260975 -164.9048196875 -478.32546875 -73.09330609375 -283.2697025 -5.0692419125
-62.5350925 -171.4309465625 -480.45328125 -62.66530578125 -284.35427 -4.2358547375
-65.1440875 -177.9570734375 -482.58109375 -52.23730546875 -285.4388375 -3.4024675625
-67.7530825 -184.4832003125 -484.70890625 -41.80930515625 -286.523405 -2.5690803875
-70.3620775 -191.0093271875 -486.83671875 -31.38130484375 -287.6079725 -1.7356932125
-72.9710725 -197.5354540625 -488.96453125 -20.95330453125 -288.69254 -0.9023060375
-75.5800675 -204.0615809375 -491.09234375 -10.52530421875 -289.7771075 -0.0689188625000003
-78.1890625 -210.5877078125 -493.22015625 -0.0973039062499986 -290.861675 0.7644683125
-80.7980575 -217.1138346875 -495.34796875 10.33069640625 -291.9462425 1.5978554875
-83.4070525 -223.6399615625 -497.47578125 20.75869671875 -293.03081 2.4312426625
-62.7906575 -172.3787320625 -489.89119625 -76.33758918125 -310.3006555 -5.0502130575
-65.6738525 -179.5518186875 -492.27541375 -65.83645004375 -311.456174 -4.2051629725
-68.5570475 -186.7249053125 -494.65963125 -55.33531090625 -312.6116925 -3.3601128875
-71.4402425 -193.8979919375 -497.04384875 -44.83417176875 -313.767211 -2.5150628025
-74.3234375 -201.0710785625 -499.42806625 -34.33303263125 -314.9227295 -1.6700127175
-77.2066325 -208.2441651875 -501.81228375 -23.83189349375 -316.078248 -0.8249626325
-80.0898275 -215.4172518125 -504.19650125 -13.33075435625 -317.2337665 0.0200874524999997
-82.9730225 -222.5903384375 -506.58071875 -2.82961521875 -318.389285 0.8651375375
-85.8562175 -229.7634250625 -508.96493625 7.67152391875 -319.5448035 1.7101876225
-88.7394125 -236.9365116875 -511.34915375 18.17266305625 -320.700322 2.5552377075
-65.6552175 -179.8526444375 -501.45692375 -79.58187226875 -337.3316085 -5.0311842025
-68.8126125 -187.6726908125 -504.09754625 -69.00759430625 -338.558078 -4.1744712075
-71.9700075 -195.4927371875 -506.73816875 -58.43331634375 -339.7845475 -3.3177582125
-75.1274025 -203.3127835625 -509.37879125 -47.85903838125 -341.011017 -2.4610452175
-78.2847975 -211.1328299375 -512.01941375 -37.28476041875 -342.2374865 -1.6043322225
-81.4421925 -218.9528763125 -514.66003625 -26.71048245625 -343.463956 -0.7476192275
-84.5995875 -226.7729226875 -517.30065875 -16.13620449375 -344.6904255 0.1090937675
-87.7569825 -234.5929690625 -519.94128125 -5.56192653125 -345.916895 0.9658067625
-90.9143775 -242.4130154375 -522.58190375 5.01235143125 -347.1433645 1.8225197575
-94.0717725 -250.2330618125 -525.22252625 15.58662939375 -348.369834 2.6792327525
-68.5197775 -187.3265568125 -513.02265125 -82.82615535625 -364.3625615 -5.0121553475
-71.9513725 -195.7935629375 -515.91967875 -72.17873856875 -365.659982 -4.1437794425
-75.3829675 -204.2605690625 -518.81670625 -61.53132178125 -366.9574025 -3.2754035375
-78.8145625 -212.7275751875 -521.71373375 -50.88390499375 -368.254823 -2.4070276325
-82.2461575 -221.1945813125 -524.61076125 -40.23648820625 -369.5522435 -1.5386517275
-85.6777525 -229.6615874375 -527.50778875 -29.58907141875 -370.849664 -0.6702758225
-89.1093475 -238.1285935625 -530.40481625 -18.94165463125 -372.1470845 0.1981000825
-92.5409425 -246.5955996875 -533.30184375 -8.29423784375 -373.444505 1.0664759875
-95.9725375 -255.0626058125 -536.19887125 2.35317894375 -374.7419255 1.9348518925
-99.4041325 -263.5296119375 -539.09589875 13.00059573125 -376.039346 2.8032277975
-71.3843375 -194.8004691875 -524.58837875 -86.07043844375 -391.3935145 -4.9931264925
-75.0901325 -203.9144350625 -527.74181125 -75.34988283125 -392.761886 -4.1130876775
-78.7959275 -213.0284009375 -530.89524375 -64.62932721875 -394.1302575 -3.2330488625
-82.5017225 -222.1423668125 -534.04867625 -53.90877160625 -395.498629 -2.3530100475
-86.2075175 -231.2563326875 -537.20210875 -43.18821599375 -396.8670005 -1.4729712325
-89.9133125 -240.3702985625 -540.35554125 -32.46766038125 -398.235372 -0.5929324175
-93.6191075 -249.4842644375 -543.50897375 -21.74710476875 -399.6037435 0.2871063975
-97.3249025 -258.5982303125 -546.66240625 -11.02654915625 -400.972115 1.1671452125
-101.0306975 -267.7121961875 -549.81583875 -0.305993543750002 -402.3404865 2.0471840275
-104.7364925 -276.8261620625 -552.96927125 10.41456206875 -403.708858 2.9272228425
-74.2488975 -202.2743815625 -536.15410625 -89.31472153125 -418.4244675 -4.9740976375
-78.2288925 -212.0353071875 -539.56394375 -78.52102709375 -419.86379 -4.0823959125
-82.2088875 -221.7962328125 -542.97378125 -67.72733265625 -421.3031125 -3.1906941875
-86.1888825 -231.5571584375 -546.38361875 -56.93363821875 -422.742435 -2.2989924625
-90.1688775 -241.3180840625 -549.79345625 -46.13994378125 -424.1817575 -1.4072907375
-94.1488725 -251.0790096875 -553.20329375 -35.34624934375 -425.62108 -0.5155890125
-98.1288675 -260.8399353125 -556.61313125 -24.55255490625 -427.0604025 0.3761127125
-102.1088625 -270.6008609375 -560.02296875 -13.75886046875 -428.499725 1.2678144375
-106.0888575 -280.3617865625 -563.43280625 -2.96516603125 -429.9390475 2.1595161625
-110.0688525 -290.1227121875 -566.84264375 7.82852840625 -431.37837 3.0512178875
-77.1134575 -209.7482939375 -547.71983375 -92.55900461875 -445.4554205 -4.9550687825
-81.3676525 -220.1561793125 -551.38607625 -81.69217135625 -446.965694 -4.0517041475
-85.6218475 -230.5640646875 -555.05231875 -70.82533809375 -448.4759675 -3.1483395125
-89.8760425 -240.9719500625 -558.71856125 -59.95850483125 -449.986241 -2.2449748775
-94.1302375 -251.3798354375 -562.38480375 -49.09167156875 -451.4965145 -1.3416102425
-98.3844325 -261.7877208125 -566.05104625 -38.22483830625 -453.006788 -0.4382456075
-102.6386275 -272.1956061875 -569.71728875 -27.35800504375 -454.5170615 0.4651190275
-106.8928225 -282.6034915625 -573.38353125 -16.49117178125 -456.027335 1.3684836625
-111.1470175 -293.0113769375 -577.04977375 -5.62433851875 -457.5376085 2.2718482975
-115.4012125 -303.4192623125 -580.71601625 5.24249474375 -459.047882 3.1752129325
-79.9780175 -217.2222063125 -559.28556125 -95.80328770625 -472.4863735 -4.9360399275
-84.5064125 -228.2770514375 -563.20820875 -84.86331561875 -474.067598 -4.0210123825
-89.0348075 -239.3318965625 -567.13085625 -73.92334353125 -475.6488225 -3.1059848375
-93.5632025 -250.3867416875 -571.05350375 -62.98337144375 -477.230047 -2.1909572925
-98.0915975 -261.4415868125 -574.97615125 -52.04339935625 -478.8112715 -1.2759297475
-102.6199925 -272.4964319375 -578.89879875 -41.10342726875 -480.392496 -0.3609022025
-107.1483875 -283.5512770625 -582.82144625 -30.16345518125 -481.9737205 0.554125342499999
-111.6767825 -294.6061221875 -586.74409375 -19.22348309375 -483.554945 1.4691528875
-116.2051775 -305.6609673125 -590.66674125 -8.28351100625 -485.1361695 2.3841804325
-120.7335725 -316.7158124375 -594.58938875 2.65646108125 -486.717394 3.2992079775
-38.8791375 -114.0584948125 -350.87866625 -65.02563650625 -228.873032 -4.3040771175
-40.9333325 -119.2868369375 -352.47192375 -54.74190201875 -229.7121135 -3.5701095525
-42.9875275 -124.5151790625 -354.06518125 -44.45816753125 -230.551195 -2.8361419875
-45.0417225 -129.7435211875 -355.65843875 -34.17443304375 -231.3902765 -2.1021744225
-47.0959175 -134.9718633125 -357.25169625 -23.89069855625 -232.229358 -1.3682068575
-49.1501125 -140.2002054375 -358.84495375 -13.60696406875 -233.0684395 -0.6342392925
-51.2043075 -145.4285475625 -360.43821125 -3.32322958125 -233.907521 0.0997282724999999
-53.2585025 -150.6568896875 -362.03146875 6.96050490625 -234.7466025 0.8336958375
-55.3126975 -155.8852318125 -363.62472625 17.24423939375 -235.585684 1.5676634025
-57.3668925 -161.1135739375 -365.21798375 27.52797388125 -236.4247655 2.3016309675
-41.0176275 -120.6616519375 -360.26209875 -68.08104926875 -255.824876 -4.2612970525
-43.3440425 -126.5351133125 -362.10707125 -57.72422530625 -256.7303805 -3.5102737575
-45.6704575 -132.4085746875 -363.95204375 -47.36740134375 -257.635885 -2.7592504625
-47.9968725 -138.2820360625 -365.79701625 -37.01057738125 -258.5413895 -2.0082271675
-50.3232875 -144.1554974375 -367.64198875 -26.65375341875 -259.446894 -1.2572038725
-52.6497025 -150.0289588125 -369.48696125 -16.29692945625 -260.3523985 -0.5061805775
-54.9761175 -155.9024201875 -371.33193375 -5.94010549375 -261.257903 0.2448427175
-57.3025325 -161.7758815625 -373.17690625 4.41671846875 -262.1634075 0.9958660125
-59.6289475 -167.6493429375 -375.02187875 14.77354243125 -263.068912 1.7468893075
-61.9553625 -173.5228043125 -376.86685125 25.13036639375 -263.9744165 2.4979126025
-43.1561175 -127.2648090625 -369.64553125 -71.13646203125 -282.77672 -4.2185169875
-45.7547525 -133.7833896875 -371.74221875 -60.70654859375 -283.7486475 -3.4504379625
-48.3533875 -140.3019703125 -373.83890625 -50.27663515625 -284.720575 -2.6823589375
-50.9520225 -146.8205509375 -375.93559375 -39.84672171875 -285.6925025 -1.9142799125
-53.5506575 -153.3391315625 -378.03228125 -29.41680828125 -286.66443 -1.1462008875
-56.1492925 -159.8577121875 -380.12896875 -18.98689484375 -287.6363575 -0.3781218625
-58.7479275 -166.3762928125 -382.22565625 -8.55698140625 -288.608285 0.3899571625
-61.3465625 -172.8948734375 -384.32234375 1.87293203125 -289.5802125 1.1580361875
-63.9451975 -179.4134540625 -386.41903125 12.30284546875 -290.55214 1.9261152125
-66.5438325 -185.9320346875 -388.51571875 22.73275890625 -291.5240675 2.6941942375
-45.2946075 -133.8679661875 -379.02896375 -74.19187479375 -309.728564 -4.1757369225
-48.1654625 -141.0316660625 -381.37736625 -63.68887188125 -310.7669145 -3.3906021675
-51.0363175 -148.1953659375 -383.72576875 -53.18586896875 -311.805265 -2.6054674125
-53.9071725 -155.3590658125 -386.07417125 -42.68286605625 -312.8436155 -1.8203326575
-56.7780275 -162.5227656875 -388.42257375 -32.17986314375 -313.881966 -1.0351979025
-59.6488825 -169.6864655625 -390.77097625 -21.67686023125 -314.9203165 -0.2500631475
-62.5197375 -176.8501654375 -393.11937875 -11.17385731875 -315.958667 0.5350716075
-65.3905925 -184.0138653125 -395.46778125 -0.670854406249999 -316.9970175 1.3202063625
-68.2614475 -191.1775651875 -397.81618375 9.83214850625 -318.035368 2.1053411175
-71.1323025 -198.3412650625 -400.16458625 20.33515141875 -319.0737185 2.8904758725
-47.4330975 -140.4711233125 -388.41239625 -77.24728755625 -336.680408 -4.1329568575
-50.5761725 -148.2799424375 -391.01251375 -66.67119516875 -337.7851815 -3.3307663725
-53.7192475 -156.0887615625 -393.61263125 -56.09510278125 -338.889955 -2.5285758875
-56.8623225 -163.8975806875 -396.21274875 -45.51901039375 -339.9947285 -1.7263854025
-60.0053975 -171.7063998125 -398.81286625 -34.94291800625 -341.099502 -0.9241949175
-63.1484725 -179.5152189375 -401.41298375 -24.36682561875 -342.2042755 -0.1220044325
-66.2915475 -187.3240380625 -404.01310125 -13.79073323125 -343.309049 0.6801860525
-69.4346225 -195.1328571875 -406.61321875 -3.21464084375 -344.4138225 1.4823765375
-72.5776975 -202.9416763125 -409.21333625 7.36145154375 -345.518596 2.2845670225
-75.7207725 -210.7504954375 -411.81345375 17.93754393125 -346.6233695 3.0867575075
-49.5715875 -147.0742804375 -397.79582875 -80.30270031875 -363.632252 -4.0901767925
-52.9868825 -155.5282188125 -400.64766125 -69.65351845625 -364.8034485 -3.2709305775
-56.4021775 -163.9821571875 -403.49949375 -59.00433659375 -365.974645 -2.4516843625
-59.8174725 -172.4360955625 -406.35132625 -48.35515473125 -367.1458415 -1.6324381475
-63.2327675 -180.8900339375 -409.20315875 -37.70597286875 -368.317038 -0.8131919325
-66.6480625 -189.3439723125 -412.05499125 -27.05679100625 -369.4882345 0.0060542824999999
-70.0633575 -197.7979106875 -414.90682375 -16.40760914375 -370.659431 0.8253004975
-73.4786525 -206.2518490625 -417.75865625 -5.75842728125 -371.8306275 1.6445467125
-76.8939475 -214.7057874375 -420.61048875 4.89075458125 -373.001824 2.4637929275
-80.3092425 -223.1597258125 -423.46232125 15.53993644375 -374.1730205 3.2830391425
-51.7100775 -153.6774375625 -407.17926125 -83.35811308125 -390.584096 -4.0473967275
-55.3975925 -162.7764951875 -410.28280875 -72.63584174375 -391.8217155 -3.2110947825
-59.0851075 -171.8755528125 -413.38635625 -61.91357040625 -393.059335 -2.3747928375
-62.7726225 -180.9746104375 -416.48990375 -51.19129906875 -394.2969545 -1.5384908925
-66.4601375 -190.0736680625 -419.59345125 -40.46902773125 -395.534574 -0.7021889475
-70.1476525 -199.1727256875 -422.69699875 -29.74675639375 -396.7721935 0.1341129975
-73.8351675 -208.2717833125 -425.80054625 -19.02448505625 -398.009813 0.9704149425
-77.5226825 -217.3708409375 -428.90409375 -8.30221371875 -399.2474325 1.8067168875
-81.2101975 -226.4698985625 -432.00764125 2.42005761875 -400.485052 2.6430188325
-84.8977125 -235.5689561875 -435.11118875 13.14232895625 -401.7226715 3.4793207775
-53.8485675 -160.2805946875 -416.56269375 -86.41352584375 -417.53594 -4.0046166625
-57.8083025 -170.0247715625 -419.91795625 -75.61816503125 -418.8399825 -3.1512589875
-61.7680375 -179.7689484375 -423.27321875 -64.82280421875 -420.144025 -2.2979013125
-65.7277725 -189.5131253125 -426.62848125 -54.02744340625 -421.4480675 -1.4445436375
-69.6875075 -199.2573021875 -429.98374375 -43.23208259375 -422.75211 -0.5911859625
-73.6472425 -209.0014790625 -433.33900625 -32.43672178125 -424.0561525 0.2621717125
-77.6069775 -218.7456559375 -436.69426875 -21.64136096875 -425.360195 1.1155293875
-81.5667125 -228.4898328125 -440.04953125 -10.84600015625 -426.6642375 1.9688870625
-85.5264475 -238.2340096875 -443.40479375 -0.0506393437500012 -427.96828 2.8222447375
-89.4861825 -247.9781865625 -446.76005625 10.74472146875 -429.2723225 3.6756024125
-55.9870575 -166.8837518125 -425.94612625 -89.46893860625 -444.487784 -3.9618365975
-60.2190125 -177.2730479375 -429.55310375 -78.60048831875 -445.8582495 -3.0914231925
-64.4509675 -187.6623440625 -433.16008125 -67.73203803125 -447.228715 -2.2210097875
-68.6829225 -198.0516401875 -436.76705875 -56.86358774375 -448.5991805 -1.3505963825
-72.9148775 -208.4409363125 -440.37403625 -45.99513745625 -449.969646 -0.4801829775
-77.1468325 -218.8302324375 -443.98101375 -35.12668716875 -451.3401115 0.3902304275
-81.3787875 -229.2195285625 -447.58799125 -24.25823688125 -452.710577 1.2606438325
-85.6107425 -239.6088246875 -451.19496875 -13.38978659375 -454.0810425 2.1310572375
-89.8426975 -249.9981208125 -454.80194625 -2.52133630625 -455.451508 3.0014706425
-94.0746525 -260.3874169375 -458.40892375 8.34711398125 -456.8219735 3.8718840475
-58.1255475 -173.4869089375 -435.32955875 -92.52435136875 -471.439628 -3.9190565325
-62.6297225 -184.5213243125 -439.18825125 -81.58281160625 -472.8765165 -3.0315873975
-67.1338975 -195.5557396875 -443.04694375 -70.64127184375 -474.313405 -2.1441182625
-71.6380725 -206.5901550625 -446.90563625 -59.69973208125 -475.7502935 -1.2566491275
-76.1422475 -217.6245704375 -450.76432875 -48.75819231875 -477.187182 -0.3691799925
-80.6464225 -228.6589858125 -454.62302125 -37.81665255625 -478.6240705 0.5182891425
-85.1505975 -239.6934011875 -458.48171375 -26.87511279375 -480.060959 1.4057582775
-89.6547725 -250.7278165625 -462.34040625 -15.93357303125 -481.4978475 2.2932274125
-94.1589475 -261.7622319375 -466.19909875 -4.99203326875 -482.934736 3.1806965475
-98.6631225 -272.7966473125 -470.05779125 5.94950649375 -484.3716245 4.0681656825
-23.5612975 -78.1599946875 -246.56331875 -63.44653309375 -228.5382675 -3.5008546125
-25.6090925 -83.3844715625 -248.13483125 -53.16078678125 -229.273765 -2.8429808375
-27.6568875 -88.6089484375 -249.70634375 -42.87504046875 -230.0092625 -2.1851070625
-29.7046825 -93.8334253125 -251.27785625 -32.58929415625 -230.74476 -1.5272332875
-31.7524775 -99.0579021875 -252.84936875 -22.30354784375 -231.4802575 -0.8693595125
-33.8002725 -104.2823790625 -254.42088125 -12.01780153125 -232.215755 -0.2114857375
-35.8480675 -109.5068559375 -255.99239375 -1.73205521875 -232.9512525 0.4463880375
-37.8958625 -114.7313328125 -257.56390625 8.55369109375 -233.68675 1.1042618125
-39.9436575 -119.9558096875 -259.13541875 18.83943740625 -234.4222475 1.7621355875
-41.9914525 -125.1802865625 -260.70693125 29.12518371875 -235.157745 2.4200093625
-24.9737175 -83.8923965625 -253.76445625 -66.31307553125 -255.4110025 -3.4343233375
-27.2917525 -89.7601521875 -255.58299375 -55.95428909375 -256.208395 -2.7540010125
-29.6097875 -95.6279078125 -257.40153125 -45.59550265625 -257.0057875 -2.0736786875
-31.9278225 -101.4956634375 -259.22006875 -35.23671621875 -257.80318 -1.3933563625
-34.2458575 -107.3634190625 -261.03860625 -24.87792978125 -258.6005725 -0.7130340375
-36.5638925 -113.2311746875 -262.85714375 -14.51914334375 -259.397965 -0.0327117125000002
-38.8819275 -119.0989303125 -264.67568125 -4.16035690625 -260.1953575 0.6476106125
-41.1999625 -124.9666859375 -266.49421875 6.19842953125 -260.99275 1.3279329375
-43.5179975 -130.8344415625 -268.31275625 16.55721596875 -261.7901425 2.0082552625
-45.8360325 -136.7021971875 -270.13129375 26.91600240625 -262.587535 2.6885775875
-26.3861375 -89.6247984375 -260.96559375 -69.17961796875 -282.2837375 -3.3677920625
-28.9744125 -96.1358328125 -263.03115625 -58.74779140625 -283.143025 -2.6650211875
-31.5626875 -102.6468671875 -265.09671875 -48.31596484375 -284.0023125 -1.9622503125
-34.1509625 -109.1579015625 -267.16228125 -37.88413828125 -284.8616 -1.2594794375
-36.7392375 -115.6689359375 -269.22784375 -27.45231171875 -285.7208875 -0.5567085625
-39.3275125 -122.1799703125 -271.29340625 -17.02048515625 -286.580175 0.1460623125
-41.9157875 -128.6910046875 -273.35896875 -6.58865859375 -287.4394625 0.8488331875
-44.5040625 -135.2020390625 -275.42453125 3.84316796875 -288.29875 1.5516040625
-47.0923375 -141.7130734375 -277.49009375 14.27499453125 -289.1580375 2.2543749375
-49.6806125 -148.2241078125 -279.55565625 24.70682109375 -290.017325 2.9571458125
-27.7985575 -95.3572003125 -268.16673125 -72.04616040625 -309.1564725 -3.3012607875
-30.6570725 -102.5115134375 -270.47931875 -61.54129371875 -310.077655 -2.5760413625
-33.5155875 -109.6658265625 -272.79190625 -51.03642703125 -310.9988375 -1.8508219375
-36.3741025 -116.8201396875 -275.10449375 -40.53156034375 -311.92002 -1.1256025125
-39.2326175 -123.9744528125 -277.41708125 -30.02669365625 -312.8412025 -0.4003830875
-42.0911325 -131.1287659375 -279.72966875 -19.52182696875 -313.762385 0.3248363375
-44.9496475 -138.2830790625 -282.04225625 -9.01696028125 -314.6835675 1.0500557625
-47.8081625 -145.4373921875 -284.35484375 1.48790640625 -315.60475 1.7752751875
-50.6666775 -152.5917053125 -286.66743125 11.99277309375 -316.5259325 2.5004946125
-53.5251925 -159.7460184375 -288.98001875 22.49763978125 -317.447115 3.2257140375
-29.2109775 -101.0896021875 -275.36786875 -74.91270284375 -336.0292075 -3.2347295125
-32.3397325 -108.8871940625 -277.92748125 -64.33479603125 -337.012285 -2.4870615375
-35.4684875 -116.6847859375 -280.48709375 -53.75688921875 -337.9953625 -1.7393935625
-38.5972425 -124.4823778125 -283.04670625 -43.17898240625 -338.97844 -0.9917255875
-41.7259975 -132.2799696875 -285.60631875 -32.60107559375 -339.9615175 -0.2440576125
-44.8547525 -140.0775615625 -288.16593125 -22.02316878125 -340.944595 0.5036103625
-47.9835075 -147.8751534375 -290.72554375 -11.44526196875 -341.9276725 1.2512783375
-51.1122625 -155.6727453125 -293.28515625 -0.867355156249998 -342.91075 1.9989463125
-54.2410175 -163.4703371875 -295.84476875 9.71055165625 -343.8938275 2.7466142875
-57.3697725 -171.2679290625 -298.40438125 20.28845846875 -344.876905 3.4942822625
-30.6233975 -106.8220040625 -282.56900625 -77.77924528125 -362.9019425 -3.1681982375
-34.0223925 -115.2628746875 -285.37564375 -67.12829834375 -363.946915 -2.3980817125
-37.4213875 -123.7037453125 -288.18228125 -56.47735140625 -364.9918875 -1.6279651875
-40.8203825 -132.1446159375 -290.98891875 -45.82640446875 -366.03686 -0.8578486625
-44.2193775 -140.5854865625 -293.79555625 -35.17545753125 -367.0818325 -0.0877321375
-47.6183725 -149.0263571875 -296.60219375 -24.52451059375 -368.126805 0.6823843875
-51.0173675 -157.4672278125 -299.40883125 -13.87356365625 -369.1717775 1.4525009125
-54.4163625 -165.9080984375 -302.21546875 -3.22261671875 -370.21675 2.2226174375
-57.8153575 -174.3489690625 -305.02210625 7.42833021875 -371.2617225 2.9927339625
-61.2143525 -182.7898396875 -307.82874375 18.07927715625 -372.306695 3.7628504875
-32.0358175 -112.5544059375 -289.77014375 -80.64578771875 -389.7746775 -3.1016669625
-35.7050525 -121.6385553125 -292.82380625 -69.92180065625 -390.881545 -2.3091018875
-39.3742875 -130.7227046875 -295.87746875 -59.19781359375 -391.9884125 -1.5165368125
-43.0435225 -139.8068540625 -298.93113125 -48.47382653125 -393.09528 -0.7239717375
-46.7127575 -148.8910034375 -301.98479375 -37.74983946875 -394.2021475 0.0685933374999998
-50.3819925 -157.9751528125 -305.03845625 -27.02585240625 -395.309015 0.8611584125
-54.0512275 -167.0593021875 -308.09211875 -16.30186534375 -396.4158825 1.6537234875
-57.7204625 -176.1434515625 -311.14578125 -5.57787828125 -397.52275 2.4462885625
-61.3896975 -185.2276009375 -314.19944375 5.14610878125 -398.6296175 3.2388536375
-65.0589325 -194.3117503125 -317.25310625 15.87009584375 -399.736485 4.0314187125
-33.4482375 -118.2868078125 -296.97128125 -83.51233015625 -416.6474125 -3.0351356875
-37.3877125 -128.0142359375 -300.27196875 -72.71530296875 -417.816175 -2.2201220625
-41.3271875 -137.7416640625 -303.57265625 -61.91827578125 -418.9849375 -1.4051084375
-45.2666625 -147.4690921875 -306.87334375 -51.12124859375 -420.1537 -0.5900948125
-49.2061375 -157.1965203125 -310.17403125 -40.32422140625 -421.3224625 0.2249188125
-53.1456125 -166.9239484375 -313.47471875 -29.52719421875 -422.491225 1.0399324375
-57.0850875 -176.6513765625 -316.77540625 -18.73016703125 -423.6599875 1.8549460625
-61.0245625 -186.3788046875 -320.07609375 -7.93313984375 -424.82875 2.6699596875
-64.9640375 -196.1062328125 -323.37678125 2.86388734375 -425.9975125 3.4849733125
-68.9035125 -205.8336609375 -326.67746875 13.66091453125 -427.166275 4.2999869375
-34.8606575 -124.0192096875 -304.17241875 -86.37887259375 -443.5201475 -2.9686044125
-39.0703725 -134.3899165625 -307.72013125 -75.50880528125 -444.750805 -2.1311422375
-43.2800875 -144.7606234375 -311.26784375 -64.63873796875 -445.9814625 -1.2936800625
-47.4898025 -155.1313303125 -314.81555625 -53.76867065625 -447.21212 -0.4562178875
-51.6995175 -165.5020371875 -318.36326875 -42.89860334375 -448.4427775 0.3812442875
-55.9092325 -175.8727440625 -321.91098125 -32.02853603125 -449.673435 1.2187064625
-60.1189475 -186.2434509375 -325.45869375 -21.15846871875 -450.9040925 2.0561686375
-64.3286625 -196.6141578125 -329.00640625 -10.28840140625 -452.13475 2.8936308125
-68.5383775 -206.9848646875 -332.55411875 0.581665906249999 -453.3654075 3.7310929875
-72.7480925 -217.3555715625 -336.10183125 11.45173321875 -454.596065 4.5685551625
-36.2730775 -129.7516115625 -311.37355625 -89.24541503125 -470.3928825 -2.9020731375
-40.7530325 -140.7655971875 -315.16829375 -78.30230759375 -471.685435 -2.0421624125
-45.2329875 -151.7795828125 -318.96303125 -67.35920015625 -472.9779875 -1.1822516875
-49.7129425 -162.7935684375 -322.75776875 -56.41609271875 -474.27054 -0.3223409625
-54.1928975 -173.8075540625 -326.55250625 -45.47298528125 -475.5630925 0.5375697625
-58.6728525 -184.8215396875 -330.34724375 -34.52987784375 -476.855645 1.3974804875
-63.1528075 -195.8355253125 -334.14198125 -23.58677040625 -478.1481975 2.2573912125
-67.6327625 -206.8495109375 -337.93671875 -12.64366296875 -479.44075 3.1173019375
-72.1127175 -217.8634965625 -341.73145625 -1.70055553125 -480.7333025 3.9772126625
-76.5926725 -228.8774821875 -345.52619375 9.24255190625 -482.025855 4.8371233875
-8.2434575 -42.2614945625 -142.24797125 -61.86742968125 -228.203503 -2.6976321075
-10.2848525 -47.4821061875 -143.79773875 -51.57967154375 -228.8354165 -2.1158521225
-12.3262475 -52.7027178125 -145.34750625 -41.29191340625 -229.46733 -1.5340721375
-14.3676425 -57.9233294375 -146.89727375 -31.00415526875 -230.0992435 -0.9522921525
-16.4090375 -63.1439410625 -148.44704125 -20.71639713125 -230.731157 -0.3705121675
-18.4504325 -68.3645526875 -149.99680875 -10.42863899375 -231.3630705 0.2112678175
-20.4918275 -73.5851643125 -151.54657625 -0.140880856250001 -231.994984 0.7930478025
-22.5332225 -78.8057759375 -153.09634375 10.14687728125 -232.6268975 1.3748277875
-24.5746175 -84.0263875625 -154.64611125 20.43463541875 -233.258811 1.9566077725
-26.6160125 -89.2469991875 -156.19587875 30.72239355625 -233.8907245 2.5383877575
-8.9298075 -47.1231411875 -147.26681375 -64.54510179375 -254.997129 -2.6073496225
-11.2394625 -52.9851910625 -149.05891625 -54.18435288125 -255.6864095 -1.9977282675
-13.5491175 -58.8472409375 -150.85101875 -43.82360396875 -256.37569 -1.3881069125
-15.8587725 -64.7092908125 -152.64312125 -33.46285505625 -257.0649705 -0.7784855575
-18.1684275 -70.5713406875 -154.43522375 -23.10210614375 -257.754251 -0.1688642025
-20.4780825 -76.4333905625 -156.22732625 -12.74135723125 -258.4435315 0.4407571525
-22.7877375 -82.2954404375 -158.01942875 -2.38060831875 -259.132812 1.0503785075
-25.0973925 -88.1574903125 -159.81153125 7.98014059375 -259.8220925 1.6599998625
-27.4070475 -94.0195401875 -161.60363375 18.34088950625 -260.511373 2.2696212175
-29.7167025 -99.8815900625 -163.39573625 28.70163841875 -261.2006535 2.8792425725
-9.6161575 -51.9847878125 -152.28565625 -67.22277390625 -281.790755 -2.5170671375
-12.1940725 -58.4882759375 -154.32009375 -56.78903421875 -282.5374025 -1.8796044125
-14.7719875 -64.9917640625 -156.35453125 -46.35529453125 -283.28405 -1.2421416875
-17.3499025 -71.4952521875 -158.38896875 -35.92155484375 -284.0306975 -0.6046789625
-19.9278175 -77.9987403125 -160.42340625 -25.48781515625 -284.777345 0.0327837624999998
-22.5057325 -84.5022284375 -162.45784375 -15.05407546875 -285.5239925 0.6702464875
-25.0836475 -91.0057165625 -164.49228125 -4.62033578125 -286.27064 1.3077092125
-27.6615625 -97.5092046875 -166.52671875 5.81340390625 -287.0172875 1.9451719375
-30.2394775 -104.0126928125 -168.56115625 16.24714359375 -287.763935 2.5826346625
-32.8173925 -110.5161809375 -170.59559375 26.68088328125 -288.5105825 3.2200973875
-10.3025075 -56.8464344375 -157.30449875 -69.90044601875 -308.584381 -2.4267846525
-13.1486825 -63.9913608125 -159.58127125 -59.39371555625 -309.3883955 -1.7614805575
-15.9948575 -71.1362871875 -161.85804375 -48.88698509375 -310.19241 -1.0961764625
-18.8410325 -78.2812135625 -164.13481625 -38.38025463125 -310.9964245 -0.4308723675
-21.6872075 -85.4261399375 -166.41158875 -27.87352416875 -311.800439 0.2344317275
-24.5333825 -92.5710663125 -168.68836125 -17.36679370625 -312.6044535 0.8997358225
-27.3795575 -99.7159926875 -170.96513375 -6.86006324375 -313.408468 1.5650399175
-30.2257325 -106.8609190625 -173.24190625 3.64666721875 -314.2124825 2.2303440125
-33.0719075 -114.0058454375 -175.51867875 14.15339768125 -315.016497 2.8956481075
-35.9180825 -121.1507718125 -177.79545125 24.66012814375 -315.8205115 3.5609522025
-10.9888575 -61.7080810625 -162.32334125 -72.57811813125 -335.378007 -2.3365021675
-14.1032925 -69.4944456875 -164.84244875 -61.99839689375 -336.2393885 -1.6433567025
-17.2177275 -77.2808103125 -167.36155625 -51.41867565625 -337.10077 -0.9502112375
-20.3321625 -85.0671749375 -169.88066375 -40.83895441875 -337.9621515 -0.2570657725
-23.4465975 -92.8535395625 -172.39977125 -30.25923318125 -338.823533 0.4360796925
-26.5610325 -100.6399041875 -174.91887875 -19.67951194375 -339.6849145 1.1292251575
-29.6754675 -108.4262688125 -177.43798625 -9.09979070625 -340.546296 1.8223706225
-32.7899025 -116.2126334375 -179.95709375 1.47993053125 -341.4076775 2.5155160875
-35.9043375 -123.9989980625 -182.47620125 12.05965176875 -342.269059 3.2086615525
-39.0187725 -131.7853626875 -184.99530875 22.63937300625 -343.1304405 3.9018070175
-11.6752075 -66.5697276875 -167.34218375 -75.25579024375 -362.171633 -2.2462196825
-15.0579025 -74.9975305625 -170.10362625 -64.60307823125 -363.0903815 -1.5252328475
-18.4405975 -83.4253334375 -172.86506875 -53.95036621875 -364.00913 -0.8042460125
-21.8232925 -91.8531363125 -175.62651125 -43.29765420625 -364.9278785 -0.0832591774999998
-25.2059875 -100.2809391875 -178.38795375 -32.64494219375 -365.846627 0.6377276575
-28.5886825 -108.7087420625 -181.14939625 -21.99223018125 -366.7653755 1.3587144925
-31.9713775 -117.1365449375 -183.91083875 -11.33951816875 -367.684124 2.0797013275
-35.3540725 -125.5643478125 -186.67228125 -0.68680615625 -368.6028725 2.8006881625
-38.7367675 -133.9921506875 -189.43372375 9.96590585625 -369.521621 3.5216749975
-42.1194625 -142.4199535625 -192.19516625 20.61861786875 -370.4403695 4.2426618325
-12.3615575 -71.4313743125 -172.36102625 -77.93346235625 -388.965259 -2.1559371975
-16.0125125 -80.5006154375 -175.36480375 -67.20775956875 -389.9413745 -1.4071089925
-19.6634675 -89.5698565625 -178.36858125 -56.48205678125 -390.91749 -0.6582807875
-23.3144225 -98.6390976875 -181.37235875 -45.75635399375 -391.8936055 0.0905474175
-26.9653775 -107.7083388125 -184.37613625 -35.03065120625 -392.869721 0.8393756225
-30.6163325 -116.7775799375 -187.37991375 -24.30494841875 -393.8458365 1.5882038275
-34.2672875 -125.8468210625 -190.38369125 -13.57924563125 -394.821952 2.3370320325
-37.9182425 -134.9160621875 -193.38746875 -2.85354284375 -395.7980675 3.0858602375
-41.5691975 -143.9853033125 -196.39124625 7.87215994375 -396.774183 3.8346884425
-45.2201525 -153.0545444375 -199.39502375 18.59786273125 -397.7502985 4.5835166475
-13.0479075 -76.2930209375 -177.37986875 -80.61113446875 -415.758885 -2.0656547125
-16.9671225 -86.0037003125 -180.62598125 -69.81244090625 -416.7923675 -1.2889851375
-20.8863375 -95.7143796875 -183.87209375 -59.01374734375 -417.82585 -0.5123155625
-24.8055525 -105.4250590625 -187.11820625 -48.21505378125 -418.8593325 0.2643540125
-28.7247675 -115.1357384375 -190.36431875 -37.41636021875 -419.892815 1.0410235875
-32.6439825 -124.8464178125 -193.61043125 -26.61766665625 -420.9262975 1.8176931625
-36.5631975 -134.5570971875 -196.85654375 -15.81897309375 -421.95978 2.5943627375
-40.4824125 -144.2677765625 -200.10265625 -5.02027953125 -422.9932625 3.3710323125
-44.4016275 -153.9784559375 -203.34876875 5.77841403125 -424.026745 4.1477018875
-48.3208425 -163.6891353125 -206.59488125 16.57710759375 -425.0602275 4.9243714625
-13.7342575 -81.1546675625 -182.39871125 -83.28880658125 -442.552511 -1.9753722275
-17.9217325 -91.5067851875 -185.88715875 -72.41712224375 -443.6433605 -1.1708612825
-22.1092075 -101.8589028125 -189.37560625 -61.54543790625 -444.73421 -0.3663503375
-26.2966825 -112.2110204375 -192.86405375 -50.67375356875 -445.8250595 0.4381606075
-30.4841575 -122.5631380625 -196.35250125 -39.80206923125 -446.915909 1.2426715525
-34.6716325 -132.9152556875 -199.84094875 -28.93038489375 -448.0067585 2.0471824975
-38.8591075 -143.2673733125 -203.32939625 -18.05870055625 -449.097608 2.8516934425
-43.0465825 -153.6194909375 -206.81784375 -7.18701621875 -450.1884575 3.6562043875
-47.2340575 -163.9716085625 -210.30629125 3.68466811875 -451.279307 4.4607153325
-51.4215325 -174.3237261875 -213.79473875 14.55635245625 -452.3701565 5.2652262775
-14.4206075 -86.0163141875 -187.41755375 -85.96647869375 -469.346137 -1.8850897425
-18.8763425 -97.0098700625 -191.14833625 -75.02180358125 -470.4943535 -1.0527374275
-23.3320775 -108.0034259375 -194.87911875 -64.07712846875 -471.64257 -0.2203851125
-27.7878125 -118.9969818125 -198.60990125 -53.13245335625 -472.7907865 0.6119672025
-32.2435475 -129.9905376875 -202.34068375 -42.18777824375 -473.939003 1.4443195175
-36.6992825 -140.9840935625 -206.07146625 -31.24310313125 -475.0872195 2.2766718325
-41.1550175 -151.9776494375 -209.80224875 -20.29842801875 -476.235436 3.1090241475
-45.6107525 -162.9712053125 -213.53303125 -9.35375290625 -477.3836525 3.9413764625
-50.0664875 -173.9647611875 -217.26381375 1.59092220625 -478.531869 4.7737287775
-54.5222225 -184.9583170625 -220.99459625 12.53559731875 -479.6800855 5.6060810925
7.0743825 -6.3629944375 -37.93262375 -60.28832626875 -227.8687385 -1.8944096025
5.0393875 -11.5797408125 -39.46064625 -49.99855630625 -228.397068 -1.3887234075
3.0043925 -16.7964871875 -40.98866875 -39.70878634375 -228.9253975 -0.8830372125
0.969397499999995 -22.0132335625 -42.51669125 -29.41901638125 -229.453727 -0.3773510175
-1.0655975 -27.2299799375 -44.04471375 -19.12924641875 -229.9820565 0.1283351775
-3.1005925 -32.4467263125 -45.57273625 -8.83947645625 -230.510386 0.6340213725
-5.1355875 -37.6634726875 -47.10075875 1.45029350625 -231.0387155 1.1397075675
-7.1705825 -42.8802190625 -48.62878125 11.74006346875 -231.567045 1.6453937625
-9.2055775 -48.0969654375 -50.15680375 22.02983343125 -232.0953745 2.1510799575
-11.2405725 -53.3137118125 -51.68482625 32.31960339375 -232.623704 2.6567661525
7.11410249999999 -10.3538858125 -40.76917125 -62.77712805625 -254.5832555 -1.7803759075
4.81282749999999 -16.2102299375 -42.53483875 -52.41441666875 -255.164424 -1.2414555225
2.5115525 -22.0665740625 -44.30050625 -42.05170528125 -255.7455925 -0.7025351375
0.210277499999994 -27.9229181875 -46.06617375 -31.68899389375 -256.326761 -0.1636147525
-2.0909975 -33.7792623125 -47.83184125 -21.32628250625 -256.9079295 0.3753056325
-4.3922725 -39.6356064375 -49.59750875 -10.96357111875 -257.489098 0.9142260175
-6.6935475 -45.4919505625 -51.36317625 -0.600859731250001 -258.0702665 1.4531464025
-8.9948225 -51.3482946875 -53.12884375 9.76185165625 -258.651435 1.9920667875
-11.2960975 -57.2046388125 -54.89451125 20.12456304375 -259.2326035 2.5309871725
-13.5973725 -63.0609829375 -56.66017875 30.48727443125 -259.813772 3.0699075575
7.1538225 -14.3447771875 -43.60571875 -65.26592984375 -281.2977725 -1.6663422125
4.58626749999999 -20.8407190625 -45.60903125 -54.83027703125 -281.93178 -1.0941876375
2.0187125 -27.3366609375 -47.61234375 -44.39462421875 -282.5657875 -0.5220330625
-0.548842500000006 -33.8326028125 -49.61565625 -33.95897140625 -283.199795 0.0501215124999998
-3.1163975 -40.3285446875 -51.61896875 -23.52331859375 -283.8338025 0.6222760875
-5.6839525 -46.8244865625 -53.62228125 -13.08766578125 -284.46781 1.1944306625
-8.25150750000001 -53.3204284375 -55.62559375 -2.65201296875 -285.1018175 1.7665852375
-10.8190625 -59.8163703125 -57.62890625 7.78363984375 -285.735825 2.3387398125
-13.3866175 -66.3123121875 -59.63221875 18.21929265625 -286.3698325 2.9108943875
-15.9541725 -72.8082540625 -61.63553125 28.65494546875 -287.00384 3.4830489625
7.1935425 -18.3356685625 -46.44226625 -67.75473163125 -308.0122895 -1.5523085175
4.3597075 -25.4712081875 -48.68322375 -57.24613739375 -308.699136 -0.9469197525
1.5258725 -32.6067478125 -50.92418125 -46.73754315625 -309.3859825 -0.3415309875
-1.3079625 -39.7422874375 -53.16513875 -36.22894891875 -310.072829 0.2638577775
-4.1417975 -46.8778270625 -55.40609625 -25.72035468125 -310.7596755 0.8692465425
-6.9756325 -54.0133666875 -57.64705375 -15.21176044375 -311.446522 1.4746353075
-9.8094675 -61.1489063125 -59.88801125 -4.70316620625 -312.1333685 2.0800240725
-12.6433025 -68.2844459375 -62.12896875 5.80542803125 -312.820215 2.6854128375
-15.4771375 -75.4199855625 -64.36992625 16.31402226875 -313.5070615 3.2908016025
-18.3109725 -82.5555251875 -66.61088375 26.82261650625 -314.193908 3.8961903675
7.2332625 -22.3265599375 -49.27881375 -70.24353341875 -334.7268065 -1.4382748225
4.1331475 -30.1016973125 -51.75741625 -59.66199775625 -335.466492 -0.7996518675
1.0330325 -37.8768346875 -54.23601875 -49.08046209375 -336.2061775 -0.1610289125
-2.06708250000001 -45.6519720625 -56.71462125 -38.49892643125 -336.945863 0.4775940425
-5.1671975 -53.4271094375 -59.19322375 -27.91739076875 -337.6855485 1.1162169975
-8.2673125 -61.2022468125 -61.67182625 -17.33585510625 -338.425234 1.7548399525
-11.3674275 -68.9773841875 -64.15042875 -6.75431944375 -339.1649195 2.3934629075
-14.4675425 -76.7525215625 -66.62903125 3.82721621875 -339.904605 3.0320858625
-17.5676575 -84.5276589375 -69.10763375 14.40875188125 -340.6442905 3.6707088175
-20.6677725 -92.3027963125 -71.58623625 24.99028754375 -341.383976 4.3093317725
7.2729825 -26.3174513125 -52.11536125 -72.73233520625 -361.4413235 -1.3242411275
3.9065875 -34.7321864375 -54.83160875 -62.07785811875 -362.233848 -0.6523839825
0.540192499999999 -43.1469215625 -57.54785625 -51.42338103125 -363.0263725 0.0194731625
-2.8262025 -51.5616566875 -60.26410375 -40.76890394375 -363.818897 0.6913303075
-6.1925975 -59.9763918125 -62.98035125 -30.11442685625 -364.6114215 1.3631874525
-9.55899250000001 -68.3911269375 -65.69659875 -19.45994976875 -365.403946 2.0350445975
-12.9253875 -76.8058620625 -68.41284625 -8.80547268125 -366.1964705 2.7069017425
-16.2917825 -85.2205971875 -71.12909375 1.84900440625 -366.988995 3.3787588875
-19.6581775 -93.6353323125 -73.84534125 12.50348149375 -367.7815195 4.0506160325
-23.0245725 -102.0500674375 -76.56158875 23.15795858125 -368.574044 4.7224731775
7.31270249999999 -30.3083426875 -54.95190875 -75.22113699375 -388.1558405 -1.2102074325
3.68002749999999 -39.3626755625 -57.90580125 -64.49371848125 -389.001204 -0.5051160975
0.0473524999999969 -48.4170084375 -60.85969375 -53.76629996875 -389.8465675 0.1999752375
-3.5853225 -57.4713413125 -63.81358625 -43.03888145625 -390.691931 0.9050665725
-7.2179975 -66.5256741875 -66.76747875 -32.31146294375 -391.5372945 1.6101579075
-10.8506725 -75.5800070625 -69.72137125 -21.58404443125 -392.382658 2.3152492425
-14.4833475 -84.6343399375 -72.67526375 -10.85662591875 -393.2280215 3.0203405775
-18.1160225 -93.6886728125 -75.62915625 -0.12920740625 -394.073385 3.7254319125
-21.7486975 -102.7430056875 -78.58304875 10.59821110625 -394.9187485 4.4305232475
-25.3813725 -111.7973385625 -81.53694125 21.32562961875 -395.764112 5.1356145825
7.3524225 -34.2992340625 -57.78845625 -77.70993878125 -414.8703575 -1.0961737375
3.45346749999999 -43.9931646875 -60.97999375 -66.90957884375 -415.76856 -0.3578482125
-0.445487500000008 -53.6870953125 -64.17153125 -56.10921890625 -416.6667625 0.3804773125
-4.3444425 -63.3810259375 -67.36306875 -45.30885896875 -417.564965 1.1188028375
-8.24339750000001 -73.0749565625 -70.55460625 -34.50849903125 -418.4631675 1.8571283625
-12.1423525 -82.7688871875 -73.74614375 -23.70813909375 -419.36137 2.5954538875
-16.0413075 -92.4628178125 -76.93768125 -12.90777915625 -420.2595725 3.3337794125
-19.9402625 -102.1567484375 -80.12921875 -2.10741921875 -421.157775 4.0721049375
-23.8392175 -111.8506790625 -83.32075625 8.69294071875 -422.0559775 4.8104304625
-27.7381725 -121.5446096875 -86.51229375 19.49330065625 -422.95418 5.5487559875
7.3921425 -38.2901254375 -60.62500375 -80.19874056875 -441.5848745 -0.9821400425
3.2269075 -48.6236538125 -64.05418625 -69.32543920625 -442.535916 -0.2105803275
-0.938327500000001 -58.9571821875 -67.48336875 -58.45213784375 -443.4869575 0.5609793875
-5.1035625 -69.2907105625 -70.91255125 -47.57883648125 -444.437999 1.3325391025
-9.26879750000001 -79.6242389375 -74.34173375 -36.70553511875 -445.3890405 2.1040988175
-13.4340325 -89.9577673125 -77.77091625 -25.83223375625 -446.340082 2.8756585325
-17.5992675 -100.2912956875 -81.20009875 -14.95893239375 -447.2911235 3.6472182475
-21.7645025 -110.6248240625 -84.62928125 -4.08563103125 -448.242165 4.4187779625
-25.9297375 -120.9583524375 -88.05846375 6.78767033125 -449.1932065 5.1903376775
-30.0949725 -131.2918808125 -91.48764625 17.66097169375 -450.144248 5.9618973925
7.43186249999999 -42.2810168125 -63.46155125 -82.68754235625 -468.2993915 -0.8681063475
3.0003475 -53.2541429375 -67.12837875 -71.74129956875 -469.303272 -0.0633124424999999
-1.4311675 -64.2272690625 -70.79520625 -60.79505678125 -470.3071525 0.7414814625
-5.86268250000001 -75.2003951875 -74.46203375 -49.84881399375 -471.311033 1.5462753675
-10.2941975 -86.1735213125 -78.12886125 -38.90257120625 -472.3149135 2.3510692725
-14.7257125 -97.1466474375 -81.79568875 -27.95632841875 -473.318794 3.1558631775
-19.1572275 -108.1197735625 -85.46251625 -17.01008563125 -474.3226745 3.9606570825
-23.5887425 -119.0928996875 -89.12934375 -6.06384284375 -475.326555 4.7654509875
-28.0202575 -130.0660258125 -92.79617125 4.88239994375 -476.3304355 5.5702448925
-32.4517725 -141.0391519375 -96.46299875 15.82864273125 -477.334316 6.3750387975
22.3922225 29.5355056875 66.38272375 -58.70922285625 -227.533974 -1.0911870975
20.3636275 24.3226245625 64.87644625 -48.41744106875 -227.9587195 -0.6615946925
18.3350325 19.1097434375 63.37016875 -38.12565928125 -228.383465 -0.2320022875
16.3064375 13.8968623125 61.86389125 -27.83387749375 -228.8082105 0.1975901175
14.2778425 8.6839811875 60.35761375 -17.54209570625 -229.232956 0.6271825225
12.2492475 3.4711000625 58.85133625 -7.25031391875 -229.6577015 1.0567749275
10.2206525 -1.74178106249999 57.34505875 3.04146786875 -230.082447 1.4863673325
8.1920575 -6.9546621875 55.83878125 13.33324965625 -230.5071925 1.9159597375
6.1634625 -12.1675433125 54.33250375 23.62503144375 -230.931938 2.3455521425
4.1348675 -17.3804244375 52.82622625 33.91681323125 -231.3566835 2.7751445475
23.1580125 26.4153695625 65.72847125 -61.00915431875 -254.169382 -0.9534021925
20.8651175 20.5647311875 63.98923875 -50.64448045625 -254.6424385 -0.4851827775
18.5722225 14.7140928125 62.25000625 -40.27980659375 -255.115495 -0.0169633625000002
16.2793275 8.86345443750001 60.51077375 -29.91513273125 -255.5885515 0.4512560525
13.9864325 3.0128160625 58.77154125 -19.55045886875 -256.061608 0.9194754675
11.6935375 -2.8378223125 57.03230875 -9.18578500625 -256.5346645 1.3876948825
9.4006425 -8.68846068749999 55.29307625 1.17888885625 -257.007721 1.8559142975
7.1077475 -14.5390990625 53.55384375 11.54356271875 -257.4807775 2.3241337125
4.8148525 -20.3897374375 51.81461125 21.90823658125 -257.953834 2.7923531275
2.5219575 -26.2403758125 50.07537875 32.27291044375 -258.4268905 3.2605725425
23.9238025 23.2952334375 65.07421875 -63.30908578125 -280.80479 -0.8156172875
21.3666075 16.8068378125 63.10203125 -52.87151984375 -281.3261575 -0.3087708625
18.8094125 10.3184421875 61.12984375 -42.43395390625 -281.847525 0.1980755625
16.2522175 3.83004656250001 59.15765625 -31.99638796875 -282.3688925 0.7049219875
13.6950225 -2.6583490625 57.18546875 -21.55882203125 -282.89026 1.2117684125
11.1378275 -9.1467446875 55.21328125 -11.12125609375 -283.4116275 1.7186148375
8.5806325 -15.6351403125 53.24109375 -0.68369015625 -283.932995 2.2254612625
6.0234375 -22.1235359375 51.26890625 9.75387578125 -284.4543625 2.7323076875
3.4662425 -28.6119315625 49.29671875 20.19144171875 -284.97573 3.2391541125
0.909047499999994 -35.1003271875 47.32453125 30.62900765625 -285.4970975 3.7460005375
24.6895925 20.1750973125 64.41996625 -65.60901724375 -307.440198 -0.6778323825
21.8680975 13.0489444375 62.21482375 -55.09855923125 -308.0098765 -0.1323589475
19.0466025 5.9227915625 60.00968125 -44.58810121875 -308.579555 0.4131144875
16.2251075 -1.2033613125 57.80453875 -34.07764320625 -309.1492335 0.9585879225
13.4036125 -8.32951418749999 55.59939625 -23.56718519375 -309.718912 1.5040613575
10.5821175 -15.4556670625 53.39425375 -13.05672718125 -310.2885905 2.0495347925
7.7606225 -22.5818199375 51.18911125 -2.54626916875 -310.858269 2.5950082275
4.9391275 -29.7079728125 48.98396875 7.96418884375 -311.4279475 3.1404816625
2.11763249999999 -36.8341256875 46.77882625 18.47464685625 -311.997626 3.6859550975
-0.703862500000003 -43.9602785625 44.57368375 28.98510486875 -312.5673045 4.2314285325
25.4553825 17.0549611875 63.76571375 -67.90894870625 -334.075606 -0.5400474775
22.3695875 9.2910510625 61.32761625 -57.32559861875 -334.6935955 0.0440529675
19.2837925 1.5271409375 58.88951875 -46.74224853125 -335.311585 0.6281534125
16.1979975 -6.23676918749999 56.45142125 -36.15889844375 -335.9295745 1.2122538575
13.1122025 -14.0006793125 54.01332375 -25.57554835625 -336.547564 1.7963543025
10.0264075 -21.7645894375 51.57522625 -14.99219826875 -337.1655535 2.3804547475
6.9406125 -29.5284995625 49.13712875 -4.40884818125 -337.783543 2.9645551925
3.8548175 -37.2924096875 46.69903125 6.17450190625 -338.4015325 3.5486556375
0.769022499999997 -45.0563198125 44.26093375 16.75785199375 -339.019522 4.1327560825
-2.3167725 -52.8202299375 41.82283625 27.34120208125 -339.6375115 4.7168565275
26.2211725 13.9348250625 63.11146125 -70.20888016875 -360.711014 -0.4022625725
22.8710775 5.53315768749999 60.44040875 -59.55263800625 -361.3773145 0.2204648825
19.5209825 -2.8685096875 57.76935625 -48.89639584375 -362.043615 0.8431923375
16.1708875 -11.2701770625 55.09830375 -38.24015368125 -362.7099155 1.4659197925
12.8207925 -19.6718444375 52.42725125 -27.58391151875 -363.376216 2.0886472475
9.4706975 -28.0735118125 49.75619875 -16.92766935625 -364.0425165 2.7113747025
6.12060249999999 -36.4751791875 47.08514625 -6.27142719375 -364.708817 3.3341021575
2.7705075 -44.8768465625 44.41409375 4.38481496875 -365.3751175 3.9568296125
-0.579587500000006 -53.2785139375 41.74304125 15.04105713125 -366.041418 4.5795570675
-3.9296825 -61.6801813125 39.07198875 25.69729929375 -366.7077185 5.2022845225
26.9869625 10.8146889375 62.45720875 -72.50881163125 -387.346422 -0.2644776675
23.3725675 1.77526431250001 59.5532012500001 -61.77967739375 -388.0610335 0.3968767975
19.7581725 -7.2641603125 56.64919375 -51.05054315625 -388.775645 1.0582312625
16.1437775 -16.3035849375 53.74518625 -40.32140891875 -389.4902565 1.7195857275
12.5293825 -25.3430095625 50.84117875 -29.59227468125 -390.204868 2.3809401925
8.9149875 -34.3824341875 47.93717125 -18.86314044375 -390.9194795 3.0422946575
5.3005925 -43.4218588125 45.03316375 -8.13400620625 -391.634091 3.7036491225
1.6861975 -52.4612834375 42.12915625 2.59512803125 -392.3487025 4.3650035875
-1.9281975 -61.5007080625 39.22514875 13.32426226875 -393.063314 5.0263580525
-5.5425925 -70.5401326875 36.32114125 24.05339650625 -393.7779255 5.6877125175
27.7527525 7.6945528125 61.80295625 -74.80874309375 -413.98183 -0.1266927625
23.8740575 -1.98262906249999 58.66599375 -64.00671678125 -414.7447525 0.5732887125
19.9953625 -11.6598109375 55.5290312500001 -53.20469046875 -415.507675 1.2732701875
16.1166675 -21.3369928125 52.39206875 -42.40266415625 -416.2705975 1.9732516625
12.2379725 -31.0141746875 49.25510625 -31.60063784375 -417.03352 2.6732331375
8.3592775 -40.6913565625 46.11814375 -20.79861153125 -417.7964425 3.3732146125
4.4805825 -50.3685384375 42.98118125 -9.99658521875 -418.559365 4.0731960875
0.601887500000003 -60.0457203125 39.84421875 0.805441093750001 -419.3222875 4.7731775625
-3.2768075 -69.7229021875 36.70725625 11.60746740625 -420.08521 5.4731590375
-7.1555025 -79.4000840625 33.57029375 22.40949371875 -420.8481325 6.1731405125
28.5185425 4.5744166875 61.14870375 -77.10867455625 -440.617238 0.0110921424999997
24.3755475 -5.7405224375 57.77878625 -66.23375616875 -441.4284715 0.7497006275
20.2325525 -16.0554615625 54.40886875 -55.35883778125 -442.239705 1.4883091125
16.0895575 -26.3704006875 51.03895125 -44.48391939375 -443.0509385 2.2269175975
11.9465625 -36.6853398125 47.66903375 -33.60900100625 -443.862172 2.9655260825
7.8035675 -47.0002789375 44.29911625 -22.73408261875 -444.6734055 3.7041345675
3.6605725 -57.3152180625 40.92919875 -11.85916423125 -445.484639 4.4427430525
-0.482422500000004 -67.6301571875 37.55928125 -0.984245843750002 -446.2958725 5.1813515375
-4.6254175 -77.9450963125 34.18936375 9.89067254375 -447.107106 5.9199600225
-8.7684125 -88.2600354375 30.81944625 20.76559093125 -447.9183395 6.6585685075
29.2843325 1.45428056250001 60.49445125 -79.40860601875 -467.252646 0.1488770475
24.8770375 -9.4984158125 56.89157875 -68.46079555625 -468.1121905 0.9261125425
20.4697425 -20.4511121875 53.28870625 -57.51298509375 -468.971735 1.7033480375
16.0624475 -31.4038085625 49.68583375 -46.56517463125 -469.8312795 2.4805835325
11.6551525 -42.3565049375 46.08296125 -35.61736416875 -470.690824 3.2578190275
7.2478575 -53.3092013125 42.48008875 -24.66955370625 -471.5503685 4.0350545225
2.8405625 -64.2618976875 38.87721625 -13.72174324375 -472.409913 4.8122900175
-1.5667325 -75.2145940625 35.27434375 -2.77393278125 -473.2694575 5.5895255125
-5.9740275 -86.1672904375 31.67147125 8.17387768125 -474.129002 6.3667610075
-10.3813225 -97.1199868125 28.06859875 19.12168814375 -474.9885465 7.1439965025
37.7100625 65.4340058125 170.69807125 -57.13011944375 -227.1992095 -0.2879645925
35.6878675 60.2249899375 169.21353875 -46.83632583125 -227.520371 0.0655340224999999
33.6656725 55.0159740625 167.72900625 -36.54253221875 -227.8415325 0.4190326375
31.6434775 49.8069581875 166.24447375 -26.24873860625 -228.162694 0.7725312525
29.6212825 44.5979423125 164.75994125 -15.95494499375 -228.4838555 1.1260298675
27.5990875 39.3889264375 163.27540875 -5.66115138125 -228.805017 1.4795284825
25.5768925 34.1799105625 161.79087625 4.63264223125 -229.1261785 1.8330270975
23.5546975 28.9708946875 160.30634375 14.92643584375 -229.44734 2.1865257125
21.5325025 23.7618788125 158.82181125 25.22022945625 -229.7685015 2.5400243275
19.5103075 18.5528629375 157.33727875 35.51402306875 -230.089663 2.8935229425
39.2019225 63.1846249375 172.22611375 -59.24118058125 -253.7555085 -0.1264284775
36.9174075 57.3396923125 170.51331625 -48.87454424375 -254.120453 0.2710899675
34.6328925 51.4947596875 168.80051875 -38.50790790625 -254.4853975 0.6686084125
32.3483775 45.6498270625 167.08772125 -28.14127156875 -254.850342 1.0661268575
30.0638625 39.8048944375 165.37492375 -17.77463523125 -255.2152865 1.4636453025
27.7793475 33.9599618125 163.66212625 -7.40799889375 -255.580231 1.8611637475
25.4948325 28.1150291875 161.94932875 2.95863744375 -255.9451755 2.2586821925
23.2103175 22.2700965625 160.23653125 13.32527378125 -256.31012 2.6562006375
20.9258025 16.4251639375 158.52373375 23.69191011875 -256.6750645 3.0537190825
18.6412875 10.5802313125 156.81093625 34.05854645625 -257.040009 3.4512375275
40.6937825 60.9352440625 173.75415625 -61.35224171875 -280.3118075 0.0351076374999997
38.1469475 54.4543946875 171.81309375 -50.91276265625 -280.720535 0.4766459125
35.6001125 47.9735453125 169.87203125 -40.47328359375 -281.1292625 0.9181841875
33.0532775 41.4926959375 167.93096875 -30.03380453125 -281.53799 1.3597224625
30.5064425 35.0118465625 165.98990625 -19.59432546875 -281.9467175 1.8012607375
27.9596075 28.5309971875 164.04884375 -9.15484640625 -282.355445 2.2427990125
25.4127725 22.0501478125 162.10778125 1.28463265625 -282.7641725 2.6843372875
22.8659375 15.5692984375 160.16671875 11.72411171875 -283.1729 3.1258755625
20.3191025 9.0884490625 158.22565625 22.16359078125 -283.5816275 3.5674138375
17.7722675 2.60759968749999 156.28459375 32.60306984375 -283.990355 4.0089521125
42.1856425 58.6858631875 175.28219875 -63.46330285625 -306.8681065 0.1966437525
39.3764875 51.5690970625 173.11287125 -52.95098106875 -307.320617 0.6822018575
36.5673325 44.4523309375 170.94354375 -42.43865928125 -307.7731275 1.1677599625
33.7581775 37.3355648125 168.77421625 -31.92633749375 -308.225638 1.6533180675
30.9490225 30.2187986875 166.60488875 -21.41401570625 -308.6781485 2.1388761725
28.1398675 23.1020325625 164.43556125 -10.90169391875 -309.130659 2.6244342775
25.3307125 15.9852664375 162.26623375 -0.389372131249999 -309.5831695 3.1099923825
22.5215575 8.8685003125 160.09690625 10.12294965625 -310.03568 3.5955504875
19.7124025 1.7517341875 157.92757875 20.63527144375 -310.4881905 4.0811085925
16.9032475 -5.3650319375 155.75825125 31.14759323125 -310.940701 4.5666666975
43.6775025 56.4364823125 176.81024125 -65.57436399375 -333.4244055 0.3581798675
40.6060275 48.6837994375 174.41264875 -54.98919948125 -333.920699 0.8877578025
37.5345525 40.9311165625 172.01505625 -44.40403496875 -334.4169925 1.4173357375
34.4630775 33.1784336875 169.61746375 -33.81887045625 -334.913286 1.9469136725
31.3916025 25.4257508125 167.21987125 -23.23370594375 -335.4095795 2.4764916075
28.3201275 17.6730679375 164.82227875 -12.64854143125 -335.905873 3.0060695425
25.2486525 9.9203850625 162.42468625 -2.06337691875 -336.4021665 3.5356474775
22.1771775 2.1677021875 160.02709375 8.52178759375 -336.89846 4.0652254125
19.1057025 -5.5849806875 157.62950125 19.10695210625 -337.3947535 4.5948033475
16.0342275 -13.3376635625 155.23190875 29.69211661875 -337.891047 5.1243812825
45.1693625 54.1871014375 178.33828375 -67.68542513125 -359.9807045 0.5197159825
41.8355675 45.7985018125 175.71242625 -57.02741789375 -360.520781 1.0933137475
38.5017725 37.4099021875 173.08656875 -46.36941065625 -361.0608575 1.6669115125
35.1679775 29.0213025625 170.46071125 -35.71140341875 -361.600934 2.2405092775
31.8341825 20.6327029375 167.83485375 -25.05339618125 -362.1410105 2.8141070425
28.5003875 12.2441033125 165.20899625 -14.39538894375 -362.681087 3.3877048075
25.1665925 3.8555036875 162.58313875 -3.73738170625 -363.2211635 3.9613025725
21.8327975 -4.53309593750001 159.95728125 6.92062553125 -363.76124 4.5349003375
18.4990025 -12.9216955625 157.33142375 17.57863276875 -364.3013165 5.1084981025
15.1652075 -21.3102951875 154.70556625 28.23664000625 -364.841393 5.6820958675
46.6612225 51.9377205625 179.86632625 -69.79648626875 -386.5370035 0.6812520975
43.0651075 42.9132041875 177.01220375 -59.06563630625 -387.120863 1.2988696925
39.4689925 33.8886878125 174.15808125 -48.33478634375 -387.7047225 1.9164872875
35.8728775 24.8641714375 171.30395875 -37.60393638125 -388.288582 2.5341048825
32.2767625 15.8396550625 168.44983625 -26.87308641875 -388.8724415 3.1517224775
28.6806475 6.8151386875 165.59571375 -16.14223645625 -389.456301 3.7693400725
25.0845325 -2.2093776875 162.74159125 -5.41138649375 -390.0401605 4.3869576675
21.4884175 -11.2338940625 159.88746875 5.31946346875 -390.62402 5.0045752625
17.8923025 -20.2584104375 157.03334625 16.05031343125 -391.2078795 5.6221928575
14.2961875 -29.2829268125 154.17922375 26.78116339375 -391.791739 6.2398104525
48.1530825 49.6883396875 181.39436875 -71.90754740625 -413.0933025 0.8427882125
44.2946475 40.0279065625 178.31198125 -61.10385471875 -413.720945 1.5044256375
40.4362125 30.3674734375 175.22959375 -50.30016203125 -414.3485875 2.1660630625
36.5777775 20.7070403125 172.14720625 -39.49646934375 -414.97623 2.8277004875
32.7193425 11.0466071875 169.06481875 -28.69277665625 -415.6038725 3.4893379125
28.8609075 1.3861740625 165.98243125 -17.88908396875 -416.231515 4.1509753375
25.0024725 -8.2742590625 162.90004375 -7.08539128125 -416.8591575 4.8126127625
21.1440375 -17.9346921875 159.81765625 3.71830140625 -417.4868 5.4742501875
17.2856025 -27.5951253125 156.73526875 14.52199409375 -418.1144425 6.1358876125
13.4271675 -37.2555584375 153.65288125 25.32568678125 -418.742085 6.7975250375
49.6449425 47.4389588125 182.92241125 -74.01860854375 -439.6496015 1.0043243275
45.5241875 37.1426089375 179.61175875 -63.14207313125 -440.321027 1.7099815825
41.4034325 26.8462590625 176.30110625 -52.26553771875 -440.9924525 2.4156388375
37.2826775 16.5499091875 172.99045375 -41.38900230625 -441.663878 3.1212960925
33.1619225 6.25355931249999 169.67980125 -30.51246689375 -442.3353035 3.8269533475
29.0411675 -4.04279056250001 166.36914875 -19.63593148125 -443.006729 4.5326106025
24.9204125 -14.3391404375 163.05849625 -8.75939606875 -443.6781545 5.2382678575
20.7996575 -24.6354903125 159.74784375 2.11713934375 -444.34958 5.9439251125
16.6789025 -34.9318401875 156.43719125 12.99367475625 -445.0210055 6.6495823675
12.5581475 -45.2281900625 153.12653875 23.87021016875 -445.692431 7.3552396225
51.1368025 45.1895779375 184.45045375 -76.12966968125 -466.2059005 1.1658604425
46.7537275 34.2573113125 180.91153625 -65.18029154375 -466.921109 1.9155375275
42.3706525 23.3250446875 177.37261875 -54.23091340625 -467.6363175 2.6652146125
37.9875775 12.3927780625 173.83370125 -43.28153526875 -468.351526 3.4148916975
33.6045025 1.4605114375 170.29478375 -32.33215713125 -469.0667345 4.1645687825
29.2214275 -9.4717551875 166.75586625 -21.38277899375 -469.781943 4.9142458675
24.8383525 -20.4040218125 163.21694875 -10.43340085625 -470.4971515 5.6639229525
20.4552775 -31.3362884375 159.67803125 0.515977281249999 -471.21236 6.4136000375
16.0722025 -42.2685550625 156.13911375 11.46535541875 -471.9275685 7.1632771225
11.6891275 -53.2008216875 152.60019625 22.41473355625 -472.642777 7.9129542075
53.0279025 101.3325059375 275.01341875 -55.55101603125 -226.864445 0.5152579125
51.0121075 96.1273553125 273.55063125 -45.25521059375 -227.0820225 0.7926627375
48.9963125 90.9222046875 272.08784375 -34.95940515625 -227.2996 1.0700675625
46.9805175 85.7170540625 270.62505625 -24.66359971875 -227.5171775 1.3474723875
44.9647225 80.5119034375 269.16226875 -14.36779428125 -227.734755 1.6248772125
42.9489275 75.3067528125 267.69948125 -4.07198884375 -227.9523325 1.9022820375
40.9331325 70.1016021875 266.23669375 6.22381659375 -228.16991 2.1796868625
38.9173375 64.8964515625 264.77390625 16.51962203125 -228.3874875 2.4570916875
36.9015425 59.6913009375 263.31111875 26.81542746875 -228.605065 2.7344965125
34.8857475 54.4861503125 261.84833125 37.11123290625 -228.8226425 3.0119013375
55.2458325 99.9538803125 278.72375625 -57.47320684375 -253.341635 0.7005452375
52.9696975 94.1146534375 277.03739375 -47.10460803125 -253.5984675 1.0273627125
50.6935625 88.2754265625 275.35103125 -36.73600921875 -253.8553 1.3541801875
48.4174275 82.4361996875 273.66466875 -26.36741040625 -254.1121325 1.6809976625
46.1412925 76.5969728125 271.97830625 -15.99881159375 -254.368965 2.0078151375
43.8651575 70.7577459375 270.29194375 -5.63021278125 -254.6257975 2.3346326125
41.5890225 64.9185190625 268.60558125 4.73838603125 -254.88263 2.6614500875
39.3128875 59.0792921875 266.91921875 15.10698484375 -255.1394625 2.9882675625
37.0367525 53.2400653125 265.23285625 25.47558365625 -255.396295 3.3150850375
34.7606175 47.4008384375 263.54649375 35.84418246875 -255.6531275 3.6419025125
57.4637625 98.5752546875 282.43409375 -59.39539765625 -279.818825 0.8858325625
54.9272875 92.1019515625 280.52415625 -48.95400546875 -280.1149125 1.2620626875
52.3908125 85.6286484375 278.61421875 -38.51261328125 -280.411 1.6382928125
49.8543375 79.1553453125 276.70428125 -28.07122109375 -280.7070875 2.0145229375
47.3178625 72.6820421875 274.79434375 -17.62982890625 -281.003175 2.3907530625
44.7813875 66.2087390625 272.88440625 -7.18843671875 -281.2992625 2.7669831875
42.2449125 59.7354359375 270.97446875 3.25295546875 -281.59535 3.1432133125
39.7084375 53.2621328125 269.06453125 13.69434765625 -281.8914375 3.5194434375
37.1719625 46.7888296875 267.15459375 24.13573984375 -282.187525 3.8956735625
34.6354875 40.3155265625 265.24465625 34.57713203125 -282.4836125 4.2719036875
59.6816925 97.1966290625 286.14443125 -61.31758846875 -306.296015 1.0711198875
56.8848775 90.0892496875 284.01091875 -50.80340290625 -306.6313575 1.4967626625
54.0880625 82.9818703125 281.87740625 -40.28921734375 -306.9667 1.9224054375
51.2912475 75.8744909375 279.74389375 -29.77503178125 -307.3020425 2.3480482125
48.4944325 68.7671115625 277.61038125 -19.26084621875 -307.637385 2.7736909875
45.6976175 61.6597321875 275.47686875 -8.74666065625 -307.9727275 3.1993337625
42.9008025 54.5523528125 273.34335625 1.76752490625 -308.30807 3.6249765375
40.1039875 47.4449734375 271.20984375 12.28171046875 -308.6434125 4.0506193125
37.3071725 40.3375940625 269.07633125 22.79589603125 -308.978755 4.4762620875
34.5103575 33.2302146875 266.94281875 33.31008159375 -309.3140975 4.9019048625
61.8996225 95.8180034375 289.85476875 -63.23977928125 -332.773205 1.2564072125
58.8424675 88.0765478125 287.49768125 -52.65280034375 -333.1478025 1.7314626375
55.7853125 80.3350921875 285.14059375 -42.06582140625 -333.5224 2.2065180625
52.7281575 72.5936365625 282.78350625 -31.47884246875 -333.8969975 2.6815734875
49.6710025 64.8521809375 280.42641875 -20.89186353125 -334.271595 3.1566289125
46.6138475 57.1107253125 278.06933125 -10.30488459375 -334.6461925 3.6316843375
43.5566925 49.3692696875 275.71224375 0.28209434375 -335.02079 4.1067397625
40.4995375 41.6278140625 273.35515625 10.86907328125 -335.3953875 4.5817951875
37.4423825 33.8863584375 270.99806875 21.45605221875 -335.769985 5.0568506125
34.3852275 26.1449028125 268.64098125 32.04303115625 -336.1445825 5.5319060375
64.1175525 94.4393778125 293.56510625 -65.16197009375 -359.250395 1.4416945375
60.8000575 86.0638459375 290.98444375 -54.50219778125 -359.6642475 1.9661626125
57.4825625 77.6883140625 288.40378125 -43.84242546875 -360.0781 2.4906306875
54.1650675 69.3127821875 285.82311875 -33.18265315625 -360.4919525 3.0150987625
50.8475725 60.9372503125 283.24245625 -22.52288084375 -360.905805 3.5395668375
47.5300775 52.5617184375 280.66179375 -11.86310853125 -361.3196575 4.0640349125
44.2125825 44.1861865625 278.08113125 -1.20333621875 -361.73351 4.5885029875
40.8950875 35.8106546875 275.50046875 9.45643609375 -362.1473625 5.1129710625
37.5775925 27.4351228125 272.91980625 20.11620840625 -362.561215 5.6374391375
34.2600975 19.0595909375 270.33914375 30.77598071875 -362.9750675 6.1619072125
66.3354825 93.0607521875 297.27544375 -67.08416090625 -385.727585 1.6269818625
62.7576475 84.0511440625 294.47120625 -56.35159521875 -386.1806925 2.2008625875
59.1798125 75.0415359375 291.66696875 -45.61902953125 -386.6338 2.7747433125
55.6019775 66.0319278125 288.86273125 -34.88646384375 -387.0869075 3.3486240375
52.0241425 57.0223196875 286.05849375 -24.15389815625 -387.540015 3.9225047625
48.4463075 48.0127115625 283.25425625 -13.42133246875 -387.9931225 4.4963854875
44.8684725 39.0031034375 280.45001875 -2.68876678125 -388.44623 5.0702662125
41.2906375 29.9934953125 277.64578125 8.04379890625 -388.8993375 5.6441469375
37.7128025 20.9838871875 274.84154375 18.77636459375 -389.352445 6.2180276625
34.1349675 11.9742790625 272.03730625 29.50893028125 -389.8055525 6.7919083875
68.5534125 91.6821265625 300.98578125 -69.00635171875 -412.204775 1.8122691875
64.7152375 82.0384421875 297.95796875 -58.20099265625 -412.6971375 2.4355625625
60.8770625 72.3947578125 294.93015625 -47.39563359375 -413.1895 3.0588559375
57.0388875 62.7510734375 291.90234375 -36.59027453125 -413.6818625 3.6821493125
53.2007125 53.1073890625 288.87453125 -25.78491546875 -414.174225 4.3054426875
49.3625375 43.4637046875 285.84671875 -14.97955640625 -414.6665875 4.9287360625
45.5243625 33.8200203125 282.81890625 -4.17419734375 -415.15895 5.5520294375
41.6861875 24.1763359375 279.79109375 6.63116171875 -415.6513125 6.1753228125
37.8480125 14.5326515625 276.76328125 17.43652078125 -416.143675 6.7986161875
34.0098375 4.8889671875 273.73546875 28.24187984375 -416.6360375 7.4219095625
70.7713425 90.3035009375 304.69611875 -70.92854253125 -438.681965 1.9975565125
66.6728275 80.0257403125 301.44473125 -60.05039009375 -439.2135825 2.6702625375
62.5743125 69.7479796875 298.19334375 -49.17223765625 -439.7452 3.3429685625
58.4757975 59.4702190625 294.94195625 -38.29408521875 -440.2768175 4.0156745875
54.3772825 49.1924584375 291.69056875 -27.41593278125 -440.808435 4.6883806125
50.2787675 38.9146978125 288.43918125 -16.53778034375 -441.3400525 5.3610866375
46.1802525 28.6369371875 285.18779375 -5.65962790625 -441.87167 6.0337926625
42.0817375 18.3591765625 281.93640625 5.21852453125 -442.4032875 6.7064986875
37.9832225 8.08141593750001 278.68501875 16.09667696875 -442.934905 7.3792047125
33.8847075 -2.1963446875 275.43363125 26.97482940625 -443.4665225 8.0519107375
72.9892725 88.9248753125 308.40645625 -72.85073334375 -465.159155 2.1828438375
68.6304175 78.0130384375 304.93149375 -61.89978753125 -465.7300275 2.9049625125
64.2715625 67.1012015625 301.45653125 -50.94884171875 -466.3009 3.6270811875
59.9127075 56.1893646875 297.98156875 -39.99789590625 -466.8717725 4.3491998625
55.5538525 45.2775278125 294.50660625 -29.04695009375 -467.442645 5.0713185375
51.1949975 34.3656909375 291.03164375 -18.09600428125 -468.0135175 5.7934372125
46.8361425 23.4538540625 287.55668125 -7.14505846875 -468.58439 6.5155558875
42.4772875 12.5420171875 284.08171875 3.80588734375 -469.1552625 7.2376745625
38.1184325 1.63018031250001 280.60675625 14.75683315625 -469.726135 7.9597932375
33.7595775 -9.2816565625 277.13179375 25.70777896875 -470.2970075 8.6819119125
68.3457425 137.2310060625 379.32876625 -53.97191261875 -226.5296805 1.3184804175
66.3363475 132.0297206875 377.88772375 -43.67409535625 -226.643674 1.5197914525
64.3269525 126.8284353125 376.44668125 -33.37627809375 -226.7576675 1.7211024875
62.3175575 121.6271499375 375.00563875 -23.07846083125 -226.871661 1.9224135225
60.3081625 116.4258645625 373.56459625 -12.78064356875 -226.9856545 2.1237245575
58.2987675 111.2245791875 372.12355375 -2.48282630625 -227.099648 2.3250355925
56.2893725 106.0232938125 370.68251125 7.81499095625 -227.2136415 2.5263466275
54.2799775 100.8220084375 369.24146875 18.11280821875 -227.327635 2.7276576625
52.2705825 95.6207230625 367.80042625 28.41062548125 -227.4416285 2.9289686975
50.2611875 90.4194376875 366.35938375 38.70844274375 -227.555622 3.1302797325
71.2897425 136.7231356875 385.22139875 -55.70523310625 -252.9277615 1.5275189525
69.0219875 130.8896145625 383.56147125 -45.33467181875 -253.076482 1.7836354575
66.7542325 125.0560934375 381.90154375 -34.96411053125 -253.2252025 2.0397519625
64.4864775 119.2225723125 380.24161625 -24.59354924375 -253.373923 2.2958684675
62.2187225 113.3890511875 378.58168875 -14.22298795625 -253.5226435 2.5519849725
59.9509675 107.5555300625 376.92176125 -3.85242666875 -253.671364 2.8081014775
57.6832125 101.7220089375 375.26183375 6.51813461875 -253.8200845 3.0642179825
55.4154575 95.8884878125 373.60190625 16.88869590625 -253.968805 3.3203344875
53.1477025 90.0549666875 371.94197875 27.25925719375 -254.1175255 3.5764509925
50.8799475 84.2214455625 370.28205125 37.62981848125 -254.266246 3.8325674975
74.2337425 136.2152653125 391.11403125 -57.43855359375 -279.3258425 1.7365574875
71.7076275 129.7495084375 389.23521875 -46.99524828125 -279.50929 2.0474794625
69.1815125 123.2837515625 387.35640625 -36.55194296875 -279.6927375 2.3584014375
66.6553975 116.8179946875 385.47759375 -26.10863765625 -279.876185 2.6693234125
64.1292825 110.3522378125 383.59878125 -15.66533234375 -280.0596325 2.9802453875
61.6031675 103.8864809375 381.71996875 -5.22202703125 -280.24308 3.2911673625
59.0770525 97.4207240625 379.84115625 5.22127828125 -280.4265275 3.6020893375
56.5509375 90.9549671875 377.96234375 15.66458359375 -280.609975 3.9130113125
54.0248225 84.4892103125 376.08353125 26.10788890625 -280.7934225 4.2239332875
51.4987075 78.0234534375 374.20471875 36.55119421875 -280.97687 4.5348552625
77.1777425 135.7073949375 397.00666375 -59.17187408125 -305.7239235 1.9455960225
74.3932675 128.6094023125 394.90896625 -48.65582474375 -305.942098 2.3113234675
71.6087925 121.5114096875 392.81126875 -38.13977540625 -306.1602725 2.6770509125
68.8243175 114.4134170625 390.71357125 -27.62372606875 -306.378447 3.0427783575
66.0398425 107.3154244375 388.61587375 -17.10767673125 -306.5966215 3.4085058025
63.2553675 100.2174318125 386.51817625 -6.59162739375 -306.814796 3.7742332475
60.4708925 93.1194391875 384.42047875 3.92442194375 -307.0329705 4.1399606925
57.6864175 86.0214465625 382.32278125 14.44047128125 -307.251145 4.5056881375
54.9019425 78.9234539375 380.22508375 24.95652061875 -307.4693195 4.8714155825
52.1174675 71.8254613125 378.12738625 35.47256995625 -307.687494 5.2371430275
80.1217425 135.1995245625 402.89929625 -60.90519456875 -332.1220045 2.1546345575
77.0789075 127.4692961875 400.58271375 -50.31640120625 -332.374906 2.5751674725
74.0360725 119.7390678125 398.26613125 -39.72760784375 -332.6278075 2.9957003875
70.9932375 112.0088394375 395.94954875 -29.13881448125 -332.880709 3.4162333025
67.9504025 104.2786110625 393.63296625 -18.55002111875 -333.1336105 3.8367662175
64.9075675 96.5483826875 391.31638375 -7.96122775625 -333.386512 4.2572991325
61.8647325 88.8181543125 388.99980125 2.62756560625 -333.6394135 4.6778320475
58.8218975 81.0879259375 386.68321875 13.21635896875 -333.892315 5.0983649625
55.7790625 73.3576975625 384.36663625 23.80515233125 -334.1452165 5.5188978775
52.7362275 65.6274691875 382.05005375 34.39394569375 -334.398118 5.9394307925
83.0657425 134.6916541875 408.79192875 -62.63851505625 -358.5200855 2.3636730925
79.7645475 126.3291900625 406.25646125 -51.97697766875 -358.807714 2.8390114775
76.4633525 117.9667259375 403.72099375 -41.31544028125 -359.0953425 3.3143498625
73.1621575 109.6042618125 401.18552625 -30.65390289375 -359.382971 3.7896882475
69.8609625 101.2417976875 398.65005875 -19.99236550625 -359.6705995 4.2650266325
66.5597675 92.8793335625 396.11459125 -9.33082811875 -359.958228 4.7403650175
63.2585725 84.5168694375 393.57912375 1.33070926875 -360.2458565 5.2157034025
59.9573775 76.1544053125 391.04365625 11.99224665625 -360.533485 5.6910417875
56.6561825 67.7919411875 388.50818875 22.65378404375 -360.8211135 6.1663801725
53.3549875 59.4294770625 385.97272125 33.31532143125 -361.108742 6.6417185575
86.0097425 134.1837838125 414.68456125 -64.37183554375 -384.9181665 2.5727116275
82.4501875 125.1890839375 411.93020875 -53.63755413125 -385.240522 3.1028554825
78.8906325 116.1943840625 409.17585625 -42.90327271875 -385.5628775 3.6329993375
75.3310775 107.1996841875 406.42150375 -32.16899130625 -385.885233 4.1631431925
71.7715225 98.2049843125 403.66715125 -21.43470989375 -386.2075885 4.6932870475
68.2119675 89.2102844375 400.91279875 -10.70042848125 -386.529944 5.2234309025
64.6524125 80.2155845625 398.15844625 0.0338529312499991 -386.8522995 5.7535747575
61.0928575 71.2208846875 395.40409375 10.76813434375 -387.174655 6.2837186125
57.5333025 62.2261848125 392.64974125 21.50241575625 -387.4970105 6.8138624675
53.9737475 53.2314849375 389.89538875 32.23669716875 -387.819366 7.3440063225
88.9537425 133.6759134375 420.57719375 -66.10515603125 -411.3162475 2.7817501625
85.1358275 124.0489778125 417.60395625 -55.29813059375 -411.67333 3.3666994875
81.3179125 114.4220421875 414.63071875 -44.49110515625 -412.0304125 3.9516488125
77.4999975 104.7951065625 411.65748125 -33.68407971875 -412.387495 4.5365981375
73.6820825 95.1681709375 408.68424375 -22.87705428125 -412.7445775 5.1215474625
69.8641675 85.5412353125 405.71100625 -12.07002884375 -413.10166 5.7064967875
66.0462525 75.9142996875 402.73776875 -1.26300340625 -413.4587425 6.2914461125
62.2283375 66.2873640625 399.76453125 9.54402203124999 -413.815825 6.8763954375
58.4104225 56.6604284375 396.79129375 20.35104746875 -414.1729075 7.4613447625
54.5925075 47.0334928125 393.81805625 31.15807290625 -414.52999 8.0462940875
91.8977425 133.1680430625 426.46982625 -67.83847651875 -437.7143285 2.9907886975
87.8214675 122.9088716875 423.27770375 -56.95870705625 -438.106138 3.6305434925
83.7451925 112.6497003125 420.08558125 -46.07893759375 -438.4979475 4.2702982875
79.6689175 102.3905289375 416.89345875 -35.19916813125 -438.889757 4.9100530825
75.5926425 92.1313575625 413.70133625 -24.31939866875 -439.2815665 5.5498078775
71.5163675 81.8721861875 410.50921375 -13.43962920625 -439.673376 6.1895626725
67.4400925 71.6130148125 407.31709125 -2.55985974375 -440.0651855 6.8293174675
63.3638175 61.3538434375 404.12496875 8.31990971875 -440.456995 7.4690722625
59.2875425 51.0946720625 400.93284625 19.19967918125 -440.8488045 8.1088270575
55.2112675 40.8355006875 397.74072375 30.07944864375 -441.240614 8.7485818525
94.8417425 132.6601726875 432.36245875 -69.57179700625 -464.1124095 3.1998272325
90.5071075 121.7687655625 428.95145125 -58.61928351875 -464.538946 3.8943874975
86.1724725 110.8773584375 425.54044375 -47.66677003125 -464.9654825 4.5889477625
81.8378375 99.9859513125 422.12943625 -36.71425654375 -465.392019 5.2835080275
77.5032025 89.0945441875 418.71842875 -25.76174305625 -465.8185555 5.9780682925
73.1685675 78.2031370625 415.30742125 -14.80922956875 -466.245092 6.6726285575
68.8339325 67.3117299375 411.89641375 -3.85671608125 -466.6716285 7.3671888225
64.4992975 56.4203228125 408.48540625 7.09579740625 -467.098165 8.0617490875
60.1646625 45.5289156875 405.07439875 18.04831089375 -467.5247015 8.7563093525
55.8300275 34.6375085625 401.66339125 29.00082438125 -467.951238 9.4508696175
83.6635825 173.1295061875 483.64411375 -52.39280920625 -226.194916 2.1217029225
81.6605875 167.9320860625 482.22481625 -42.09298011875 -226.2053255 2.2469201675
79.6575925 162.7346659375 480.80551875 -31.79315103125 -226.215735 2.3721374125
77.6545975 157.5372458125 479.38622125 -21.49332194375 -226.2261445 2.4973546575
75.6516025 152.3398256875 477.96692375 -11.19349285625 -226.236554 2.6225719025
73.6486075 147.1424055625 476.54762625 -0.893663768749999 -226.2469635 2.7477891475
71.6456125 141.9449854375 475.12832875 9.40616531875 -226.257373 2.8730063925
69.6426175 136.7475653125 473.70903125 19.70599440625 -226.2677825 2.9982236375
67.6396225 131.5501451875 472.28973375 30.00582349375 -226.278192 3.1234408825
65.6366275 126.3527250625 470.87043625 40.30565258125 -226.2886015 3.2486581275
87.3336525 173.4923910625 491.71904125 -53.93725936875 -252.513888 2.3544926675
85.0742775 167.6645756875 490.08554875 -43.56473560625 -252.5544965 2.5399082025
82.8149025 161.8367603125 488.45205625 -33.19221184375 -252.595105 2.7253237375
80.5555275 156.0089449375 486.81856375 -22.81968808125 -252.6357135 2.9107392725
78.2961525 150.1811295625 485.18507125 -12.44716431875 -252.676322 3.0961548075
76.0367775 144.3533141875 483.55157875 -2.07464055625 -252.7169305 3.2815703425
73.7774025 138.5254988125 481.91808625 8.29788320625 -252.757539 3.4669858775
71.5180275 132.6976834375 480.28459375 18.67040696875 -252.7981475 3.6524014125
69.2586525 126.8698680625 478.65110125 29.04293073125 -252.838756 3.8378169475
66.9992775 121.0420526875 477.01760875 39.41545449375 -252.8793645 4.0232324825
91.0037225 173.8552759375 499.79396875 -55.48170953125 -278.83286 2.5872824125
88.4879675 167.3970653125 497.94628125 -45.03649109375 -278.9036675 2.8328962375
85.9722125 160.9388546875 496.09859375 -34.59127265625 -278.974475 3.0785100625
83.4564575 154.4806440625 494.25090625 -24.14605421875 -279.0452825 3.3241238875
80.9407025 148.0224334375 492.40321875 -13.70083578125 -279.11609 3.5697377125
78.4249475 141.5642228125 490.55553125 -3.25561734375 -279.1868975 3.8153515375
75.9091925 135.1060121875 488.70784375 7.18960109375 -279.257705 4.0609653625
73.3934375 128.6478015625 486.86015625 17.63481953125 -279.3285125 4.3065791875
70.8776825 122.1895909375 485.01246875 28.08003796875 -279.39932 4.5521930125
68.3619275 115.7313803125 483.16478125 38.52525640625 -279.4701275 4.7978068375
94.6737925 174.2181608125 507.86889625 -57.02615969375 -305.151832 2.8200721575
91.9016575 167.1295549375 505.80701375 -46.50824658125 -305.2528385 3.1258842725
89.1295225 160.0409490625 503.74513125 -35.99033346875 -305.353845 3.4316963875
86.3573875 152.9523431875 501.68324875 -25.47242035625 -305.4548515 3.7375085025
83.5852525 145.8637373125 499.62136625 -14.95450724375 -305.555858 4.0433206175
80.8131175 138.7751314375 497.55948375 -4.43659413125 -305.6568645 4.3491327325
78.0409825 131.6865255625 495.49760125 6.08131898125 -305.757871 4.6549448475
75.2688475 124.5979196875 493.43571875 16.59923209375 -305.8588775 4.9607569625
72.4967125 117.5093138125 491.37383625 27.11714520625 -305.959884 5.2665690775
69.7245775 110.4207079375 489.31195375 37.63505831875 -306.0608905 5.5723811925
98.3438625 174.5810456875 515.94382375 -58.57060985625 -331.470804 3.0528619025
95.3153475 166.8620445625 513.66774625 -47.98000206875 -331.6020095 3.4188723075
92.2868325 159.1430434375 511.39166875 -37.38939428125 -331.733215 3.7848827125
89.2583175 151.4240423125 509.11559125 -26.79878649375 -331.8644205 4.1508931175
86.2298025 143.7050411875 506.83951375 -16.20817870625 -331.995626 4.5169035225
83.2012875 135.9860400625 504.56343625 -5.61757091875 -332.1268315 4.8829139275
80.1727725 128.2670389375 502.28735875 4.97303686875 -332.258037 5.2489243325
77.1442575 120.5480378125 500.01128125 15.56364465625 -332.3892425 5.6149347375
74.1157425 112.8290366875 497.73520375 26.15425244375 -332.520448 5.9809451425
71.0872275 105.1100355625 495.45912625 36.74486023125 -332.6516535 6.3469555475
102.0139325 174.9439305625 524.01875125 -60.11506001875 -357.789776 3.2856516475
98.7290375 166.5945341875 521.52847875 -49.45175755625 -357.9511805 3.7118603425
95.4441425 158.2451378125 519.03820625 -38.78845509375 -358.112585 4.1380690375
92.1592475 149.8957414375 516.54793375 -28.12515263125 -358.2739895 4.5642777325
88.8743525 141.5463450625 514.05766125 -17.46185016875 -358.435394 4.9904864275
85.5894575 133.1969486875 511.56738875 -6.79854770625 -358.5967985 5.4166951225
82.3045625 124.8475523125 509.07711625 3.86475475625 -358.758203 5.8429038175
79.0196675 116.4981559375 506.58684375 14.52805721875 -358.9196075 6.2691125125
75.7347725 108.1487595625 504.09657125 25.19135968125 -359.081012 6.6953212075
72.4498775 99.7993631875 501.60629875 35.85466214375 -359.2424165 7.1215299025
105.6840025 175.3068154375 532.09367875 -61.65951018125 -384.108748 3.5184413925
102.1427275 166.3270238125 529.38921125 -50.92351304375 -384.3003515 4.0048483775
98.6014525 157.3472321875 526.68474375 -40.18751590625 -384.491955 4.4912553625
95.0601775 148.3674405625 523.98027625 -29.45151876875 -384.6835585 4.9776623475
91.5189025 139.3876489375 521.27580875 -18.71552163125 -384.875162 5.4640693325
87.9776275 130.4078573125 518.57134125 -7.97952449375 -385.0667655 5.9504763175
84.4363525 121.4280656875 515.86687375 2.75647264375 -385.258369 6.4368833025
80.8950775 112.4482740625 513.16240625 13.49246978125 -385.4499725 6.9232902875
77.3538025 103.4684824375 510.45793875 24.22846691875 -385.641576 7.4096972725
73.8125275 94.4886908125 507.75347125 34.96446405625 -385.8331795 7.8961042575
109.3540725 175.6697003125 540.16860625 -63.20396034375 -410.42772 3.7512311375
105.5564175 166.0595134375 537.24994375 -52.39526853125 -410.6495225 4.2978364125
101.7587625 156.4493265625 534.33128125 -41.58657671875 -410.871325 4.8444416875
97.9611075 146.8391396875 531.41261875 -30.77788490625 -411.0931275 5.3910469625
94.1634525 137.2289528125 528.49395625 -19.96919309375 -411.31493 5.9376522375
90.3657975 127.6187659375 525.57529375 -9.16050128125 -411.5367325 6.4842575125
86.5681425 118.0085790625 522.65663125 1.64819053125 -411.758535 7.0308627875
82.7704875 108.3983921875 519.73796875 12.45688234375 -411.9803375 7.5774680625
78.9728325 98.7882053125 516.81930625 23.26557415625 -412.20214 8.1240733375
75.1751775 89.1780184375 513.90064375 34.07426596875 -412.4239425 8.6706786125
113.0241425 176.0325851875 548.24353375 -64.74841050625 -436.746692 3.9840208825
108.9701075 165.7920030625 545.11067625 -53.86702401875 -436.9986935 4.5908244475
104.9160725 155.5514209375 541.97781875 -42.98563753125 -437.250695 5.1976280125
100.8620375 145.3108388125 538.84496125 -32.10425104375 -437.5026965 5.8044315775
96.8080025 135.0702566875 535.71210375 -21.22286455625 -437.754698 6.4112351425
92.7539675 124.8296745625 532.57924625 -10.34147806875 -438.0066995 7.0180387075
88.6999325 114.5890924375 529.44638875 0.539908418749998 -438.258701 7.6248422725
84.6458975 104.3485103125 526.31353125 11.42129490625 -438.5107025 8.2316458375
80.5918625 94.1079281875 523.18067375 22.30268139375 -438.762704 8.8384494025
76.5378275 83.8673460625 520.04781625 33.18406788125 -439.0147055 9.4452529675
116.6942125 176.3954700625 556.31846125 -66.29286066875 -463.065664 4.2168106275
112.3837975 165.5244926875 552.97140875 -55.33877950625 -463.3478645 4.8838124825
108.0733825 154.6535153125 549.62435625 -44.38469834375 -463.630065 5.5508143375
103.7629675 143.7825379375 546.27730375 -33.43061718125 -463.9122655 6.2178161925
99.4525525 132.9115605625 542.93025125 -22.47653601875 -464.194466 6.8848180475
95.1421375 122.0405831875 539.58319875 -11.52245485625 -464.4766665 7.5518199025
90.8317225 111.1696058125 536.23614625 -0.568373693750003 -464.758867 8.2188217575
86.5213075 100.2986284375 532.88909375 10.38570746875 -465.0410675 8.8858236125
82.2108925 89.4276510625 529.54204125 21.33978863125 -465.323268 9.5528254675
77.9004775 78.5566736875 526.19498875 32.29386979375 -465.6054685 10.2198273225
</DataArray>
</CellData>
<Cells>
<DataArray type="UInt32" Name="connectivity" NumberOfComponents="1" format="ascii" >
181 1316 1883 794 0 12 272 87 
1316 1317 1884 1883 12 13 273 272 
1317 1318 1885 1884 13 14 274 273 
1318 1319 1886 1885 14 15 275 274 
1319 1320 1887 1886 15 16 276 275 
1320 1321 1888 1887 16 17 277 276 
1321 1322 1889 1888 17 18 278 277 
1322 1323 1890 1889 18 19 279 278 
1323 1324 1891 1890 19 20 280 279 
1324 191 1055 1891 20 1 21 280 
794 1883 1892 795 87 272 281 86 
1883 1884 1893 1892 272 273 282 281 
1884 1885 1894 1893 273 274 283 282 
1885 1886 1895 1894 274 275 284 283 
1886 1887 1896 1895 275 276 285 284 
1887 1888 1897 1896 276 277 286 285 
1888 1889 1898 1897 277 278 287 286 
1889 1890 1899 1898 278 279 288 287 
1890 1891 1900 1899 279 280 289 288 
1891 1055 1056 1900 280 21 22 289 
795 1892 1901 796 86 281 290 85 
1892 1893 1902 1901 281 282 291 290 
1893 1894 1903 1902 282 283 292 291 
1894 1895 1904 1903 283 284 293 292 
1895 1896 1905 1904 284 285 294 293 
1896 1897 1906 1905 285 286 295 294 
1897 1898 1907 1906 286 287 296 295 
1898 1899 1908 1907 287 288 297 296 
1899 1900 1909 1908 288 289 298 297 
1900 1056 1057 1909 289 22 23 298 
796 1901 1910 797 85 290 299 84 
1901 1902 1911 1910 290 291 300 299 
1902 1903 1912 1911 291 292 301 300 
1903 1904 1913 1912 292 293 302 301 
1904 1905 1914 1913 293 294 303 302 
1905 1906 1915 1914 294 295 304 303 
1906 1907 1916 1915 295 296 305 304 
1907 1908 1917 1916 296 297 306 305 
1908 1909 1918 1917 297 298 307 306 
1909 1057 1058 1918 298 23 24 307 
797 1910 1919 798 84 299 308 83 
1910 1911 1920 1919 299 300 309 308 
1911 1912 1921 1920 300 301 310 309 
1912 1913 1922 1921 301 302 311 310 
1913 1914 1923 1922 302 303 312 311 
1914 1915 1924 1923 303 304 313 312 
1915 1916 1925 1924 304 305 314 313 
1916 1917 1926 1925 305 306 315 314 
1917 1918 1927 1926 306 307 316 315 
1918 1058 1059 1927 307 24 25 316 
798 1919 1928 799 83 308 317 82 
1919 1920 1929 1928 308 309 318 317 
1920 1921 1930 1929 309 310 319 318 
1921 1922 1931 1930 310 311 320 319 
1922 1923 1932 1931 311 312 321 320 
1923 1924 1933 1932 312 313 322 321 
1924 1925 1934 1933 313 314 323 322 
1925 1926 1935 1934 314 315 324 323 
1926 1927 1936 1935 315 316 325 324 
1927 1059 1060 1936 316 25 26 325 
799 1928 1937 800 82 317 326 81 
1928 1929 1938 1937 317 318 327 326 
1929 1930 1939 1938 318 319 328 327 
1930 1931 1940 1939 319 320 329 328 
1931 1932 1941 1940 320 321 330 329 
1932 1933 1942 1941 321 322 331 330 
1933 1934 1943 1942 322 323 332 331 
1934 1935 1944 1943 323 324 333 332 
1935 1936 1945 1944 324 325 334 333 
1936 1060 1061 1945 325 26 27 334 
800 1937 1946 801 81 326 335 80 
1937 1938 1947 1946 326 327 336 335 
1938 1939 1948 1947 327 328 337 336 
1939 1940 1949 1948 328 329 338 337 
1940 1941 1950 1949 329 330 339 338 
1941 1942 1951 1950 330 331 340 339 
1942 1943 1952 1951 331 332 341 340 
1943 1944 1953 1952 332 333 342 341 
1944 1945 1954 1953 333 334 343 342 
1945 1061 1062 1954 334 27 28 343 
801 1946 1955 802 80 335 344 79 
1946 1947 1956 1955 335 336 345 344 
1947 1948 1957 1956 336 337 346 345 
1948 1949 1958 1957 337 338 347 346 
1949 1950 1959 1958 338 339 348 347 
1950 1951 1960 1959 339 340 349 348 
1951 1952 1961 1960 340 341 350 349 
1952 1953 1962 1961 341 342 351 350 
1953 1954 1963 1962 342 343 352 351 
1954 1062 1063 1963 343 28 29 352 
802 1955 1964 803 79 344 353 78 
1955 1956 1965 1964 344 345 354 353 
1956 1957 1966 1965 345 346 355 354 
1957 1958 1967 1966 346 347 356 355 
1958 1959 1968 1967 347 348 357 356 
1959 1960 1969 1968 348 349 358 357 
1960 1961 1970 1969 349 350 359 358 
1961 1962 1971 1970 350 351 360 359 
1962 1963 1972 1971 351 352 361 360 
1963 1063 1064 1972 352 29 30 361 
803 1964 1973 804 78 353 362 77 
1964 1965 1974 1973 353 354 363 362 
1965 1966 1975 1974 354 355 364 363 
1966 1967 1976 1975 355 356 365 364 
1967 1968 1977 1976 356 357 366 365 
1968 1969 1978 1977 357 358 367 366 
1969 1970 1979 1978 358 359 368 367 
1970 1971 1980 1979 359 360 369 368 
1971 1972 1981 1980 360 361 370 369 
1972 1064 1065 1981 361 30 31 370 
804 1973 1982 805 77 362 371 76 
1973 1974 1983 1982 362 363 372 371 
1974 1975 1984 1983 363 364 373 372 
1975 1976 1985 1984 364 365 374 373 
1976 1977 1986 1985 365 366 375 374 
1977 1978 1987 1986 366 367 376 375 
1978 1979 1988 1987 367 368 377 376 
1979 1980 1989 1988 368 369 378 377 
1980 1981 1990 1989 369 370 379 378 
1981 1065 1066 1990 370 31 32 379 
805 1982 1991 806 76 371 380 75 
1982 1983 1992 1991 371 372 381 380 
1983 1984 1993 1992 372 373 382 381 
1984 1985 1994 1993 373 374 383 382 
1985 1986 1995 1994 374 375 384 383 
1986 1987 1996 1995 375 376 385 384 
1987 1988 1997 1996 376 377 386 385 
1988 1989 1998 1997 377 378 387 386 
1989 1990 1999 1998 378 379 388 387 
1990 1066 1067 1999 379 32 33 388 
806 1991 2000 807 75 380 389 74 
1991 1992 2001 2000 380 381 390 389 
1992 1993 2002 2001 381 382 391 390 
1993 1994 2003 2002 382 383 392 391 
1994 1995 2004 2003 383 384 393 392 
1995 1996 2005 2004 384 385 394 393 
1996 1997 2006 2005 385 386 395 394 
1997 1998 2007 2006 386 387 396 395 
1998 1999 2008 2007 387 388 397 396 
1999 1067 1068 2008 388 33 34 397 
807 2000 2009 808 74 389 398 73 
2000 2001 2010 2009 389 390 399 398 
2001 2002 2011 2010 390 391 400 399 
2002 2003 2012 2011 391 392 401 400 
2003 2004 2013 2012 392 393 402 401 
2004 2005 2014 2013 393 394 403 402 
2005 2006 2015 2014 394 395 404 403 
2006 2007 2016 2015 395 396 405 404 
2007 2008 2017 2016 396 397 406 405 
2008 1068 1069 2017 397 34 35 406 
808 2009 2018 809 73 398 407 72 
2009 2010 2019 2018 398 399 408 407 
2010 2011 2020 2019 399 400 409 408 
2011 2012 2021 2020 400 401 410 409 
2012 2013 2022 2021 401 402 411 410 
2013 2014 2023 2022 402 403 412 411 
2014 2015 2024 2023 403 404 413 412 
2015 2016 2025 2024 404 405 414 413 
2016 2017 2026 2025 405 406 415 414 
2017 1069 1070 2026 406 35 36 415 
809 2018 2027 810 72 407 416 71 
2018 2019 2028 2027 407 408 417 416 
2019 2020 2029 2028 408 409 418 417 
2020 2021 2030 2029 409 410 419 418 
2021 2022 2031 2030 410 411 420 419 
2022 2023 2032 2031 411 412 421 420 
2023 2024 2033 2032 412 413 422 421 
2024 2025 2034 2033 413 414 423 422 
2025 2026 2035 2034 414 415 424 423 
2026 1070 1071 2035 415 36 37 424 
810 2027 2036 811 71 416 425 70 
2027 2028 2037 2036 416 417 426 425 
2028 2029 2038 2037 417 418 427 426 
2029 2030 2039 2038 418 419 428 427 
2030 2031 2040 2039 419 420 429 428 
2031 2032 2041 2040 420 421 430 429 
2032 2033 2042 2041 421 422 431 430 
2033 2034 2043 2042 422 423 432 431 
2034 2035 2044 2043 423 424 433 432 
2035 1071 1072 2044 424 37 38 433 
811 2036 2045 812 70 425 434 69 
2036 2037 2046 2045 425 426 435 434 
2037 2038 2047 2046 426 427 436 435 
2038 2039 2048 2047 427 428 437 436 
2039 2040 2049 2048 428 429 438 437 
2040 2041 2050 2049 429 430 439 438 
2041 2042 2051 2050 430 431 440 439 
2042 2043 2052 2051 431 432 441 440 
2043 2044 2053 2052 432 433 442 441 
2044 1072 1073 2053 433 38 39 442 
812 2045 2054 813 69 434 443 68 
2045 2046 2055 2054 434 435 444 443 
2046 2047 2056 2055 435 436 445 444 
2047 2048 2057 2056 436 437 446 445 
2048 2049 2058 2057 437 438 447 446 
2049 2050 2059 2058 438 439 448 447 
2050 2051 2060 2059 439 440 449 448 
2051 2052 2061 2060 440 441 450 449 
2052 2053 2062 2061 441 442 451 450 
2053 1073 1074 2062 442 39 40 451 
813 2054 2063 814 68 443 452 67 
2054 2055 2064 2063 443 444 453 452 
2055 2056 2065 2064 444 445 454 453 
2056 2057 2066 2065 445 446 455 454 
2057 2058 2067 2066 446 447 456 455 
2058 2059 2068 2067 447 448 457 456 
2059 2060 2069 2068 448 449 458 457 
2060 2061 2070 2069 449 450 459 458 
2061 2062 2071 2070 450 451 460 459 
2062 1074 1075 2071 451 40 41 460 
814 2063 2072 815 67 452 461 66 
2063 2064 2073 2072 452 453 462 461 
2064 2065 2074 2073 453 454 463 462 
2065 2066 2075 2074 454 455 464 463 
2066 2067 2076 2075 455 456 465 464 
2067 2068 2077 2076 456 457 466 465 
2068 2069 2078 2077 457 458 467 466 
2069 2070 2079 2078 458 459 468 467 
2070 2071 2080 2079 459 460 469 468 
2071 1075 1076 2080 460 41 42 469 
815 2072 2081 816 66 461 470 65 
2072 2073 2082 2081 461 462 471 470 
2073 2074 2083 2082 462 463 472 471 
2074 2075 2084 2083 463 464 473 472 
2075 2076 2085 2084 464 465 474 473 
2076 2077 2086 2085 465 466 475 474 
2077 2078 2087 2086 466 467 476 475 
2078 2079 2088 2087 467 468 477 476 
2079 2080 2089 2088 468 469 478 477 
2080 1076 1077 2089 469 42 43 478 
816 2081 2090 817 65 470 479 64 
2081 2082 2091 2090 470 471 480 479 
2082 2083 2092 2091 471 472 481 480 
2083 2084 2093 2092 472 473 482 481 
2084 2085 2094 2093 473 474 483 482 
2085 2086 2095 2094 474 475 484 483 
2086 2087 2096 2095 475 476 485 484 
2087 2088 2097 2096 476 477 486 485 
2088 2089 2098 2097 477 478 487 486 
2089 1077 1078 2098 478 43 44 487 
817 2090 2099 818 64 479 488 63 
2090 2091 2100 2099 479 480 489 488 
2091 2092 2101 2100 480 481 490 489 
2092 2093 2102 2101 481 482 491 490 
2093 2094 2103 2102 482 483 492 491 
2094 2095 2104 2103 483 484 493 492 
2095 2096 2105 2104 484 485 494 493 
2096 2097 2106 2105 485 486 495 494 
2097 2098 2107 2106 486 487 496 495 
2098 1078 1079 2107 487 44 45 496 
818 2099 2108 819 63 488 497 62 
2099 2100 2109 2108 488 489 498 497 
2100 2101 2110 2109 489 490 499 498 
2101 2102 2111 2110 490 491 500 499 
2102 2103 2112 2111 491 492 501 500 
2103 2104 2113 2112 492 493 502 501 
2104 2105 2114 2113 493 494 503 502 
2105 2106 2115 2114 494 495 504 503 
2106 2107 2116 2115 495 496 505 504 
2107 1079 1080 2116 496 45 46 505 
819 2108 2117 820 62 497 506 61 
2108 2109 2118 2117 497 498 507 506 
2109 2110 2119 2118 498 499 508 507 
2110 2111 2120 2119 499 500 509 508 
2111 2112 2121 2120 500 501 510 509 
2112 2113 2122 2121 501 502 511 510 
2113 2114 2123 2122 502 503 512 511 
2114 2115 2124 2123 503 504 513 512 
2115 2116 2125 2124 504 505 514 513 
2116 1080 1081 2125 505 46 47 514 
820 2117 2126 821 61 506 515 60 
2117 2118 2127 2126 506 507 516 515 
2118 2119 2128 2127 507 508 517 516 
2119 2120 2129 2128 508 509 518 517 
2120 2121 2130 2129 509 510 519 518 
2121 2122 2131 2130 510 511 520 519 
2122 2123 2132 2131 511 512 521 520 
2123 2124 2133 2132 512 513 522 521 
2124 2125 2134 2133 513 514 523 522 
2125 1081 1082 2134 514 47 48 523 
821 2126 2135 822 60 515 524 59 
2126 2127 2136 2135 515 516 525 524 
2127 2128 2137 2136 516 517 526 525 
2128 2129 2138 2137 517 518 527 526 
2129 2130 2139 2138 518 519 528 527 
2130 2131 2140 2139 519 520 529 528 
2131 2132 2141 2140 520 521 530 529 
2132 2133 2142 2141 521 522 531 530 
2133 2134 2143 2142 522 523 532 531 
2134 1082 1083 2143 523 48 49 532 
822 2135 1397 164 59 524 58 3 
2135 2136 1398 1397 524 525 57 58 
2136 2137 1399 1398 525 526 56 57 
2137 2138 1400 1399 526 527 55 56 
2138 2139 1401 1400 527 528 54 55 
2139 2140 1402 1401 528 529 53 54 
2140 2141 1403 1402 529 530 52 53 
2141 2142 1404 1403 530 531 51 52 
2142 2143 1405 1404 531 532 50 51 
2143 1083 190 1405 532 49 2 50 
180 1325 2144 823 181 1316 1883 794 
1325 1326 2145 2144 1316 1317 1884 1883 
1326 1327 2146 2145 1317 1318 1885 1884 
1327 1328 2147 2146 1318 1319 1886 1885 
1328 1329 2148 2147 1319 1320 1887 1886 
1329 1330 2149 2148 1320 1321 1888 1887 
1330 1331 2150 2149 1321 1322 1889 1888 
1331 1332 2151 2150 1322 1323 1890 1889 
1332 1333 2152 2151 1323 1324 1891 1890 
1333 192 1084 2152 1324 191 1055 1891 
823 2144 2153 824 794 1883 1892 795 
2144 2145 2154 2153 1883 1884 1893 1892 
2145 2146 2155 2154 1884 1885 1894 1893 
2146 2147 2156 2155 1885 1886 1895 1894 
2147 2148 2157 2156 1886 1887 1896 1895 
2148 2149 2158 2157 1887 1888 1897 1896 
2149 2150 2159 2158 1888 1889 1898 1897 
2150 2151 2160 2159 1889 1890 1899 1898 
2151 2152 2161 2160 1890 1891 1900 1899 
2152 1084 1085 2161 1891 1055 1056 1900 
824 2153 2162 825 795 1892 1901 796 
2153 2154 2163 2162 1892 1893 1902 1901 
2154 2155 2164 2163 1893 1894 1903 1902 
2155 2156 2165 2164 1894 1895 1904 1903 
2156 2157 2166 2165 1895 1896 1905 1904 
2157 2158 2167 2166 1896 1897 1906 1905 
2158 2159 2168 2167 1897 1898 1907 1906 
2159 2160 2169 2168 1898 1899 1908 1907 
2160 2161 2170 2169 1899 1900 1909 1908 
2161 1085 1086 2170 1900 1056 1057 1909 
825 2162 2171 826 796 1901 1910 797 
2162 2163 2172 2171 1901 1902 1911 1910 
2163 2164 2173 2172 1902 1903 1912 1911 
2164 2165 2174 2173 1903 1904 1913 1912 
2165 2166 2175 2174 1904 1905 1914 1913 
2166 2167 2176 2175 1905 1906 1915 1914 
2167 2168 2177 2176 1906 1907 1916 1915 
2168 2169 2178 2177 1907 1908 1917 1916 
2169 2170 2179 2178 1908 1909 1918 1917 
2170 1086 1087 2179 1909 1057 1058 1918 
826 2171 2180 827 797 1910 1919 798 
2171 2172 2181 2180 1910 1911 1920 1919 
2172 2173 2182 2181 1911 1912 1921 1920 
2173 2174 2183 2182 1912 1913 1922 1921 
2174 2175 2184 2183 1913 1914 1923 1922 
2175 2176 2185 2184 1914 1915 1924 1923 
2176 2177 2186 2185 1915 1916 1925 1924 
2177 2178 2187 2186 1916 1917 1926 1925 
2178 2179 2188 2187 1917 1918 1927 1926 
2179 1087 1088 2188 1918 1058 1059 1927 
827 2180 2189 828 798 1919 1928 799 
2180 2181 2190 2189 1919 1920 1929 1928 
2181 2182 2191 2190 1920 1921 1930 1929 
2182 2183 2192 2191 1921 1922 1931 1930 
2183 2184 2193 2192 1922 1923 1932 1931 
2184 2185 2194 2193 1923 1924 1933 1932 
2185 2186 2195 2194 1924 1925 1934 1933 
2186 2187 2196 2195 1925 1926 1935 1934 
2187 2188 2197 2196 1926 1927 1936 1935 
2188 1088 1089 2197 1927 1059 1060 1936 
828 2189 2198 829 799 1928 1937 800 
2189 2190 2199 2198 1928 1929 1938 1937 
2190 2191 2200 2199 1929 1930 1939 1938 
2191 2192 2201 2200 1930 1931 1940 1939 
2192 2193 2202 2201 1931 1932 1941 1940 
2193 2194 2203 2202 1932 1933 1942 1941 
2194 2195 2204 2203 1933 1934 1943 1942 
2195 2196 2205 2204 1934 1935 1944 1943 
2196 2197 2206 2205 1935 1936 1945 1944 
2197 1089 1090 2206 1936 1060 1061 1945 
829 2198 2207 830 800 1937 1946 801 
2198 2199 2208 2207 1937 1938 1947 1946 
2199 2200 2209 2208 1938 1939 1948 1947 
2200 2201 2210 2209 1939 1940 1949 1948 
2201 2202 2211 2210 1940 1941 1950 1949 
2202 2203 2212 2211 1941 1942 1951 1950 
2203 2204 2213 2212 1942 1943 1952 1951 
2204 2205 2214 2213 1943 1944 1953 1952 
2205 2206 2215 2214 1944 1945 1954 1953 
2206 1090 1091 2215 1945 1061 1062 1954 
830 2207 2216 831 801 1946 1955 802 
2207 2208 2217 2216 1946 1947 1956 1955 
2208 2209 2218 2217 1947 1948 1957 1956 
2209 2210 2219 2218 1948 1949 1958 1957 
2210 2211 2220 2219 1949 1950 1959 1958 
2211 2212 2221 2220 1950 1951 1960 1959 
2212 2213 2222 2221 1951 1952 1961 1960 
2213 2214 2223 2222 1952 1953 1962 1961 
2214 2215 2224 2223 1953 1954 1963 1962 
2215 1091 1092 2224 1954 1062 1063 1963 
831 2216 2225 832 802 1955 1964 803 
2216 2217 2226 2225 1955 1956 1965 1964 
2217 2218 2227 2226 1956 1957 1966 1965 
2218 2219 2228 2227 1957 1958 1967 1966 
2219 2220 2229 2228 1958 1959 1968 1967 
2220 2221 2230 2229 1959 1960 1969 1968 
2221 2222 2231 2230 1960 1961 1970 1969 
2222 2223 2232 2231 1961 1962 1971 1970 
2223 2224 2233 2232 1962 1963 1972 1971 
2224 1092 1093 2233 1963 1063 1064 1972 
832 2225 2234 833 803 1964 1973 804 
2225 2226 2235 2234 1964 1965 1974 1973 
2226 2227 2236 2235 1965 1966 1975 1974 
2227 2228 2237 2236 1966 1967 1976 1975 
2228 2229 2238 2237 1967 1968 1977 1976 
2229 2230 2239 2238 1968 1969 1978 1977 
2230 2231 2240 2239 1969 1970 1979 1978 
2231 2232 2241 2240 1970 1971 1980 1979 
2232 2233 2242 2241 1971 1972 1981 1980 
2233 1093 1094 2242 1972 1064 1065 1981 
833 2234 2243 834 804 1973 1982 805 
2234 2235 2244 2243 1973 1974 1983 1982 
2235 2236 2245 2244 1974 1975 1984 1983 
2236 2237 2246 2245 1975 1976 1985 1984 
2237 2238 2247 2246 1976 1977 1986 1985 
2238 2239 2248 2247 1977 1978 1987 1986 
2239 2240 2249 2248 1978 1979 1988 1987 
2240 2241 2250 2249 1979 1980 1989 1988 
2241 2242 2251 2250 1980 1981 1990 1989 
2242 1094 1095 2251 1981 1065 1066 1990 
834 2243 2252 835 805 1982 1991 806 
2243 2244 2253 2252 1982 1983 1992 1991 
2244 2245 2254 2253 1983 1984 1993 1992 
2245 2246 2255 2254 1984 1985 1994 1993 
2246 2247 2256 2255 1985 1986 1995 1994 
2247 2248 2257 2256 1986 1987 1996 1995 
2248 2249 2258 2257 1987 1988 1997 1996 
2249 2250 2259 2258 1988 1989 1998 1997 
2250 2251 2260 2259 1989 1990 1999 1998 
2251 1095 1096 2260 1990 1066 1067 1999 
835 2252 2261 836 806 1991 2000 807 
2252 2253 2262 2261 1991 1992 2001 2000 
2253 2254 2263 2262 1992 1993 2002 2001 
2254 2255 2264 2263 1993 1994 2003 2002 
2255 2256 2265 2264 1994 1995 2004 2003 
2256 2257 2266 2265 1995 1996 2005 2004 
2257 2258 2267 2266 1996 1997 2006 2005 
2258 2259 2268 2267 1997 1998 2007 2006 
2259 2260 2269 2268 1998 1999 2008 2007 
2260 1096 1097 2269 1999 1067 1068 2008 
836 2261 2270 837 807 2000 2009 808 
2261 2262 2271 2270 2000 2001 2010 2009 
2262 2263 2272 2271 2001 2002 2011 2010 
2263 2264 2273 2272 2002 2003 2012 2011 
2264 2265 2274 2273 2003 2004 2013 2012 
2265 2266 2275 2274 2004 2005 2014 2013 
2266 2267 2276 2275 2005 2006 2015 2014 
2267 2268 2277 2276 2006 2007 2016 2015 
2268 2269 2278 2277 2007 2008 2017 2016 
2269 1097 1098 2278 2008 1068 1069 2017 
837 2270 2279 838 808 2009 2018 809 
2270 2271 2280 2279 2009 2010 2019 2018 
2271 2272 2281 2280 2010 2011 2020 2019 
2272 2273 2282 2281 2011 2012 2021 2020 
2273 2274 2283 2282 2012 2013 2022 2021 
2274 2275 2284 2283 2013 2014 2023 2022 
2275 2276 2285 2284 2014 2015 2024 2023 
2276 2277 2286 2285 2015 2016 2025 2024 
2277 2278 2287 2286 2016 2017 2026 2025 
2278 1098 1099 2287 2017 1069 1070 2026 
838 2279 2288 839 809 2018 2027 810 
2279 2280 2289 2288 2018 2019 2028 2027 
2280 2281 2290 2289 2019 2020 2029 2028 
2281 2282 2291 2290 2020 2021 2030 2029 
2282 2283 2292 2291 2021 2022 2031 2030 
2283 2284 2293 2292 2022 2023 2032 2031 
2284 2285 2294 2293 2023 2024 2033 2032 
2285 2286 2295 2294 2024 2025 2034 2033 
2286 2287 2296 2295 2025 2026 2035 2034 
2287 1099 1100 2296 2026 1070 1071 2035 
839 2288 2297 840 810 2027 2036 811 
2288 2289 2298 2297 2027 2028 2037 2036 
2289 2290 2299 2298 2028 2029 2038 2037 
2290 2291 2300 2299 2029 2030 2039 2038 
2291 2292 2301 2300 2030 2031 2040 2039 
2292 2293 2302 2301 2031 2032 2041 2040 
2293 2294 2303 2302 2032 2033 2042 2041 
2294 2295 2304 2303 2033 2034 2043 2042 
2295 2296 2305 2304 2034 2035 2044 2043 
2296 1100 1101 2305 2035 1071 1072 2044 
840 2297 2306 841 811 2036 2045 812 
2297 2298 2307 2306 2036 2037 2046 2045 
2298 2299 2308 2307 2037 2038 2047 2046 
2299 2300 2309 2308 2038 2039 2048 2047 
2300 2301 2310 2309 2039 2040 2049 2048 
2301 2302 2311 2310 2040 2041 2050 2049 
2302 2303 2312 2311 2041 2042 2051 2050 
2303 2304 2313 2312 2042 2043 2052 2051 
2304 2305 2314 2313 2043 2044 2053 2052 
2305 1101 1102 2314 2044 1072 1073 2053 
841 2306 2315 842 812 2045 2054 813 
2306 2307 2316 2315 2045 2046 2055 2054 
2307 2308 2317 2316 2046 2047 2056 2055 
2308 2309 2318 2317 2047 2048 2057 2056 
2309 2310 2319 2318 2048 2049 2058 2057 
2310 2311 2320 2319 2049 2050 2059 2058 
2311 2312 2321 2320 2050 2051 2060 2059 
2312 2313 2322 2321 2051 2052 2061 2060 
2313 2314 2323 2322 2052 2053 2062 2061 
2314 1102 1103 2323 2053 1073 1074 2062 
842 2315 2324 843 813 2054 2063 814 
2315 2316 2325 2324 2054 2055 2064 2063 
2316 2317 2326 2325 2055 2056 2065 2064 
2317 2318 2327 2326 2056 2057 2066 2065 
2318 2319 2328 2327 2057 2058 2067 2066 
2319 2320 2329 2328 2058 2059 2068 2067 
2320 2321 2330 2329 2059 2060 2069 2068 
2321 2322 2331 2330 2060 2061 2070 2069 
2322 2323 2332 2331 2061 2062 2071 2070 
2323 1103 1104 2332 2062 1074 1075 2071 
843 2324 2333 844 814 2063 2072 815 
2324 2325 2334 2333 2063 2064 2073 2072 
2325 2326 2335 2334 2064 2065 2074 2073 
2326 2327 2336 2335 2065 2066 2075 2074 
2327 2328 2337 2336 2066 2067 2076 2075 
2328 2329 2338 2337 2067 2068 2077 2076 
2329 2330 2339 2338 2068 2069 2078 2077 
2330 2331 2340 2339 2069 2070 2079 2078 
2331 2332 2341 2340 2070 2071 2080 2079 
2332 1104 1105 2341 2071 1075 1076 2080 
844 2333 2342 845 815 2072 2081 816 
2333 2334 2343 2342 2072 2073 2082 2081 
2334 2335 2344 2343 2073 2074 2083 2082 
2335 2336 2345 2344 2074 2075 2084 2083 
2336 2337 2346 2345 2075 2076 2085 2084 
2337 2338 2347 2346 2076 2077 2086 2085 
2338 2339 2348 2347 2077 2078 2087 2086 
2339 2340 2349 2348 2078 2079 2088 2087 
2340 2341 2350 2349 2079 2080 2089 2088 
2341 1105 1106 2350 2080 1076 1077 2089 
845 2342 2351 846 816 2081 2090 817 
2342 2343 2352 2351 2081 2082 2091 2090 
2343 2344 2353 2352 2082 2083 2092 2091 
2344 2345 2354 2353 2083 2084 2093 2092 
2345 2346 2355 2354 2084 2085 2094 2093 
2346 2347 2356 2355 2085 2086 2095 2094 
2347 2348 2357 2356 2086 2087 2096 2095 
2348 2349 2358 2357 2087 2088 2097 2096 
2349 2350 2359 2358 2088 2089 2098 2097 
2350 1106 1107 2359 2089 1077 1078 2098 
846 2351 2360 847 817 2090 2099 818 
2351 2352 2361 2360 2090 2091 2100 2099 
2352 2353 2362 2361 2091 2092 2101 2100 
2353 2354 2363 2362 2092 2093 2102 2101 
2354 2355 2364 2363 2093 2094 2103 2102 
2355 2356 2365 2364 2094 2095 2104 2103 
2356 2357 2366 2365 2095 2096 2105 2104 
2357 2358 2367 2366 2096 2097 2106 2105 
2358 2359 2368 2367 2097 2098 2107 2106 
2359 1107 1108 2368 2098 1078 1079 2107 
847 2360 2369 848 818 2099 2108 819 
2360 2361 2370 2369 2099 2100 2109 2108 
2361 2362 2371 2370 2100 2101 2110 2109 
2362 2363 2372 2371 2101 2102 2111 2110 
2363 2364 2373 2372 2102 2103 2112 2111 
2364 2365 2374 2373 2103 2104 2113 2112 
2365 2366 2375 2374 2104 2105 2114 2113 
2366 2367 2376 2375 2105 2106 2115 2114 
2367 2368 2377 2376 2106 2107 2116 2115 
2368 1108 1109 2377 2107 1079 1080 2116 
848 2369 2378 849 819 2108 2117 820 
2369 2370 2379 2378 2108 2109 2118 2117 
2370 2371 2380 2379 2109 2110 2119 2118 
2371 2372 2381 2380 2110 2111 2120 2119 
2372 2373 2382 2381 2111 2112 2121 2120 
2373 2374 2383 2382 2112 2113 2122 2121 
2374 2375 2384 2383 2113 2114 2123 2122 
2375 2376 2385 2384 2114 2115 2124 2123 
2376 2377 2386 2385 2115 2116 2125 2124 
2377 1109 1110 2386 2116 1080 1081 2125 
849 2378 2387 850 820 2117 2126 821 
2378 2379 2388 2387 2117 2118 2127 2126 
2379 2380 2389 2388 2118 2119 2128 2127 
2380 2381 2390 2389 2119 2120 2129 2128 
2381 2382 2391 2390 2120 2121 2130 2129 
2382 2383 2392 2391 2121 2122 2131 2130 
2383 2384 2393 2392 2122 2123 2132 2131 
2384 2385 2394 2393 2123 2124 2133 2132 
2385 2386 2395 2394 2124 2125 2134 2133 
2386 1110 1111 2395 2125 1081 1082 2134 
850 2387 2396 851 821 2126 2135 822 
2387 2388 2397 2396 2126 2127 2136 2135 
2388 2389 2398 2397 2127 2128 2137 2136 
2389 2390 2399 2398 2128 2129 2138 2137 
2390 2391 2400 2399 2129 2130 2139 2138 
2391 2392 2401 2400 2130 2131 2140 2139 
2392 2393 2402 2401 2131 2132 2141 2140 
2393 2394 2403 2402 2132 2133 2142 2141 
2394 2395 2404 2403 2133 2134 2143 2142 
2395 1111 1112 2404 2134 1082 1083 2143 
851 2396 1406 165 822 2135 1397 164 
2396 2397 1407 1406 2135 2136 1398 1397 
2397 2398 1408 1407 2136 2137 1399 1398 
2398 2399 1409 1408 2137 2138 1400 1399 
2399 2400 1410 1409 2138 2139 1401 1400 
2400 2401 1411 1410 2139 2140 1402 1401 
2401 2402 1412 1411 2140 2141 1403 1402 
2402 2403 1413 1412 2141 2142 1404 1403 
2403 2404 1414 1413 2142 2143 1405 1404 
2404 1112 189 1414 2143 1083 190 1405 
179 1334 2405 852 180 1325 2144 823 
1334 1335 2406 2405 1325 1326 2145 2144 
1335 1336 2407 2406 1326 1327 2146 2145 
1336 1337 2408 2407 1327 1328 2147 2146 
1337 1338 2409 2408 1328 1329 2148 2147 
1338 1339 2410 2409 1329 1330 2149 2148 
1339 1340 2411 2410 1330 1331 2150 2149 
1340 1341 2412 2411 1331 1332 2151 2150 
1341 1342 2413 2412 1332 1333 2152 2151 
1342 193 1113 2413 1333 192 1084 2152 
852 2405 2414 853 823 2144 2153 824 
2405 2406 2415 2414 2144 2145 2154 2153 
2406 2407 2416 2415 2145 2146 2155 2154 
2407 2408 2417 2416 2146 2147 2156 2155 
2408 2409 2418 2417 2147 2148 2157 2156 
2409 2410 2419 2418 2148 2149 2158 2157 
2410 2411 2420 2419 2149 2150 2159 2158 
2411 2412 2421 2420 2150 2151 2160 2159 
2412 2413 2422 2421 2151 2152 2161 2160 
2413 1113 1114 2422 2152 1084 1085 2161 
853 2414 2423 854 824 2153 2162 825 
2414 2415 2424 2423 2153 2154 2163 2162 
2415 2416 2425 2424 2154 2155 2164 2163 
2416 2417 2426 2425 2155 2156 2165 2164 
2417 2418 2427 2426 2156 2157 2166 2165 
2418 2419 2428 2427 2157 2158 2167 2166 
2419 2420 2429 2428 2158 2159 2168 2167 
2420 2421 2430 2429 2159 2160 2169 2168 
2421 2422 2431 2430 2160 2161 2170 2169 
2422 1114 1115 2431 2161 1085 1086 2170 
854 2423 2432 855 825 2162 2171 826 
2423 2424 2433 2432 2162 2163 2172 2171 
2424 2425 2434 2433 2163 2164 2173 2172 
2425 2426 2435 2434 2164 2165 2174 2173 
2426 2427 2436 2435 2165 2166 2175 2174 
2427 2428 2437 2436 2166 2167 2176 2175 
2428 2429 2438 2437 2167 2168 2177 2176 
2429 2430 2439 2438 2168 2169 2178 2177 
2430 2431 2440 2439 2169 2170 2179 2178 
2431 1115 1116 2440 2170 1086 1087 2179 
855 2432 2441 856 826 2171 2180 827 
2432 2433 2442 2441 2171 2172 2181 2180 
2433 2434 2443 2442 2172 2173 2182 2181 
2434 2435 2444 2443 2173 2174 2183 2182 
2435 2436 2445 2444 2174 2175 2184 2183 
2436 2437 2446 2445 2175 2176 2185 2184 
2437 2438 2447 2446 2176 2177 2186 2185 
2438 2439 2448 2447 2177 2178 2187 2186 
2439 2440 2449 2448 2178 2179 2188 2187 
2440 1116 1117 2449 2179 1087 1088 2188 
856 2441 2450 857 827 2180 2189 828 
2441 2442 2451 2450 2180 2181 2190 2189 
2442 2443 2452 2451 2181 2182 2191 2190 
2443 2444 2453 2452 2182 2183 2192 2191 
2444 2445 2454 2453 2183 2184 2193 2192 
2445 2446 2455 2454 2184 2185 2194 2193 
2446 2447 2456 2455 2185 2186 2195 2194 
2447 2448 2457 2456 2186 2187 2196 2195 
2448 2449 2458 2457 2187 2188 2197 2196 
2449 1117 1118 2458 2188 1088 1089 2197 
857 2450 2459 858 828 2189 2198 829 
2450 2451 2460 2459 2189 2190 2199 2198 
2451 2452 2461 2460 2190 2191 2200 2199 
2452 2453 2462 2461 2191 2192 2201 2200 
2453 2454 2463 2462 2192 2193 2202 2201 
2454 2455 2464 2463 2193 2194 2203 2202 
2455 2456 2465 2464 2194 2195 2204 2203 
2456 2457 2466 2465 2195 2196 2205 2204 
2457 2458 2467 2466 2196 2197 2206 2205 
2458 1118 1119 2467 2197 1089 1090 2206 
858 2459 2468 859 829 2198 2207 830 
2459 2460 2469 2468 2198 2199 2208 2207 
2460 2461 2470 2469 2199 2200 2209 2208 
2461 2462 2471 2470 2200 2201 2210 2209 
2462 2463 2472 2471 2201 2202 2211 2210 
2463 2464 2473 2472 2202 2203 2212 2211 
2464 2465 2474 2473 2203 2204 2213 2212 
2465 2466 2475 2474 2204 2205 2214 2213 
2466 2467 2476 2475 2205 2206 2215 2214 
2467 1119 1120 2476 2206 1090 1091 2215 
859 2468 2477 860 830 2207 2216 831 
2468 2469 2478 2477 2207 2208 2217 2216 
2469 2470 2479 2478 2208 2209 2218 2217 
2470 2471 2480 2479 2209 2210 2219 2218 
2471 2472 2481 2480 2210 2211 2220 2219 
2472 2473 2482 2481 2211 2212 2221 2220 
2473 2474 2483 2482 2212 2213 2222 2221 
2474 2475 2484 2483 2213 2214 2223 2222 
2475 2476 2485 2484 2214 2215 2224 2223 
2476 1120 1121 2485 2215 1091 1092 2224 
860 2477 2486 861 831 2216 2225 832 
2477 2478 2487 2486 2216 2217 2226 2225 
2478 2479 2488 2487 2217 2218 2227 2226 
2479 2480 2489 2488 2218 2219 2228 2227 
2480 2481 2490 2489 2219 2220 2229 2228 
2481 2482 2491 2490 2220 2221 2230 2229 
2482 2483 2492 2491 2221 2222 2231 2230 
2483 2484 2493 2492 2222 2223 2232 2231 
2484 2485 2494 2493 2223 2224 2233 2232 
2485 1121 1122 2494 2224 1092 1093 2233 
861 2486 2495 862 832 2225 2234 833 
2486 2487 2496 2495 2225 2226 2235 2234 
2487 2488 2497 2496 2226 2227 2236 2235 
2488 2489 2498 2497 2227 2228 2237 2236 
2489 2490 2499 2498 2228 2229 2238 2237 
2490 2491 2500 2499 2229 2230 2239 2238 
2491 2492 2501 2500 2230 2231 2240 2239 
2492 2493 2502 2501 2231 2232 2241 2240 
2493 2494 2503 2502 2232 2233 2242 2241 
2494 1122 1123 2503 2233 1093 1094 2242 
862 2495 2504 863 833 2234 2243 834 
2495 2496 2505 2504 2234 2235 2244 2243 
2496 2497 2506 2505 2235 2236 2245 2244 
2497 2498 2507 2506 2236 2237 2246 2245 
2498 2499 2508 2507 2237 2238 2247 2246 
2499 2500 2509 2508 2238 2239 2248 2247 
2500 2501 2510 2509 2239 2240 2249 2248 
2501 2502 2511 2510 2240 2241 2250 2249 
2502 2503 2512 2511 2241 2242 2251 2250 
2503 1123 1124 2512 2242 1094 1095 2251 
863 2504 2513 864 834 2243 2252 835 
2504 2505 2514 2513 2243 2244 2253 2252 
2505 2506 2515 2514 2244 2245 2254 2253 
2506 2507 2516 2515 2245 2246 2255 2254 
2507 2508 2517 2516 2246 2247 2256 2255 
2508 2509 2518 2517 2247 2248 2257 2256 
2509 2510 2519 2518 2248 2249 2258 2257 
2510 2511 2520 2519 2249 2250 2259 2258 
2511 2512 2521 2520 2250 2251 2260 2259 
2512 1124 1125 2521 2251 1095 1096 2260 
864 2513 2522 865 835 2252 2261 836 
2513 2514 2523 2522 2252 2253 2262 2261 
2514 2515 2524 2523 2253 2254 2263 2262 
2515 2516 2525 2524 2254 2255 2264 2263 
2516 2517 2526 2525 2255 2256 2265 2264 
2517 2518 2527 2526 2256 2257 2266 2265 
2518 2519 2528 2527 2257 2258 2267 2266 
2519 2520 2529 2528 2258 2259 2268 2267 
2520 2521 2530 2529 2259 2260 2269 2268 
2521 1125 1126 2530 2260 1096 1097 2269 
865 2522 2531 866 836 2261 2270 837 
2522 2523 2532 2531 2261 2262 2271 2270 
2523 2524 2533 2532 2262 2263 2272 2271 
2524 2525 2534 2533 2263 2264 2273 2272 
2525 2526 2535 2534 2264 2265 2274 2273 
2526 2527 2536 2535 2265 2266 2275 2274 
2527 2528 2537 2536 2266 2267 2276 2275 
2528 2529 2538 2537 2267 2268 2277 2276 
2529 2530 2539 2538 2268 2269 2278 2277 
2530 1126 1127 2539 2269 1097 1098 2278 
866 2531 2540 867 837 2270 2279 838 
2531 2532 2541 2540 2270 2271 2280 2279 
2532 2533 2542 2541 2271 2272 2281 2280 
2533 2534 2543 2542 2272 2273 2282 2281 
2534 2535 2544 2543 2273 2274 2283 2282 
2535 2536 2545 2544 2274 2275 2284 2283 
2536 2537 2546 2545 2275 2276 2285 2284 
2537 2538 2547 2546 2276 2277 2286 2285 
2538 2539 2548 2547 2277 2278 2287 2286 
2539 1127 1128 2548 2278 1098 1099 2287 
867 2540 2549 868 838 2279 2288 839 
2540 2541 2550 2549 2279 2280 2289 2288 
2541 2542 2551 2550 2280 2281 2290 2289 
2542 2543 2552 2551 2281 2282 2291 2290 
2543 2544 2553 2552 2282 2283 2292 2291 
2544 2545 2554 2553 2283 2284 2293 2292 
2545 2546 2555 2554 2284 2285 2294 2293 
2546 2547 2556 2555 2285 2286 2295 2294 
2547 2548 2557 2556 2286 2287 2296 2295 
2548 1128 1129 2557 2287 1099 1100 2296 
868 2549 2558 869 839 2288 2297 840 
2549 2550 2559 2558 2288 2289 2298 2297 
2550 2551 2560 2559 2289 2290 2299 2298 
2551 2552 2561 2560 2290 2291 2300 2299 
2552 2553 2562 2561 2291 2292 2301 2300 
2553 2554 2563 2562 2292 2293 2302 2301 
2554 2555 2564 2563 2293 2294 2303 2302 
2555 2556 2565 2564 2294 2295 2304 2303 
2556 2557 2566 2565 2295 2296 2305 2304 
2557 1129 1130 2566 2296 1100 1101 2305 
869 2558 2567 870 840 2297 2306 841 
2558 2559 2568 2567 2297 2298 2307 2306 
2559 2560 2569 2568 2298 2299 2308 2307 
2560 2561 2570 2569 2299 2300 2309 2308 
2561 2562 2571 2570 2300 2301 2310 2309 
2562 2563 2572 2571 2301 2302 2311 2310 
2563 2564 2573 2572 2302 2303 2312 2311 
2564 2565 2574 2573 2303 2304 2313 2312 
2565 2566 2575 2574 2304 2305 2314 2313 
2566 1130 1131 2575 2305 1101 1102 2314 
870 2567 2576 871 841 2306 2315 842 
2567 2568 2577 2576 2306 2307 2316 2315 
2568 2569 2578 2577 2307 2308 2317 2316 
2569 2570 2579 2578 2308 2309 2318 2317 
2570 2571 2580 2579 2309 2310 2319 2318 
2571 2572 2581 2580 2310 2311 2320 2319 
2572 2573 2582 2581 2311 2312 2321 2320 
2573 2574 2583 2582 2312 2313 2322 2321 
2574 2575 2584 2583 2313 2314 2323 2322 
2575 1131 1132 2584 2314 1102 1103 2323 
871 2576 2585 872 842 2315 2324 843 
2576 2577 2586 2585 2315 2316 2325 2324 
2577 2578 2587 2586 2316 2317 2326 2325 
2578 2579 2588 2587 2317 2318 2327 2326 
2579 2580 2589 2588 2318 2319 2328 2327 
2580 2581 2590 2589 2319 2320 2329 2328 
2581 2582 2591 2590 2320 2321 2330 2329 
2582 2583 2592 2591 2321 2322 2331 2330 
2583 2584 2593 2592 2322 2323 2332 2331 
2584 1132 1133 2593 2323 1103 1104 2332 
872 2585 2594 873 843 2324 2333 844 
2585 2586 2595 2594 2324 2325 2334 2333 
2586 2587 2596 2595 2325 2326 2335 2334 
2587 2588 2597 2596 2326 2327 2336 2335 
2588 2589 2598 2597 2327 2328 2337 2336 
2589 2590 2599 2598 2328 2329 2338 2337 
2590 2591 2600 2599 2329 2330 2339 2338 
2591 2592 2601 2600 2330 2331 2340 2339 
2592 2593 2602 2601 2331 2332 2341 2340 
2593 1133 1134 2602 2332 1104 1105 2341 
873 2594 2603 874 844 2333 2342 845 
2594 2595 2604 2603 2333 2334 2343 2342 
2595 2596 2605 2604 2334 2335 2344 2343 
2596 2597 2606 2605 2335 2336 2345 2344 
2597 2598 2607 2606 2336 2337 2346 2345 
2598 2599 2608 2607 2337 2338 2347 2346 
2599 2600 2609 2608 2338 2339 2348 2347 
2600 2601 2610 2609 2339 2340 2349 2348 
2601 2602 2611 2610 2340 2341 2350 2349 
2602 1134 1135 2611 2341 1105 1106 2350 
874 2603 2612 875 845 2342 2351 846 
2603 2604 2613 2612 2342 2343 2352 2351 
2604 2605 2614 2613 2343 2344 2353 2352 
2605 2606 2615 2614 2344 2345 2354 2353 
2606 2607 2616 2615 2345 2346 2355 2354 
2607 2608 2617 2616 2346 2347 2356 2355 
2608 2609 2618 2617 2347 2348 2357 2356 
2609 2610 2619 2618 2348 2349 2358 2357 
2610 2611 2620 2619 2349 2350 2359 2358 
2611 1135 1136 2620 2350 1106 1107 2359 
875 2612 2621 876 846 2351 2360 847 
2612 2613 2622 2621 2351 2352 2361 2360 
2613 2614 2623 2622 2352 2353 2362 2361 
2614 2615 2624 2623 2353 2354 2363 2362 
2615 2616 2625 2624 2354 2355 2364 2363 
2616 2617 2626 2625 2355 2356 2365 2364 
2617 2618 2627 2626 2356 2357 2366 2365 
2618 2619 2628 2627 2357 2358 2367 2366 
2619 2620 2629 2628 2358 2359 2368 2367 
2620 1136 1137 2629 2359 1107 1108 2368 
876 2621 2630 877 847 2360 2369 848 
2621 2622 2631 2630 2360 2361 2370 2369 
2622 2623 2632 2631 2361 2362 2371 2370 
2623 2624 2633 2632 2362 2363 2372 2371 
2624 2625 2634 2633 2363 2364 2373 2372 
2625 2626 2635 2634 2364 2365 2374 2373 
2626 2627 2636 2635 2365 2366 2375 2374 
2627 2628 2637 2636 2366 2367 2376 2375 
2628 2629 2638 2637 2367 2368 2377 2376 
2629 1137 1138 2638 2368 1108 1109 2377 
877 2630 2639 878 848 2369 2378 849 
2630 2631 2640 2639 2369 2370 2379 2378 
2631 2632 2641 2640 2370 2371 2380 2379 
2632 2633 2642 2641 2371 2372 2381 2380 
2633 2634 2643 2642 2372 2373 2382 2381 
2634 2635 2644 2643 2373 2374 2383 2382 
2635 2636 2645 2644 2374 2375 2384 2383 
2636 2637 2646 2645 2375 2376 2385 2384 
2637 2638 2647 2646 2376 2377 2386 2385 
2638 1138 1139 2647 2377 1109 1110 2386 
878 2639 2648 879 849 2378 2387 850 
2639 2640 2649 2648 2378 2379 2388 2387 
2640 2641 2650 2649 2379 2380 2389 2388 
2641 2642 2651 2650 2380 2381 2390 2389 
2642 2643 2652 2651 2381 2382 2391 2390 
2643 2644 2653 2652 2382 2383 2392 2391 
2644 2645 2654 2653 2383 2384 2393 2392 
2645 2646 2655 2654 2384 2385 2394 2393 
2646 2647 2656 2655 2385 2386 2395 2394 
2647 1139 1140 2656 2386 1110 1111 2395 
879 2648 2657 880 850 2387 2396 851 
2648 2649 2658 2657 2387 2388 2397 2396 
2649 2650 2659 2658 2388 2389 2398 2397 
2650 2651 2660 2659 2389 2390 2399 2398 
2651 2652 2661 2660 2390 2391 2400 2399 
2652 2653 2662 2661 2391 2392 2401 2400 
2653 2654 2663 2662 2392 2393 2402 2401 
2654 2655 2664 2663 2393 2394 2403 2402 
2655 2656 2665 2664 2394 2395 2404 2403 
2656 1140 1141 2665 2395 1111 1112 2404 
880 2657 1415 166 851 2396 1406 165 
2657 2658 1416 1415 2396 2397 1407 1406 
2658 2659 1417 1416 2397 2398 1408 1407 
2659 2660 1418 1417 2398 2399 1409 1408 
2660 2661 1419 1418 2399 2400 1410 1409 
2661 2662 1420 1419 2400 2401 1411 1410 
2662 2663 1421 1420 2401 2402 1412 1411 
2663 2664 1422 1421 2402 2403 1413 1412 
2664 2665 1423 1422 2403 2404 1414 1413 
2665 1141 188 1423 2404 1112 189 1414 
178 1343 2666 881 179 1334 2405 852 
1343 1344 2667 2666 1334 1335 2406 2405 
1344 1345 2668 2667 1335 1336 2407 2406 
1345 1346 2669 2668 1336 1337 2408 2407 
1346 1347 2670 2669 1337 1338 2409 2408 
1347 1348 2671 2670 1338 1339 2410 2409 
1348 1349 2672 2671 1339 1340 2411 2410 
1349 1350 2673 2672 1340 1341 2412 2411 
1350 1351 2674 2673 1341 1342 2413 2412 
1351 194 1142 2674 1342 193 1113 2413 
881 2666 2675 882 852 2405 2414 853 
2666 2667 2676 2675 2405 2406 2415 2414 
2667 2668 2677 2676 2406 2407 2416 2415 
2668 2669 2678 2677 2407 2408 2417 2416 
2669 2670 2679 2678 2408 2409 2418 2417 
2670 2671 2680 2679 2409 2410 2419 2418 
2671 2672 2681 2680 2410 2411 2420 2419 
2672 2673 2682 2681 2411 2412 2421 2420 
2673 2674 2683 2682 2412 2413 2422 2421 
2674 1142 1143 2683 2413 1113 1114 2422 
882 2675 2684 883 853 2414 2423 854 
2675 2676 2685 2684 2414 2415 2424 2423 
2676 2677 2686 2685 2415 2416 2425 2424 
2677 2678 2687 2686 2416 2417 2426 2425 
2678 2679 2688 2687 2417 2418 2427 2426 
2679 2680 2689 2688 2418 2419 2428 2427 
2680 2681 2690 2689 2419 2420 2429 2428 
2681 2682 2691 2690 2420 2421 2430 2429 
2682 2683 2692 2691 2421 2422 2431 2430 
2683 1143 1144 2692 2422 1114 1115 2431 
883 2684 2693 884 854 2423 2432 855 
2684 2685 2694 2693 2423 2424 2433 2432 
2685 2686 2695 2694 2424 2425 2434 2433 
2686 2687 2696 2695 2425 2426 2435 2434 
2687 2688 2697 2696 2426 2427 2436 2435 
2688 2689 2698 2697 2427 2428 2437 2436 
2689 2690 2699 2698 2428 2429 2438 2437 
2690 2691 2700 2699 2429 2430 2439 2438 
2691 2692 2701 2700 2430 2431 2440 2439 
2692 1144 1145 2701 2431 1115 1116 2440 
884 2693 2702 885 855 2432 2441 856 
2693 2694 2703 2702 2432 2433 2442 2441 
2694 2695 2704 2703 2433 2434 2443 2442 
2695 2696 2705 2704 2434 2435 2444 2443 
2696 2697 2706 2705 2435 2436 2445 2444 
2697 2698 2707 2706 2436 2437 2446 2445 
2698 2699 2708 2707 2437 2438 2447 2446 
2699 2700 2709 2708 2438 2439 2448 2447 
2700 2701 2710 2709 2439 2440 2449 2448 
2701 1145 1146 2710 2440 1116 1117 2449 
885 2702 2711 886 856 2441 2450 857 
2702 2703 2712 2711 2441 2442 2451 2450 
2703 2704 2713 2712 2442 2443 2452 2451 
2704 2705 2714 2713 2443 2444 2453 2452 
2705 2706 2715 2714 2444 2445 2454 2453 
2706 2707 2716 2715 2445 2446 2455 2454 
2707 2708 2717 2716 2446 2447 2456 2455 
2708 2709 2718 2717 2447 2448 2457 2456 
2709 2710 2719 2718 2448 2449 2458 2457 
2710 1146 1147 2719 2449 1117 1118 2458 
886 2711 2720 887 857 2450 2459 858 
2711 2712 2721 2720 2450 2451 2460 2459 
2712 2713 2722 2721 2451 2452 2461 2460 
2713 2714 2723 2722 2452 2453 2462 2461 
2714 2715 2724 2723 2453 2454 2463 2462 
2715 2716 2725 2724 2454 2455 2464 2463 
2716 2717 2726 2725 2455 2456 2465 2464 
2717 2718 2727 2726 2456 2457 2466 2465 
2718 2719 2728 2727 2457 2458 2467 2466 
2719 1147 1148 2728 2458 1118 1119 2467 
887 2720 2729 888 858 2459 2468 859 
2720 2721 2730 2729 2459 2460 2469 2468 
2721 2722 2731 2730 2460 2461 2470 2469 
2722 2723 2732 2731 2461 2462 2471 2470 
2723 2724 2733 2732 2462 2463 2472 2471 
2724 2725 2734 2733 2463 2464 2473 2472 
2725 2726 2735 2734 2464 2465 2474 2473 
2726 2727 2736 2735 2465 2466 2475 2474 
2727 2728 2737 2736 2466 2467 2476 2475 
2728 1148 1149 2737 2467 1119 1120 2476 
888 2729 2738 889 859 2468 2477 860 
2729 2730 2739 2738 2468 2469 2478 2477 
2730 2731 2740 2739 2469 2470 2479 2478 
2731 2732 2741 2740 2470 2471 2480 2479 
2732 2733 2742 2741 2471 2472 2481 2480 
2733 2734 2743 2742 2472 2473 2482 2481 
2734 2735 2744 2743 2473 2474 2483 2482 
2735 2736 2745 2744 2474 2475 2484 2483 
2736 2737 2746 2745 2475 2476 2485 2484 
2737 1149 1150 2746 2476 1120 1121 2485 
889 2738 2747 890 860 2477 2486 861 
2738 2739 2748 2747 2477 2478 2487 2486 
2739 2740 2749 2748 2478 2479 2488 2487 
2740 2741 2750 2749 2479 2480 2489 2488 
2741 2742 2751 2750 2480 2481 2490 2489 
2742 2743 2752 2751 2481 2482 2491 2490 
2743 2744 2753 2752 2482 2483 2492 2491 
2744 2745 2754 2753 2483 2484 2493 2492 
2745 2746 2755 2754 2484 2485 2494 2493 
2746 1150 1151 2755 2485 1121 1122 2494 
890 2747 2756 891 861 2486 2495 862 
2747 2748 2757 2756 2486 2487 2496 2495 
2748 2749 2758 2757 2487 2488 2497 2496 
2749 2750 2759 2758 2488 2489 2498 2497 
2750 2751 2760 2759 2489 2490 2499 2498 
2751 2752 2761 2760 2490 2491 2500 2499 
2752 2753 2762 2761 2491 2492 2501 2500 
2753 2754 2763 2762 2492 2493 2502 2501 
2754 2755 2764 2763 2493 2494 2503 2502 
2755 1151 1152 2764 2494 1122 1123 2503 
891 2756 2765 892 862 2495 2504 863 
2756 2757 2766 2765 2495 2496 2505 2504 
2757 2758 2767 2766 2496 2497 2506 2505 
2758 2759 2768 2767 2497 2498 2507 2506 
2759 2760 2769 2768 2498 2499 2508 2507 
2760 2761 2770 2769 2499 2500 2509 2508 
2761 2762 2771 2770 2500 2501 2510 2509 
2762 2763 2772 2771 2501 2502 2511 2510 
2763 2764 2773 2772 2502 2503 2512 2511 
2764 1152 1153 2773 2503 1123 1124 2512 
892 2765 2774 893 863 2504 2513 864 
2765 2766 2775 2774 2504 2505 2514 2513 
2766 2767 2776 2775 2505 2506 2515 2514 
2767 2768 2777 2776 2506 2507 2516 2515 
2768 2769 2778 2777 2507 2508 2517 2516 
2769 2770 2779 2778 2508 2509 2518 2517 
2770 2771 2780 2779 2509 2510 2519 2518 
2771 2772 2781 2780 2510 2511 2520 2519 
2772 2773 2782 2781 2511 2512 2521 2520 
2773 1153 1154 2782 2512 1124 1125 2521 
893 2774 2783 894 864 2513 2522 865 
2774 2775 2784 2783 2513 2514 2523 2522 
2775 2776 2785 2784 2514 2515 2524 2523 
2776 2777 2786 2785 2515 2516 2525 2524 
2777 2778 2787 2786 2516 2517 2526 2525 
2778 2779 2788 2787 2517 2518 2527 2526 
2779 2780 2789 2788 2518 2519 2528 2527 
2780 2781 2790 2789 2519 2520 2529 2528 
2781 2782 2791 2790 2520 2521 2530 2529 
2782 1154 1155 2791 2521 1125 1126 2530 
894 2783 2792 895 865 2522 2531 866 
2783 2784 2793 2792 2522 2523 2532 2531 
2784 2785 2794 2793 2523 2524 2533 2532 
2785 2786 2795 2794 2524 2525 2534 2533 
2786 2787 2796 2795 2525 2526 2535 2534 
2787 2788 2797 2796 2526 2527 2536 2535 
2788 2789 2798 2797 2527 2528 2537 2536 
2789 2790 2799 2798 2528 2529 2538 2537 
2790 2791 2800 2799 2529 2530 2539 2538 
2791 1155 1156 2800 2530 1126 1127 2539 
895 2792 2801 896 866 2531 2540 867 
2792 2793 2802 2801 2531 2532 2541 2540 
2793 2794 2803 2802 2532 2533 2542 2541 
2794 2795 2804 2803 2533 2534 2543 2542 
2795 2796 2805 2804 2534 2535 2544 2543 
2796 2797 2806 2805 2535 2536 2545 2544 
2797 2798 2807 2806 2536 2537 2546 2545 
2798 2799 2808 2807 2537 2538 2547 2546 
2799 2800 2809 2808 2538 2539 2548 2547 
2800 1156 1157 2809 2539 1127 1128 2548 
896 2801 2810 897 867 2540 2549 868 
2801 2802 2811 2810 2540 2541 2550 2549 
2802 2803 2812 2811 2541 2542 2551 2550 
2803 2804 2813 2812 2542 2543 2552 2551 
2804 2805 2814 2813 2543 2544 2553 2552 
2805 2806 2815 2814 2544 2545 2554 2553 
2806 2807 2816 2815 2545 2546 2555 2554 
2807 2808 2817 2816 2546 2547 2556 2555 
2808 2809 2818 2817 2547 2548 2557 2556 
2809 1157 1158 2818 2548 1128 1129 2557 
897 2810 2819 898 868 2549 2558 869 
2810 2811 2820 2819 2549 2550 2559 2558 
2811 2812 2821 2820 2550 2551 2560 2559 
2812 2813 2822 2821 2551 2552 2561 2560 
2813 2814 2823 2822 2552 2553 2562 2561 
2814 2815 2824 2823 2553 2554 2563 2562 
2815 2816 2825 2824 2554 2555 2564 2563 
2816 2817 2826 2825 2555 2556 2565 2564 
2817 2818 2827 2826 2556 2557 2566 2565 
2818 1158 1159 2827 2557 1129 1130 2566 
898 2819 2828 899 869 2558 2567 870 
2819 2820 2829 2828 2558 2559 2568 2567 
2820 2821 2830 2829 2559 2560 2569 2568 
2821 2822 2831 2830 2560 2561 2570 2569 
2822 2823 2832 2831 2561 2562 2571 2570 
2823 2824 2833 2832 2562 2563 2572 2571 
2824 2825 2834 2833 2563 2564 2573 2572 
2825 2826 2835 2834 2564 2565 2574 2573 
2826 2827 2836 2835 2565 2566 2575 2574 
2827 1159 1160 2836 2566 1130 1131 2575 
899 2828 2837 900 870 2567 2576 871 
2828 2829 2838 2837 2567 2568 2577 2576 
2829 2830 2839 2838 2568 2569 2578 2577 
2830 2831 2840 2839 2569 2570 2579 2578 
2831 2832 2841 2840 2570 2571 2580 2579 
2832 2833 2842 2841 2571 2572 2581 2580 
2833 2834 2843 2842 2572 2573 2582 2581 
2834 2835 2844 2843 2573 2574 2583 2582 
2835 2836 2845 2844 2574 2575 2584 2583 
2836 1160 1161 2845 2575 1131 1132 2584 
900 2837 2846 901 871 2576 2585 872 
2837 2838 2847 2846 2576 2577 2586 2585 
2838 2839 2848 2847 2577 2578 2587 2586 
2839 2840 2849 2848 2578 2579 2588 2587 
2840 2841 2850 2849 2579 2580 2589 2588 
2841 2842 2851 2850 2580 2581 2590 2589 
2842 2843 2852 2851 2581 2582 2591 2590 
2843 2844 2853 2852 2582 2583 2592 2591 
2844 2845 2854 2853 2583 2584 2593 2592 
2845 1161 1162 2854 2584 1132 1133 2593 
901 2846 2855 902 872 2585 2594 873 
2846 2847 2856 2855 2585 2586 2595 2594 
2847 2848 2857 2856 2586 2587 2596 2595 
2848 2849 2858 2857 2587 2588 2597 2596 
2849 2850 2859 2858 2588 2589 2598 2597 
2850 2851 2860 2859 2589 2590 2599 2598 
2851 2852 2861 2860 2590 2591 2600 2599 
2852 2853 2862 2861 2591 2592 2601 2600 
2853 2854 2863 2862 2592 2593 2602 2601 
2854 1162 1163 2863 2593 1133 1134 2602 
902 2855 2864 903 873 2594 2603 874 
2855 2856 2865 2864 2594 2595 2604 2603 
2856 2857 2866 2865 2595 2596 2605 2604 
2857 2858 2867 2866 2596 2597 2606 2605 
2858 2859 2868 2867 2597 2598 2607 2606 
2859 2860 2869 2868 2598 2599 2608 2607 
2860 2861 2870 2869 2599 2600 2609 2608 
2861 2862 2871 2870 2600 2601 2610 2609 
2862 2863 2872 2871 2601 2602 2611 2610 
2863 1163 1164 2872 2602 1134 1135 2611 
903 2864 2873 904 874 2603 2612 875 
2864 2865 2874 2873 2603 2604 2613 2612 
2865 2866 2875 2874 2604 2605 2614 2613 
2866 2867 2876 2875 2605 2606 2615 2614 
2867 2868 2877 2876 2606 2607 2616 2615 
2868 2869 2878 2877 2607 2608 2617 2616 
2869 2870 2879 2878 2608 2609 2618 2617 
2870 2871 2880 2879 2609 2610 2619 2618 
2871 2872 2881 2880 2610 2611 2620 2619 
2872 1164 1165 2881 2611 1135 1136 2620 
904 2873 2882 905 875 2612 2621 876 
2873 2874 2883 2882 2612 2613 2622 2621 
2874 2875 2884 2883 2613 2614 2623 2622 
2875 2876 2885 2884 2614 2615 2624 2623 
2876 2877 2886 2885 2615 2616 2625 2624 
2877 2878 2887 2886 2616 2617 2626 2625 
2878 2879 2888 2887 2617 2618 2627 2626 
2879 2880 2889 2888 2618 2619 2628 2627 
2880 2881 2890 2889 2619 2620 2629 2628 
2881 1165 1166 2890 2620 1136 1137 2629 
905 2882 2891 906 876 2621 2630 877 
2882 2883 2892 2891 2621 2622 2631 2630 
2883 2884 2893 2892 2622 2623 2632 2631 
2884 2885 2894 2893 2623 2624 2633 2632 
2885 2886 2895 2894 2624 2625 2634 2633 
2886 2887 2896 2895 2625 2626 2635 2634 
2887 2888 2897 2896 2626 2627 2636 2635 
2888 2889 2898 2897 2627 2628 2637 2636 
2889 2890 2899 2898 2628 2629 2638 2637 
2890 1166 1167 2899 2629 1137 1138 2638 
906 2891 2900 907 877 2630 2639 878 
2891 2892 2901 2900 2630 2631 2640 2639 
2892 2893 2902 2901 2631 2632 2641 2640 
2893 2894 2903 2902 2632 2633 2642 2641 
2894 2895 2904 2903 2633 2634 2643 2642 
2895 2896 2905 2904 2634 2635 2644 2643 
2896 2897 2906 2905 2635 2636 2645 2644 
2897 2898 2907 2906 2636 2637 2646 2645 
2898 2899 2908 2907 2637 2638 2647 2646 
2899 1167 1168 2908 2638 1138 1139 2647 
907 2900 2909 908 878 2639 2648 879 
2900 2901 2910 2909 2639 2640 2649 2648 
2901 2902 2911 2910 2640 2641 2650 2649 
2902 2903 2912 2911 2641 2642 2651 2650 
2903 2904 2913 2912 2642 2643 2652 2651 
2904 2905 2914 2913 2643 2644 2653 2652 
2905 2906 2915 2914 2644 2645 2654 2653 
2906 2907 2916 2915 2645 2646 2655 2654 
2907 2908 2917 2916 2646 2647 2656 2655 
2908 1168 1169 2917 2647 1139 1140 2656 
908 2909 2918 909 879 2648 2657 880 
2909 2910 2919 2918 2648 2649 2658 2657 
2910 2911 2920 2919 2649 2650 2659 2658 
2911 2912 2921 2920 2650 2651 2660 2659 
2912 2913 2922 2921 2651 2652 2661 2660 
2913 2914 2923 2922 2652 2653 2662 2661 
2914 2915 2924 2923 2653 2654 2663 2662 
2915 2916 2925 2924 2654 2655 2664 2663 
2916 2917 2926 2925 2655 2656 2665 2664 
2917 1169 1170 2926 2656 1140 1141 2665 
909 2918 1424 167 880 2657 1415 166 
2918 2919 1425 1424 2657 2658 1416 1415 
2919 2920 1426 1425 2658 2659 1417 1416 
2920 2921 1427 1426 2659 2660 1418 1417 
2921 2922 1428 1427 2660 2661 1419 1418 
2922 2923 1429 1428 2661 2662 1420 1419 
2923 2924 1430 1429 2662 2663 1421 1420 
2924 2925 1431 1430 2663 2664 1422 1421 
2925 2926 1432 1431 2664 2665 1423 1422 
2926 1170 187 1432 2665 1141 188 1423 
177 1352 2927 910 178 1343 2666 881 
1352 1353 2928 2927 1343 1344 2667 2666 
1353 1354 2929 2928 1344 1345 2668 2667 
1354 1355 2930 2929 1345 1346 2669 2668 
1355 1356 2931 2930 1346 1347 2670 2669 
1356 1357 2932 2931 1347 1348 2671 2670 
1357 1358 2933 2932 1348 1349 2672 2671 
1358 1359 2934 2933 1349 1350 2673 2672 
1359 1360 2935 2934 1350 1351 2674 2673 
1360 195 1171 2935 1351 194 1142 2674 
910 2927 2936 911 881 2666 2675 882 
2927 2928 2937 2936 2666 2667 2676 2675 
2928 2929 2938 2937 2667 2668 2677 2676 
2929 2930 2939 2938 2668 2669 2678 2677 
2930 2931 2940 2939 2669 2670 2679 2678 
2931 2932 2941 2940 2670 2671 2680 2679 
2932 2933 2942 2941 2671 2672 2681 2680 
2933 2934 2943 2942 2672 2673 2682 2681 
2934 2935 2944 2943 2673 2674 2683 2682 
2935 1171 1172 2944 2674 1142 1143 2683 
911 2936 2945 912 882 2675 2684 883 
2936 2937 2946 2945 2675 2676 2685 2684 
2937 2938 2947 2946 2676 2677 2686 2685 
2938 2939 2948 2947 2677 2678 2687 2686 
2939 2940 2949 2948 2678 2679 2688 2687 
2940 2941 2950 2949 2679 2680 2689 2688 
2941 2942 2951 2950 2680 2681 2690 2689 
2942 2943 2952 2951 2681 2682 2691 2690 
2943 2944 2953 2952 2682 2683 2692 2691 
2944 1172 1173 2953 2683 1143 1144 2692 
912 2945 2954 913 883 2684 2693 884 
2945 2946 2955 2954 2684 2685 2694 2693 
2946 2947 2956 2955 2685 2686 2695 2694 
2947 2948 2957 2956 2686 2687 2696 2695 
2948 2949 2958 2957 2687 2688 2697 2696 
2949 2950 2959 2958 2688 2689 2698 2697 
2950 2951 2960 2959 2689 2690 2699 2698 
2951 2952 2961 2960 2690 2691 2700 2699 
2952 2953 2962 2961 2691 2692 2701 2700 
2953 1173 1174 2962 2692 1144 1145 2701 
913 2954 2963 914 884 2693 2702 885 
2954 2955 2964 2963 2693 2694 2703 2702 
2955 2956 2965 2964 2694 2695 2704 2703 
2956 2957 2966 2965 2695 2696 2705 2704 
2957 2958 2967 2966 2696 2697 2706 2705 
2958 2959 2968 2967 2697 2698 2707 2706 
2959 2960 2969 2968 2698 2699 2708 2707 
2960 2961 2970 2969 2699 2700 2709 2708 
2961 2962 2971 2970 2700 2701 2710 2709 
2962 1174 1175 2971 2701 1145 1146 2710 
914 2963 2972 915 885 2702 2711 886 
2963 2964 2973 2972 2702 2703 2712 2711 
2964 2965 2974 2973 2703 2704 2713 2712 
2965 2966 2975 2974 2704 2705 2714 2713 
2966 2967 2976 2975 2705 2706 2715 2714 
2967 2968 2977 2976 2706 2707 2716 2715 
2968 2969 2978 2977 2707 2708 2717 2716 
2969 2970 2979 2978 2708 2709 2718 2717 
2970 2971 2980 2979 2709 2710 2719 2718 
2971 1175 1176 2980 2710 1146 1147 2719 
915 2972 2981 916 886 2711 2720 887 
2972 2973 2982 2981 2711 2712 2721 2720 
2973 2974 2983 2982 2712 2713 2722 2721 
2974 2975 2984 2983 2713 2714 2723 2722 
2975 2976 2985 2984 2714 2715 2724 2723 
2976 2977 2986 2985 2715 2716 2725 2724 
2977 2978 2987 2986 2716 2717 2726 2725 
2978 2979 2988 2987 2717 2718 2727 2726 
2979 2980 2989 2988 2718 2719 2728 2727 
2980 1176 1177 2989 2719 1147 1148 2728 
916 2981 2990 917 887 2720 2729 888 
2981 2982 2991 2990 2720 2721 2730 2729 
2982 2983 2992 2991 2721 2722 2731 2730 
2983 2984 2993 2992 2722 2723 2732 2731 
2984 2985 2994 2993 2723 2724 2733 2732 
2985 2986 2995 2994 2724 2725 2734 2733 
2986 2987 2996 2995 2725 2726 2735 2734 
2987 2988 2997 2996 2726 2727 2736 2735 
2988 2989 2998 2997 2727 2728 2737 2736 
2989 1177 1178 2998 2728 1148 1149 2737 
917 2990 2999 918 888 2729 2738 889 
2990 2991 3000 2999 2729 2730 2739 2738 
2991 2992 3001 3000 2730 2731 2740 2739 
2992 2993 3002 3001 2731 2732 2741 2740 
2993 2994 3003 3002 2732 2733 2742 2741 
2994 2995 3004 3003 2733 2734 2743 2742 
2995 2996 3005 3004 2734 2735 2744 2743 
2996 2997 3006 3005 2735 2736 2745 2744 
2997 2998 3007 3006 2736 2737 2746 2745 
2998 1178 1179 3007 2737 1149 1150 2746 
918 2999 3008 919 889 2738 2747 890 
2999 3000 3009 3008 2738 2739 2748 2747 
3000 3001 3010 3009 2739 2740 2749 2748 
3001 3002 3011 3010 2740 2741 2750 2749 
3002 3003 3012 3011 2741 2742 2751 2750 
3003 3004 3013 3012 2742 2743 2752 2751 
3004 3005 3014 3013 2743 2744 2753 2752 
3005 3006 3015 3014 2744 2745 2754 2753 
3006 3007 3016 3015 2745 2746 2755 2754 
3007 1179 1180 3016 2746 1150 1151 2755 
919 3008 3017 920 890 2747 2756 891 
3008 3009 3018 3017 2747 2748 2757 2756 
3009 3010 3019 3018 2748 2749 2758 2757 
3010 3011 3020 3019 2749 2750 2759 2758 
3011 3012 3021 3020 2750 2751 2760 2759 
3012 3013 3022 3021 2751 2752 2761 2760 
3013 3014 3023 3022 2752 2753 2762 2761 
3014 3015 3024 3023 2753 2754 2763 2762 
3015 3016 3025 3024 2754 2755 2764 2763 
3016 1180 1181 3025 2755 1151 1152 2764 
920 3017 3026 921 891 2756 2765 892 
3017 3018 3027 3026 2756 2757 2766 2765 
3018 3019 3028 3027 2757 2758 2767 2766 
3019 3020 3029 3028 2758 2759 2768 2767 
3020 3021 3030 3029 2759 2760 2769 2768 
3021 3022 3031 3030 2760 2761 2770 2769 
3022 3023 3032 3031 2761 2762 2771 2770 
3023 3024 3033 3032 2762 2763 2772 2771 
3024 3025 3034 3033 2763 2764 2773 2772 
3025 1181 1182 3034 2764 1152 1153 2773 
921 3026 3035 922 892 2765 2774 893 
3026 3027 3036 3035 2765 2766 2775 2774 
3027 3028 3037 3036 2766 2767 2776 2775 
3028 3029 3038 3037 2767 2768 2777 2776 
3029 3030 3039 3038 2768 2769 2778 2777 
3030 3031 3040 3039 2769 2770 2779 2778 
3031 3032 3041 3040 2770 2771 2780 2779 
3032 3033 3042 3041 2771 2772 2781 2780 
3033 3034 3043 3042 2772 2773 2782 2781 
3034 1182 1183 3043 2773 1153 1154 2782 
922 3035 3044 923 893 2774 2783 894 
3035 3036 3045 3044 2774 2775 2784 2783 
3036 3037 3046 3045 2775 2776 2785 2784 
3037 3038 3047 3046 2776 2777 2786 2785 
3038 3039 3048 3047 2777 2778 2787 2786 
3039 3040 3049 3048 2778 2779 2788 2787 
3040 3041 3050 3049 2779 2780 2789 2788 
3041 3042 3051 3050 2780 2781 2790 2789 
3042 3043 3052 3051 2781 2782 2791 2790 
3043 1183 1184 3052 2782 1154 1155 2791 
923 3044 3053 924 894 2783 2792 895 
3044 3045 3054 3053 2783 2784 2793 2792 
3045 3046 3055 3054 2784 2785 2794 2793 
3046 3047 3056 3055 2785 2786 2795 2794 
3047 3048 3057 3056 2786 2787 2796 2795 
3048 3049 3058 3057 2787 2788 2797 2796 
3049 3050 3059 3058 2788 2789 2798 2797 
3050 3051 3060 3059 2789 2790 2799 2798 
3051 3052 3061 3060 2790 2791 2800 2799 
3052 1184 1185 3061 2791 1155 1156 2800 
924 3053 3062 925 895 2792 2801 896 
3053 3054 3063 3062 2792 2793 2802 2801 
3054 3055 3064 3063 2793 2794 2803 2802 
3055 3056 3065 3064 2794 2795 2804 2803 
3056 3057 3066 3065 2795 2796 2805 2804 
3057 3058 3067 3066 2796 2797 2806 2805 
3058 3059 3068 3067 2797 2798 2807 2806 
3059 3060 3069 3068 2798 2799 2808 2807 
3060 3061 3070 3069 2799 2800 2809 2808 
3061 1185 1186 3070 2800 1156 1157 2809 
925 3062 3071 926 896 2801 2810 897 
3062 3063 3072 3071 2801 2802 2811 2810 
3063 3064 3073 3072 2802 2803 2812 2811 
3064 3065 3074 3073 2803 2804 2813 2812 
3065 3066 3075 3074 2804 2805 2814 2813 
3066 3067 3076 3075 2805 2806 2815 2814 
3067 3068 3077 3076 2806 2807 2816 2815 
3068 3069 3078 3077 2807 2808 2817 2816 
3069 3070 3079 3078 2808 2809 2818 2817 
3070 1186 1187 3079 2809 1157 1158 2818 
926 3071 3080 927 897 2810 2819 898 
3071 3072 3081 3080 2810 2811 2820 2819 
3072 3073 3082 3081 2811 2812 2821 2820 
3073 3074 3083 3082 2812 2813 2822 2821 
3074 3075 3084 3083 2813 2814 2823 2822 
3075 3076 3085 3084 2814 2815 2824 2823 
3076 3077 3086 3085 2815 2816 2825 2824 
3077 3078 3087 3086 2816 2817 2826 2825 
3078 3079 3088 3087 2817 2818 2827 2826 
3079 1187 1188 3088 2818 1158 1159 2827 
927 3080 3089 928 898 2819 2828 899 
3080 3081 3090 3089 2819 2820 2829 2828 
3081 3082 3091 3090 2820 2821 2830 2829 
3082 3083 3092 3091 2821 2822 2831 2830 
3083 3084 3093 3092 2822 2823 2832 2831 
3084 3085 3094 3093 2823 2824 2833 2832 
3085 3086 3095 3094 2824 2825 2834 2833 
3086 3087 3096 3095 2825 2826 2835 2834 
3087 3088 3097 3096 2826 2827 2836 2835 
3088 1188 1189 3097 2827 1159 1160 2836 
928 3089 3098 929 899 2828 2837 900 
3089 3090 3099 3098 2828 2829 2838 2837 
3090 3091 3100 3099 2829 2830 2839 2838 
3091 3092 3101 3100 2830 2831 2840 2839 
3092 3093 3102 3101 2831 2832 2841 2840 
3093 3094 3103 3102 2832 2833 2842 2841 
3094 3095 3104 3103 2833 2834 2843 2842 
3095 3096 3105 3104 2834 2835 2844 2843 
3096 3097 3106 3105 2835 2836 2845 2844 
3097 1189 1190 3106 2836 1160 1161 2845 
929 3098 3107 930 900 2837 2846 901 
3098 3099 3108 3107 2837 2838 2847 2846 
3099 3100 3109 3108 2838 2839 2848 2847 
3100 3101 3110 3109 2839 2840 2849 2848 
3101 3102 3111 3110 2840 2841 2850 2849 
3102 3103 3112 3111 2841 2842 2851 2850 
3103 3104 3113 3112 2842 2843 2852 2851 
3104 3105 3114 3113 2843 2844 2853 2852 
3105 3106 3115 3114 2844 2845 2854 2853 
3106 1190 1191 3115 2845 1161 1162 2854 
930 3107 3116 931 901 2846 2855 902 
3107 3108 3117 3116 2846 2847 2856 2855 
3108 3109 3118 3117 2847 2848 2857 2856 
3109 3110 3119 3118 2848 2849 2858 2857 
3110 3111 3120 3119 2849 2850 2859 2858 
3111 3112 3121 3120 2850 2851 2860 2859 
3112 3113 3122 3121 2851 2852 2861 2860 
3113 3114 3123 3122 2852 2853 2862 2861 
3114 3115 3124 3123 2853 2854 2863 2862 
3115 1191 1192 3124 2854 1162 1163 2863 
931 3116 3125 932 902 2855 2864 903 
3116 3117 3126 3125 2855 2856 2865 2864 
3117 3118 3127 3126 2856 2857 2866 2865 
3118 3119 3128 3127 2857 2858 2867 2866 
3119 3120 3129 3128 2858 2859 2868 2867 
3120 3121 3130 3129 2859 2860 2869 2868 
3121 3122 3131 3130 2860 2861 2870 2869 
3122 3123 3132 3131 2861 2862 2871 2870 
3123 3124 3133 3132 2862 2863 2872 2871 
3124 1192 1193 3133 2863 1163 1164 2872 
932 3125 3134 933 903 2864 2873 904 
3125 3126 3135 3134 2864 2865 2874 2873 
3126 3127 3136 3135 2865 2866 2875 2874 
3127 3128 3137 3136 2866 2867 2876 2875 
3128 3129 3138 3137 2867 2868 2877 2876 
3129 3130 3139 3138 2868 2869 2878 2877 
3130 3131 3140 3139 2869 2870 2879 2878 
3131 3132 3141 3140 2870 2871 2880 2879 
3132 3133 3142 3141 2871 2872 2881 2880 
3133 1193 1194 3142 2872 1164 1165 2881 
933 3134 3143 934 904 2873 2882 905 
3134 3135 3144 3143 2873 2874 2883 2882 
3135 3136 3145 3144 2874 2875 2884 2883 
3136 3137 3146 3145 2875 2876 2885 2884 
3137 3138 3147 3146 2876 2877 2886 2885 
3138 3139 3148 3147 2877 2878 2887 2886 
3139 3140 3149 3148 2878 2879 2888 2887 
3140 3141 3150 3149 2879 2880 2889 2888 
3141 3142 3151 3150 2880 2881 2890 2889 
3142 1194 1195 3151 2881 1165 1166 2890 
934 3143 3152 935 905 2882 2891 906 
3143 3144 3153 3152 2882 2883 2892 2891 
3144 3145 3154 3153 2883 2884 2893 2892 
3145 3146 3155 3154 2884 2885 2894 2893 
3146 3147 3156 3155 2885 2886 2895 2894 
3147 3148 3157 3156 2886 2887 2896 2895 
3148 3149 3158 3157 2887 2888 2897 2896 
3149 3150 3159 3158 2888 2889 2898 2897 
3150 3151 3160 3159 2889 2890 2899 2898 
3151 1195 1196 3160 2890 1166 1167 2899 
935 3152 3161 936 906 2891 2900 907 
3152 3153 3162 3161 2891 2892 2901 2900 
3153 3154 3163 3162 2892 2893 2902 2901 
3154 3155 3164 3163 2893 2894 2903 2902 
3155 3156 3165 3164 2894 2895 2904 2903 
3156 3157 3166 3165 2895 2896 2905 2904 
3157 3158 3167 3166 2896 2897 2906 2905 
3158 3159 3168 3167 2897 2898 2907 2906 
3159 3160 3169 3168 2898 2899 2908 2907 
3160 1196 1197 3169 2899 1167 1168 2908 
936 3161 3170 937 907 2900 2909 908 
3161 3162 3171 3170 2900 2901 2910 2909 
3162 3163 3172 3171 2901 2902 2911 2910 
3163 3164 3173 3172 2902 2903 2912 2911 
3164 3165 3174 3173 2903 2904 2913 2912 
3165 3166 3175 3174 2904 2905 2914 2913 
3166 3167 3176 3175 2905 2906 2915 2914 
3167 3168 3177 3176 2906 2907 2916 2915 
3168 3169 3178 3177 2907 2908 2917 2916 
3169 1197 1198 3178 2908 1168 1169 2917 
937 3170 3179 938 908 2909 2918 909 
3170 3171 3180 3179 2909 2910 2919 2918 
3171 3172 3181 3180 2910 2911 2920 2919 
3172 3173 3182 3181 2911 2912 2921 2920 
3173 3174 3183 3182 2912 2913 2922 2921 
3174 3175 3184 3183 2913 2914 2923 2922 
3175 3176 3185 3184 2914 2915 2924 2923 
3176 3177 3186 3185 2915 2916 2925 2924 
3177 3178 3187 3186 2916 2917 2926 2925 
3178 1198 1199 3187 2917 1169 1170 2926 
938 3179 1433 168 909 2918 1424 167 
3179 3180 1434 1433 2918 2919 1425 1424 
3180 3181 1435 1434 2919 2920 1426 1425 
3181 3182 1436 1435 2920 2921 1427 1426 
3182 3183 1437 1436 2921 2922 1428 1427 
3183 3184 1438 1437 2922 2923 1429 1428 
3184 3185 1439 1438 2923 2924 1430 1429 
3185 3186 1440 1439 2924 2925 1431 1430 
3186 3187 1441 1440 2925 2926 1432 1431 
3187 1199 186 1441 2926 1170 187 1432 
176 1361 3188 939 177 1352 2927 910 
1361 1362 3189 3188 1352 1353 2928 2927 
1362 1363 3190 3189 1353 1354 2929 2928 
1363 1364 3191 3190 1354 1355 2930 2929 
1364 1365 3192 3191 1355 1356 2931 2930 
1365 1366 3193 3192 1356 1357 2932 2931 
1366 1367 3194 3193 1357 1358 2933 2932 
1367 1368 3195 3194 1358 1359 2934 2933 
1368 1369 3196 3195 1359 1360 2935 2934 
1369 196 1200 3196 1360 195 1171 2935 
939 3188 3197 940 910 2927 2936 911 
3188 3189 3198 3197 2927 2928 2937 2936 
3189 3190 3199 3198 2928 2929 2938 2937 
3190 3191 3200 3199 2929 2930 2939 2938 
3191 3192 3201 3200 2930 2931 2940 2939 
3192 3193 3202 3201 2931 2932 2941 2940 
3193 3194 3203 3202 2932 2933 2942 2941 
3194 3195 3204 3203 2933 2934 2943 2942 
3195 3196 3205 3204 2934 2935 2944 2943 
3196 1200 1201 3205 2935 1171 1172 2944 
940 3197 3206 941 911 2936 2945 912 
3197 3198 3207 3206 2936 2937 2946 2945 
3198 3199 3208 3207 2937 2938 2947 2946 
3199 3200 3209 3208 2938 2939 2948 2947 
3200 3201 3210 3209 2939 2940 2949 2948 
3201 3202 3211 3210 2940 2941 2950 2949 
3202 3203 3212 3211 2941 2942 2951 2950 
3203 3204 3213 3212 2942 2943 2952 2951 
3204 3205 3214 3213 2943 2944 2953 2952 
3205 1201 1202 3214 2944 1172 1173 2953 
941 3206 3215 942 912 2945 2954 913 
3206 3207 3216 3215 2945 2946 2955 2954 
3207 3208 3217 3216 2946 2947 2956 2955 
3208 3209 3218 3217 2947 2948 2957 2956 
3209 3210 3219 3218 2948 2949 2958 2957 
3210 3211 3220 3219 2949 2950 2959 2958 
3211 3212 3221 3220 2950 2951 2960 2959 
3212 3213 3222 3221 2951 2952 2961 2960 
3213 3214 3223 3222 2952 2953 2962 2961 
3214 1202 1203 3223 2953 1173 1174 2962 
942 3215 3224 943 913 2954 2963 914 
3215 3216 3225 3224 2954 2955 2964 2963 
3216 3217 3226 3225 2955 2956 2965 2964 
3217 3218 3227 3226 2956 2957 2966 2965 
3218 3219 3228 3227 2957 2958 2967 2966 
3219 3220 3229 3228 2958 2959 2968 2967 
3220 3221 3230 3229 2959 2960 2969 2968 
3221 3222 3231 3230 2960 2961 2970 2969 
3222 3223 3232 3231 2961 2962 2971 2970 
3223 1203 1204 3232 2962 1174 1175 2971 
943 3224 3233 944 914 2963 2972 915 
3224 3225 3234 3233 2963 2964 2973 2972 
3225 3226 3235 3234 2964 2965 2974 2973 
3226 3227 3236 3235 2965 2966 2975 2974 
3227 3228 3237 3236 2966 2967 2976 2975 
3228 3229 3238 3237 2967 2968 2977 2976 
3229 3230 3239 3238 2968 2969 2978 2977 
3230 3231 3240 3239 2969 2970 2979 2978 
3231 3232 3241 3240 2970 2971 2980 2979 
3232 1204 1205 3241 2971 1175 1176 2980 
944 3233 3242 945 915 2972 2981 916 
3233 3234 3243 3242 2972 2973 2982 2981 
3234 3235 3244 3243 2973 2974 2983 2982 
3235 3236 3245 3244 2974 2975 2984 2983 
3236 3237 3246 3245 2975 2976 2985 2984 
3237 3238 3247 3246 2976 2977 2986 2985 
3238 3239 3248 3247 2977 2978 2987 2986 
3239 3240 3249 3248 2978 2979 2988 2987 
3240 3241 3250 3249 2979 2980 2989 2988 
3241 1205 1206 3250 2980 1176 1177 2989 
945 3242 3251 946 916 2981 2990 917 
3242 3243 3252 3251 2981 2982 2991 2990 
3243 3244 3253 3252 2982 2983 2992 2991 
3244 3245 3254 3253 2983 2984 2993 2992 
3245 3246 3255 3254 2984 2985 2994 2993 
3246 3247 3256 3255 2985 2986 2995 2994 
3247 3248 3257 3256 2986 2987 2996 2995 
3248 3249 3258 3257 2987 2988 2997 2996 
3249 3250 3259 3258 2988 2989 2998 2997 
3250 1206 1207 3259 2989 1177 1178 2998 
946 3251 3260 947 917 2990 2999 918 
3251 3252 3261 3260 2990 2991 3000 2999 
3252 3253 3262 3261 2991 2992 3001 3000 
3253 3254 3263 3262 2992 2993 3002 3001 
3254 3255 3264 3263 2993 2994 3003 3002 
3255 3256 3265 3264 2994 2995 3004 3003 
3256 3257 3266 3265 2995 2996 3005 3004 
3257 3258 3267 3266 2996 2997 3006 3005 
3258 3259 3268 3267 2997 2998 3007 3006 
3259 1207 1208 3268 2998 1178 1179 3007 
947 3260 3269 948 918 2999 3008 919 
3260 3261 3270 3269 2999 3000 3009 3008 
3261 3262 3271 3270 3000 3001 3010 3009 
3262 3263 3272 3271 3001 3002 3011 3010 
3263 3264 3273 3272 3002 3003 3012 3011 
3264 3265 3274 3273 3003 3004 3013 3012 
3265 3266 3275 3274 3004 3005 3014 3013 
3266 3267 3276 3275 3005 3006 3015 3014 
3267 3268 3277 3276 3006 3007 3016 3015 
3268 1208 1209 3277 3007 1179 1180 3016 
948 3269 3278 949 919 3008 3017 920 
3269 3270 3279 3278 3008 3009 3018 3017 
3270 3271 3280 3279 3009 3010 3019 3018 
3271 3272 3281 3280 3010 3011 3020 3019 
3272 3273 3282 3281 3011 3012 3021 3020 
3273 3274 3283 3282 3012 3013 3022 3021 
3274 3275 3284 3283 3013 3014 3023 3022 
3275 3276 3285 3284 3014 3015 3024 3023 
3276 3277 3286 3285 3015 3016 3025 3024 
3277 1209 1210 3286 3016 1180 1181 3025 
949 3278 3287 950 920 3017 3026 921 
3278 3279 3288 3287 3017 3018 3027 3026 
3279 3280 3289 3288 3018 3019 3028 3027 
3280 3281 3290 3289 3019 3020 3029 3028 
3281 3282 3291 3290 3020 3021 3030 3029 
3282 3283 3292 3291 3021 3022 3031 3030 
3283 3284 3293 3292 3022 3023 3032 3031 
3284 3285 3294 3293 3023 3024 3033 3032 
3285 3286 3295 3294 3024 3025 3034 3033 
3286 1210 1211 3295 3025 1181 1182 3034 
950 3287 3296 951 921 3026 3035 922 
3287 3288 3297 3296 3026 3027 3036 3035 
3288 3289 3298 3297 3027 3028 3037 3036 
3289 3290 3299 3298 3028 3029 3038 3037 
3290 3291 3300 3299 3029 3030 3039 3038 
3291 3292 3301 3300 3030 3031 3040 3039 
3292 3293 3302 3301 3031 3032 3041 3040 
3293 3294 3303 3302 3032 3033 3042 3041 
3294 3295 3304 3303 3033 3034 3043 3042 
3295 1211 1212 3304 3034 1182 1183 3043 
951 3296 3305 952 922 3035 3044 923 
3296 3297 3306 3305 3035 3036 3045 3044 
3297 3298 3307 3306 3036 3037 3046 3045 
3298 3299 3308 3307 3037 3038 3047 3046 
3299 3300 3309 3308 3038 3039 3048 3047 
3300 3301 3310 3309 3039 3040 3049 3048 
3301 3302 3311 3310 3040 3041 3050 3049 
3302 3303 3312 3311 3041 3042 3051 3050 
3303 3304 3313 3312 3042 3043 3052 3051 
3304 1212 1213 3313 3043 1183 1184 3052 
952 3305 3314 953 923 3044 3053 924 
3305 3306 3315 3314 3044 3045 3054 3053 
3306 3307 3316 3315 3045 3046 3055 3054 
3307 3308 3317 3316 3046 3047 3056 3055 
3308 3309 3318 3317 3047 3048 3057 3056 
3309 3310 3319 3318 3048 3049 3058 3057 
3310 3311 3320 3319 3049 3050 3059 3058 
3311 3312 3321 3320 3050 3051 3060 3059 
3312 3313 3322 3321 3051 3052 3061 3060 
3313 1213 1214 3322 3052 1184 1185 3061 
953 3314 3323 954 924 3053 3062 925 
3314 3315 3324 3323 3053 3054 3063 3062 
3315 3316 3325 3324 3054 3055 3064 3063 
3316 3317 3326 3325 3055 3056 3065 3064 
3317 3318 3327 3326 3056 3057 3066 3065 
3318 3319 3328 3327 3057 3058 3067 3066 
3319 3320 3329 3328 3058 3059 3068 3067 
3320 3321 3330 3329 3059 3060 3069 3068 
3321 3322 3331 3330 3060 3061 3070 3069 
3322 1214 1215 3331 3061 1185 1186 3070 
954 3323 3332 955 925 3062 3071 926 
3323 3324 3333 3332 3062 3063 3072 3071 
3324 3325 3334 3333 3063 3064 3073 3072 
3325 3326 3335 3334 3064 3065 3074 3073 
3326 3327 3336 3335 3065 3066 3075 3074 
3327 3328 3337 3336 3066 3067 3076 3075 
3328 3329 3338 3337 3067 3068 3077 3076 
3329 3330 3339 3338 3068 3069 3078 3077 
3330 3331 3340 3339 3069 3070 3079 3078 
3331 1215 1216 3340 3070 1186 1187 3079 
955 3332 3341 956 926 3071 3080 927 
3332 3333 3342 3341 3071 3072 3081 3080 
3333 3334 3343 3342 3072 3073 3082 3081 
3334 3335 3344 3343 3073 3074 3083 3082 
3335 3336 3345 3344 3074 3075 3084 3083 
3336 3337 3346 3345 3075 3076 3085 3084 
3337 3338 3347 3346 3076 3077 3086 3085 
3338 3339 3348 3347 3077 3078 3087 3086 
3339 3340 3349 3348 3078 3079 3088 3087 
3340 1216 1217 3349 3079 1187 1188 3088 
956 3341 3350 957 927 3080 3089 928 
3341 3342 3351 3350 3080 3081 3090 3089 
3342 3343 3352 3351 3081 3082 3091 3090 
3343 3344 3353 3352 3082 3083 3092 3091 
3344 3345 3354 3353 3083 3084 3093 3092 
3345 3346 3355 3354 3084 3085 3094 3093 
3346 3347 3356 3355 3085 3086 3095 3094 
3347 3348 3357 3356 3086 3087 3096 3095 
3348 3349 3358 3357 3087 3088 3097 3096 
3349 1217 1218 3358 3088 1188 1189 3097 
957 3350 3359 958 928 3089 3098 929 
3350 3351 3360 3359 3089 3090 3099 3098 
3351 3352 3361 3360 3090 3091 3100 3099 
3352 3353 3362 3361 3091 3092 3101 3100 
3353 3354 3363 3362 3092 3093 3102 3101 
3354 3355 3364 3363 3093 3094 3103 3102 
3355 3356 3365 3364 3094 3095 3104 3103 
3356 3357 3366 3365 3095 3096 3105 3104 
3357 3358 3367 3366 3096 3097 3106 3105 
3358 1218 1219 3367 3097 1189 1190 3106 
958 3359 3368 959 929 3098 3107 930 
3359 3360 3369 3368 3098 3099 3108 3107 
3360 3361 3370 3369 3099 3100 3109 3108 
3361 3362 3371 3370 3100 3101 3110 3109 
3362 3363 3372 3371 3101 3102 3111 3110 
3363 3364 3373 3372 3102 3103 3112 3111 
3364 3365 3374 3373 3103 3104 3113 3112 
3365 3366 3375 3374 3104 3105 3114 3113 
3366 3367 3376 3375 3105 3106 3115 3114 
3367 1219 1220 3376 3106 1190 1191 3115 
959 3368 3377 960 930 3107 3116 931 
3368 3369 3378 3377 3107 3108 3117 3116 
3369 3370 3379 3378 3108 3109 3118 3117 
3370 3371 3380 3379 3109 3110 3119 3118 
3371 3372 3381 3380 3110 3111 3120 3119 
3372 3373 3382 3381 3111 3112 3121 3120 
3373 3374 3383 3382 3112 3113 3122 3121 
3374 3375 3384 3383 3113 3114 3123 3122 
3375 3376 3385 3384 3114 3115 3124 3123 
3376 1220 1221 3385 3115 1191 1192 3124 
960 3377 3386 961 931 3116 3125 932 
3377 3378 3387 3386 3116 3117 3126 3125 
3378 3379 3388 3387 3117 3118 3127 3126 
3379 3380 3389 3388 3118 3119 3128 3127 
3380 3381 3390 3389 3119 3120 3129 3128 
3381 3382 3391 3390 3120 3121 3130 3129 
3382 3383 3392 3391 3121 3122 3131 3130 
3383 3384 3393 3392 3122 3123 3132 3131 
3384 3385 3394 3393 3123 3124 3133 3132 
3385 1221 1222 3394 3124 1192 1193 3133 
961 3386 3395 962 932 3125 3134 933 
3386 3387 3396 3395 3125 3126 3135 3134 
3387 3388 3397 3396 3126 3127 3136 3135 
3388 3389 3398 3397 3127 3128 3137 3136 
3389 3390 3399 3398 3128 3129 3138 3137 
3390 3391 3400 3399 3129 3130 3139 3138 
3391 3392 3401 3400 3130 3131 3140 3139 
3392 3393 3402 3401 3131 3132 3141 3140 
3393 3394 3403 3402 3132 3133 3142 3141 
3394 1222 1223 3403 3133 1193 1194 3142 
962 3395 3404 963 933 3134 3143 934 
3395 3396 3405 3404 3134 3135 3144 3143 
3396 3397 3406 3405 3135 3136 3145 3144 
3397 3398 3407 3406 3136 3137 3146 3145 
3398 3399 3408 3407 3137 3138 3147 3146 
3399 3400 3409 3408 3138 3139 3148 3147 
3400 3401 3410 3409 3139 3140 3149 3148 
3401 3402 3411 3410 3140 3141 3150 3149 
3402 3403 3412 3411 3141 3142 3151 3150 
3403 1223 1224 3412 3142 1194 1195 3151 
963 3404 3413 964 934 3143 3152 935 
3404 3405 3414 3413 3143 3144 3153 3152 
3405 3406 3415 3414 3144 3145 3154 3153 
3406 3407 3416 3415 3145 3146 3155 3154 
3407 3408 3417 3416 3146 3147 3156 3155 
3408 3409 3418 3417 3147 3148 3157 3156 
3409 3410 3419 3418 3148 3149 3158 3157 
3410 3411 3420 3419 3149 3150 3159 3158 
3411 3412 3421 3420 3150 3151 3160 3159 
3412 1224 1225 3421 3151 1195 1196 3160 
964 3413 3422 965 935 3152 3161 936 
3413 3414 3423 3422 3152 3153 3162 3161 
3414 3415 3424 3423 3153 3154 3163 3162 
3415 3416 3425 3424 3154 3155 3164 3163 
3416 3417 3426 3425 3155 3156 3165 3164 
3417 3418 3427 3426 3156 3157 3166 3165 
3418 3419 3428 3427 3157 3158 3167 3166 
3419 3420 3429 3428 3158 3159 3168 3167 
3420 3421 3430 3429 3159 3160 3169 3168 
3421 1225 1226 3430 3160 1196 1197 3169 
965 3422 3431 966 936 3161 3170 937 
3422 3423 3432 3431 3161 3162 3171 3170 
3423 3424 3433 3432 3162 3163 3172 3171 
3424 3425 3434 3433 3163 3164 3173 3172 
3425 3426 3435 3434 3164 3165 3174 3173 
3426 3427 3436 3435 3165 3166 3175 3174 
3427 3428 3437 3436 3166 3167 3176 3175 
3428 3429 3438 3437 3167 3168 3177 3176 
3429 3430 3439 3438 3168 3169 3178 3177 
3430 1226 1227 3439 3169 1197 1198 3178 
966 3431 3440 967 937 3170 3179 938 
3431 3432 3441 3440 3170 3171 3180 3179 
3432 3433 3442 3441 3171 3172 3181 3180 
3433 3434 3443 3442 3172 3173 3182 3181 
3434 3435 3444 3443 3173 3174 3183 3182 
3435 3436 3445 3444 3174 3175 3184 3183 
3436 3437 3446 3445 3175 3176 3185 3184 
3437 3438 3447 3446 3176 3177 3186 3185 
3438 3439 3448 3447 3177 3178 3187 3186 
3439 1227 1228 3448 3178 1198 1199 3187 
967 3440 1442 169 938 3179 1433 168 
3440 3441 1443 1442 3179 3180 1434 1433 
3441 3442 1444 1443 3180 3181 1435 1434 
3442 3443 1445 1444 3181 3182 1436 1435 
3443 3444 1446 1445 3182 3183 1437 1436 
3444 3445 1447 1446 3183 3184 1438 1437 
3445 3446 1448 1447 3184 3185 1439 1438 
3446 3447 1449 1448 3185 3186 1440 1439 
3447 3448 1450 1449 3186 3187 1441 1440 
3448 1228 185 1450 3187 1199 186 1441 
175 1370 3449 968 176 1361 3188 939 
1370 1371 3450 3449 1361 1362 3189 3188 
1371 1372 3451 3450 1362 1363 3190 3189 
1372 1373 3452 3451 1363 1364 3191 3190 
1373 1374 3453 3452 1364 1365 3192 3191 
1374 1375 3454 3453 1365 1366 3193 3192 
1375 1376 3455 3454 1366 1367 3194 3193 
1376 1377 3456 3455 1367 1368 3195 3194 
1377 1378 3457 3456 1368 1369 3196 3195 
1378 197 1229 3457 1369 196 1200 3196 
968 3449 3458 969 939 3188 3197 940 
3449 3450 3459 3458 3188 3189 3198 3197 
3450 3451 3460 3459 3189 3190 3199 3198 
3451 3452 3461 3460 3190 3191 3200 3199 
3452 3453 3462 3461 3191 3192 3201 3200 
3453 3454 3463 3462 3192 3193 3202 3201 
3454 3455 3464 3463 3193 3194 3203 3202 
3455 3456 3465 3464 3194 3195 3204 3203 
3456 3457 3466 3465 3195 3196 3205 3204 
3457 1229 1230 3466 3196 1200 1201 3205 
969 3458 3467 970 940 3197 3206 941 
3458 3459 3468 3467 3197 3198 3207 3206 
3459 3460 3469 3468 3198 3199 3208 3207 
3460 3461 3470 3469 3199 3200 3209 3208 
3461 3462 3471 3470 3200 3201 3210 3209 
3462 3463 3472 3471 3201 3202 3211 3210 
3463 3464 3473 3472 3202 3203 3212 3211 
3464 3465 3474 3473 3203 3204 3213 3212 
3465 3466 3475 3474 3204 3205 3214 3213 
3466 1230 1231 3475 3205 1201 1202 3214 
970 3467 3476 971 941 3206 3215 942 
3467 3468 3477 3476 3206 3207 3216 3215 
3468 3469 3478 3477 3207 3208 3217 3216 
3469 3470 3479 3478 3208 3209 3218 3217 
3470 3471 3480 3479 3209 3210 3219 3218 
3471 3472 3481 3480 3210 3211 3220 3219 
3472 3473 3482 3481 3211 3212 3221 3220 
3473 3474 3483 3482 3212 3213 3222 3221 
3474 3475 3484 3483 3213 3214 3223 3222 
3475 1231 1232 3484 3214 1202 1203 3223 
971 3476 3485 972 942 3215 3224 943 
3476 3477 3486 3485 3215 3216 3225 3224 
3477 3478 3487 3486 3216 3217 3226 3225 
3478 3479 3488 3487 3217 3218 3227 3226 
3479 3480 3489 3488 3218 3219 3228 3227 
3480 3481 3490 3489 3219 3220 3229 3228 
3481 3482 3491 3490 3220 3221 3230 3229 
3482 3483 3492 3491 3221 3222 3231 3230 
3483 3484 3493 3492 3222 3223 3232 3231 
3484 1232 1233 3493 3223 1203 1204 3232 
972 3485 3494 973 943 3224 3233 944 
3485 3486 3495 3494 3224 3225 3234 3233 
3486 3487 3496 3495 3225 3226 3235 3234 
3487 3488 3497 3496 3226 3227 3236 3235 
3488 3489 3498 3497 3227 3228 3237 3236 
3489 3490 3499 3498 3228 3229 3238 3237 
3490 3491 3500 3499 3229 3230 3239 3238 
3491 3492 3501 3500 3230 3231 3240 3239 
3492 3493 3502 3501 3231 3232 3241 3240 
3493 1233 1234 3502 3232 1204 1205 3241 
973 3494 3503 974 944 3233 3242 945 
3494 3495 3504 3503 3233 3234 3243 3242 
3495 3496 3505 3504 3234 3235 3244 3243 
3496 3497 3506 3505 3235 3236 3245 3244 
3497 3498 3507 3506 3236 3237 3246 3245 
3498 3499 3508 3507 3237 3238 3247 3246 
3499 3500 3509 3508 3238 3239 3248 3247 
3500 3501 3510 3509 3239 3240 3249 3248 
3501 3502 3511 3510 3240 3241 3250 3249 
3502 1234 1235 3511 3241 1205 1206 3250 
974 3503 3512 975 945 3242 3251 946 
3503 3504 3513 3512 3242 3243 3252 3251 
3504 3505 3514 3513 3243 3244 3253 3252 
3505 3506 3515 3514 3244 3245 3254 3253 
3506 3507 3516 3515 3245 3246 3255 3254 
3507 3508 3517 3516 3246 3247 3256 3255 
3508 3509 3518 3517 3247 3248 3257 3256 
3509 3510 3519 3518 3248 3249 3258 3257 
3510 3511 3520 3519 3249 3250 3259 3258 
3511 1235 1236 3520 3250 1206 1207 3259 
975 3512 3521 976 946 3251 3260 947 
3512 3513 3522 3521 3251 3252 3261 3260 
3513 3514 3523 3522 3252 3253 3262 3261 
3514 3515 3524 3523 3253 3254 3263 3262 
3515 3516 3525 3524 3254 3255 3264 3263 
3516 3517 3526 3525 3255 3256 3265 3264 
3517 3518 3527 3526 3256 3257 3266 3265 
3518 3519 3528 3527 3257 3258 3267 3266 
3519 3520 3529 3528 3258 3259 3268 3267 
3520 1236 1237 3529 3259 1207 1208 3268 
976 3521 3530 977 947 3260 3269 948 
3521 3522 3531 3530 3260 3261 3270 3269 
3522 3523 3532 3531 3261 3262 3271 3270 
3523 3524 3533 3532 3262 3263 3272 3271 
3524 3525 3534 3533 3263 3264 3273 3272 
3525 3526 3535 3534 3264 3265 3274 3273 
3526 3527 3536 3535 3265 3266 3275 3274 
3527 3528 3537 3536 3266 3267 3276 3275 
3528 3529 3538 3537 3267 3268 3277 3276 
3529 1237 1238 3538 3268 1208 1209 3277 
977 3530 3539 978 948 3269 3278 949 
3530 3531 3540 3539 3269 3270 3279 3278 
3531 3532 3541 3540 3270 3271 3280 3279 
3532 3533 3542 3541 3271 3272 3281 3280 
3533 3534 3543 3542 3272 3273 3282 3281 
3534 3535 3544 3543 3273 3274 3283 3282 
3535 3536 3545 3544 3274 3275 3284 3283 
3536 3537 3546 3545 3275 3276 3285 3284 
3537 3538 3547 3546 3276 3277 3286 3285 
3538 1238 1239 3547 3277 1209 1210 3286 
978 3539 3548 979 949 3278 3287 950 
3539 3540 3549 3548 3278 3279 3288 3287 
3540 3541 3550 3549 3279 3280 3289 3288 
3541 3542 3551 3550 3280 3281 3290 3289 
3542 3543 3552 3551 3281 3282 3291 3290 
3543 3544 3553 3552 3282 3283 3292 3291 
3544 3545 3554 3553 3283 3284 3293 3292 
3545 3546 3555 3554 3284 3285 3294 3293 
3546 3547 3556 3555 3285 3286 3295 3294 
3547 1239 1240 3556 3286 1210 1211 3295 
979 3548 3557 980 950 3287 3296 951 
3548 3549 3558 3557 3287 3288 3297 3296 
3549 3550 3559 3558 3288 3289 3298 3297 
3550 3551 3560 3559 3289 3290 3299 3298 
3551 3552 3561 3560 3290 3291 3300 3299 
3552 3553 3562 3561 3291 3292 3301 3300 
3553 3554 3563 3562 3292 3293 3302 3301 
3554 3555 3564 3563 3293 3294 3303 3302 
3555 3556 3565 3564 3294 3295 3304 3303 
3556 1240 1241 3565 3295 1211 1212 3304 
980 3557 3566 981 951 3296 3305 952 
3557 3558 3567 3566 3296 3297 3306 3305 
3558 3559 3568 3567 3297 3298 3307 3306 
3559 3560 3569 3568 3298 3299 3308 3307 
3560 3561 3570 3569 3299 3300 3309 3308 
3561 3562 3571 3570 3300 3301 3310 3309 
3562 3563 3572 3571 3301 3302 3311 3310 
3563 3564 3573 3572 3302 3303 3312 3311 
3564 3565 3574 3573 3303 3304 3313 3312 
3565 1241 1242 3574 3304 1212 1213 3313 
981 3566 3575 982 952 3305 3314 953 
3566 3567 3576 3575 3305 3306 3315 3314 
3567 3568 3577 3576 3306 3307 3316 3315 
3568 3569 3578 3577 3307 3308 3317 3316 
3569 3570 3579 3578 3308 3309 3318 3317 
3570 3571 3580 3579 3309 3310 3319 3318 
3571 3572 3581 3580 3310 3311 3320 3319 
3572 3573 3582 3581 3311 3312 3321 3320 
3573 3574 3583 3582 3312 3313 3322 3321 
3574 1242 1243 3583 3313 1213 1214 3322 
982 3575 3584 983 953 3314 3323 954 
3575 3576 3585 3584 3314 3315 3324 3323 
3576 3577 3586 3585 3315 3316 3325 3324 
3577 3578 3587 3586 3316 3317 3326 3325 
3578 3579 3588 3587 3317 3318 3327 3326 
3579 3580 3589 3588 3318 3319 3328 3327 
3580 3581 3590 3589 3319 3320 3329 3328 
3581 3582 3591 3590 3320 3321 3330 3329 
3582 3583 3592 3591 3321 3322 3331 3330 
3583 1243 1244 3592 3322 1214 1215 3331 
983 3584 3593 984 954 3323 3332 955 
3584 3585 3594 3593 3323 3324 3333 3332 
3585 3586 3595 3594 3324 3325 3334 3333 
3586 3587 3596 3595 3325 3326 3335 3334 
3587 3588 3597 3596 3326 3327 3336 3335 
3588 3589 3598 3597 3327 3328 3337 3336 
3589 3590 3599 3598 3328 3329 3338 3337 
3590 3591 3600 3599 3329 3330 3339 3338 
3591 3592 3601 3600 3330 3331 3340 3339 
3592 1244 1245 3601 3331 1215 1216 3340 
984 3593 3602 985 955 3332 3341 956 
3593 3594 3603 3602 3332 3333 3342 3341 
3594 3595 3604 3603 3333 3334 3343 3342 
3595 3596 3605 3604 3334 3335 3344 3343 
3596 3597 3606 3605 3335 3336 3345 3344 
3597 3598 3607 3606 3336 3337 3346 3345 
3598 3599 3608 3607 3337 3338 3347 3346 
3599 3600 3609 3608 3338 3339 3348 3347 
3600 3601 3610 3609 3339 3340 3349 3348 
3601 1245 1246 3610 3340 1216 1217 3349 
985 3602 3611 986 956 3341 3350 957 
3602 3603 3612 3611 3341 3342 3351 3350 
3603 3604 3613 3612 3342 3343 3352 3351 
3604 3605 3614 3613 3343 3344 3353 3352 
3605 3606 3615 3614 3344 3345 3354 3353 
3606 3607 3616 3615 3345 3346 3355 3354 
3607 3608 3617 3616 3346 3347 3356 3355 
3608 3609 3618 3617 3347 3348 3357 3356 
3609 3610 3619 3618 3348 3349 3358 3357 
3610 1246 1247 3619 3349 1217 1218 3358 
986 3611 3620 987 957 3350 3359 958 
3611 3612 3621 3620 3350 3351 3360 3359 
3612 3613 3622 3621 3351 3352 3361 3360 
3613 3614 3623 3622 3352 3353 3362 3361 
3614 3615 3624 3623 3353 3354 3363 3362 
3615 3616 3625 3624 3354 3355 3364 3363 
3616 3617 3626 3625 3355 3356 3365 3364 
3617 3618 3627 3626 3356 3357 3366 3365 
3618 3619 3628 3627 3357 3358 3367 3366 
3619 1247 1248 3628 3358 1218 1219 3367 
987 3620 3629 988 958 3359 3368 959 
3620 3621 3630 3629 3359 3360 3369 3368 
3621 3622 3631 3630 3360 3361 3370 3369 
3622 3623 3632 3631 3361 3362 3371 3370 
3623 3624 3633 3632 3362 3363 3372 3371 
3624 3625 3634 3633 3363 3364 3373 3372 
3625 3626 3635 3634 3364 3365 3374 3373 
3626 3627 3636 3635 3365 3366 3375 3374 
3627 3628 3637 3636 3366 3367 3376 3375 
3628 1248 1249 3637 3367 1219 1220 3376 
988 3629 3638 989 959 3368 3377 960 
3629 3630 3639 3638 3368 3369 3378 3377 
3630 3631 3640 3639 3369 3370 3379 3378 
3631 3632 3641 3640 3370 3371 3380 3379 
3632 3633 3642 3641 3371 3372 3381 3380 
3633 3634 3643 3642 3372 3373 3382 3381 
3634 3635 3644 3643 3373 3374 3383 3382 
3635 3636 3645 3644 3374 3375 3384 3383 
3636 3637 3646 3645 3375 3376 3385 3384 
3637 1249 1250 3646 3376 1220 1221 3385 
989 3638 3647 990 960 3377 3386 961 
3638 3639 3648 3647 3377 3378 3387 3386 
3639 3640 3649 3648 3378 3379 3388 3387 
3640 3641 3650 3649 3379 3380 3389 3388 
3641 3642 3651 3650 3380 3381 3390 3389 
3642 3643 3652 3651 3381 3382 3391 3390 
3643 3644 3653 3652 3382 3383 3392 3391 
3644 3645 3654 3653 3383 3384 3393 3392 
3645 3646 3655 3654 3384 3385 3394 3393 
3646 1250 1251 3655 3385 1221 1222 3394 
990 3647 3656 991 961 3386 3395 962 
3647 3648 3657 3656 3386 3387 3396 3395 
3648 3649 3658 3657 3387 3388 3397 3396 
3649 3650 3659 3658 3388 3389 3398 3397 
3650 3651 3660 3659 3389 3390 3399 3398 
3651 3652 3661 3660 3390 3391 3400 3399 
3652 3653 3662 3661 3391 3392 3401 3400 
3653 3654 3663 3662 3392 3393 3402 3401 
3654 3655 3664 3663 3393 3394 3403 3402 
3655 1251 1252 3664 3394 1222 1223 3403 
991 3656 3665 992 962 3395 3404 963 
3656 3657 3666 3665 3395 3396 3405 3404 
3657 3658 3667 3666 3396 3397 3406 3405 
3658 3659 3668 3667 3397 3398 3407 3406 
3659 3660 3669 3668 3398 3399 3408 3407 
3660 3661 3670 3669 3399 3400 3409 3408 
3661 3662 3671 3670 3400 3401 3410 3409 
3662 3663 3672 3671 3401 3402 3411 3410 
3663 3664 3673 3672 3402 3403 3412 3411 
3664 1252 1253 3673 3403 1223 1224 3412 
992 3665 3674 993 963 3404 3413 964 
3665 3666 3675 3674 3404 3405 3414 3413 
3666 3667 3676 3675 3405 3406 3415 3414 
3667 3668 3677 3676 3406 3407 3416 3415 
3668 3669 3678 3677 3407 3408 3417 3416 
3669 3670 3679 3678 3408 3409 3418 3417 
3670 3671 3680 3679 3409 3410 3419 3418 
3671 3672 3681 3680 3410 3411 3420 3419 
3672 3673 3682 3681 3411 3412 3421 3420 
3673 1253 1254 3682 3412 1224 1225 3421 
993 3674 3683 994 964 3413 3422 965 
3674 3675 3684 3683 3413 3414 3423 3422 
3675 3676 3685 3684 3414 3415 3424 3423 
3676 3677 3686 3685 3415 3416 3425 3424 
3677 3678 3687 3686 3416 3417 3426 3425 
3678 3679 3688 3687 3417 3418 3427 3426 
3679 3680 3689 3688 3418 3419 3428 3427 
3680 3681 3690 3689 3419 3420 3429 3428 
3681 3682 3691 3690 3420 3421 3430 3429 
3682 1254 1255 3691 3421 1225 1226 3430 
994 3683 3692 995 965 3422 3431 966 
3683 3684 3693 3692 3422 3423 3432 3431 
3684 3685 3694 3693 3423 3424 3433 3432 
3685 3686 3695 3694 3424 3425 3434 3433 
3686 3687 3696 3695 3425 3426 3435 3434 
3687 3688 3697 3696 3426 3427 3436 3435 
3688 3689 3698 3697 3427 3428 3437 3436 
3689 3690 3699 3698 3428 3429 3438 3437 
3690 3691 3700 3699 3429 3430 3439 3438 
3691 1255 1256 3700 3430 1226 1227 3439 
995 3692 3701 996 966 3431 3440 967 
3692 3693 3702 3701 3431 3432 3441 3440 
3693 3694 3703 3702 3432 3433 3442 3441 
3694 3695 3704 3703 3433 3434 3443 3442 
3695 3696 3705 3704 3434 3435 3444 3443 
3696 3697 3706 3705 3435 3436 3445 3444 
3697 3698 3707 3706 3436 3437 3446 3445 
3698 3699 3708 3707 3437 3438 3447 3446 
3699 3700 3709 3708 3438 3439 3448 3447 
3700 1256 1257 3709 3439 1227 1228 3448 
996 3701 1451 170 967 3440 1442 169 
3701 3702 1452 1451 3440 3441 1443 1442 
3702 3703 1453 1452 3441 3442 1444 1443 
3703 3704 1454 1453 3442 3443 1445 1444 
3704 3705 1455 1454 3443 3444 1446 1445 
3705 3706 1456 1455 3444 3445 1447 1446 
3706 3707 1457 1456 3445 3446 1448 1447 
3707 3708 1458 1457 3446 3447 1449 1448 
3708 3709 1459 1458 3447 3448 1450 1449 
3709 1257 184 1459 3448 1228 185 1450 
174 1379 3710 997 175 1370 3449 968 
1379 1380 3711 3710 1370 1371 3450 3449 
1380 1381 3712 3711 1371 1372 3451 3450 
1381 1382 3713 3712 1372 1373 3452 3451 
1382 1383 3714 3713 1373 1374 3453 3452 
1383 1384 3715 3714 1374 1375 3454 3453 
1384 1385 3716 3715 1375 1376 3455 3454 
1385 1386 3717 3716 1376 1377 3456 3455 
1386 1387 3718 3717 1377 1378 3457 3456 
1387 198 1258 3718 1378 197 1229 3457 
997 3710 3719 998 968 3449 3458 969 
3710 3711 3720 3719 3449 3450 3459 3458 
3711 3712 3721 3720 3450 3451 3460 3459 
3712 3713 3722 3721 3451 3452 3461 3460 
3713 3714 3723 3722 3452 3453 3462 3461 
3714 3715 3724 3723 3453 3454 3463 3462 
3715 3716 3725 3724 3454 3455 3464 3463 
3716 3717 3726 3725 3455 3456 3465 3464 
3717 3718 3727 3726 3456 3457 3466 3465 
3718 1258 1259 3727 3457 1229 1230 3466 
998 3719 3728 999 969 3458 3467 970 
3719 3720 3729 3728 3458 3459 3468 3467 
3720 3721 3730 3729 3459 3460 3469 3468 
3721 3722 3731 3730 3460 3461 3470 3469 
3722 3723 3732 3731 3461 3462 3471 3470 
3723 3724 3733 3732 3462 3463 3472 3471 
3724 3725 3734 3733 3463 3464 3473 3472 
3725 3726 3735 3734 3464 3465 3474 3473 
3726 3727 3736 3735 3465 3466 3475 3474 
3727 1259 1260 3736 3466 1230 1231 3475 
999 3728 3737 1000 970 3467 3476 971 
3728 3729 3738 3737 3467 3468 3477 3476 
3729 3730 3739 3738 3468 3469 3478 3477 
3730 3731 3740 3739 3469 3470 3479 3478 
3731 3732 3741 3740 3470 3471 3480 3479 
3732 3733 3742 3741 3471 3472 3481 3480 
3733 3734 3743 3742 3472 3473 3482 3481 
3734 3735 3744 3743 3473 3474 3483 3482 
3735 3736 3745 3744 3474 3475 3484 3483 
3736 1260 1261 3745 3475 1231 1232 3484 
1000 3737 3746 1001 971 3476 3485 972 
3737 3738 3747 3746 3476 3477 3486 3485 
3738 3739 3748 3747 3477 3478 3487 3486 
3739 3740 3749 3748 3478 3479 3488 3487 
3740 3741 3750 3749 3479 3480 3489 3488 
3741 3742 3751 3750 3480 3481 3490 3489 
3742 3743 3752 3751 3481 3482 3491 3490 
3743 3744 3753 3752 3482 3483 3492 3491 
3744 3745 3754 3753 3483 3484 3493 3492 
3745 1261 1262 3754 3484 1232 1233 3493 
1001 3746 3755 1002 972 3485 3494 973 
3746 3747 3756 3755 3485 3486 3495 3494 
3747 3748 3757 3756 3486 3487 3496 3495 
3748 3749 3758 3757 3487 3488 3497 3496 
3749 3750 3759 3758 3488 3489 3498 3497 
3750 3751 3760 3759 3489 3490 3499 3498 
3751 3752 3761 3760 3490 3491 3500 3499 
3752 3753 3762 3761 3491 3492 3501 3500 
3753 3754 3763 3762 3492 3493 3502 3501 
3754 1262 1263 3763 3493 1233 1234 3502 
1002 3755 3764 1003 973 3494 3503 974 
3755 3756 3765 3764 3494 3495 3504 3503 
3756 3757 3766 3765 3495 3496 3505 3504 
3757 3758 3767 3766 3496 3497 3506 3505 
3758 3759 3768 3767 3497 3498 3507 3506 
3759 3760 3769 3768 3498 3499 3508 3507 
3760 3761 3770 3769 3499 3500 3509 3508 
3761 3762 3771 3770 3500 3501 3510 3509 
3762 3763 3772 3771 3501 3502 3511 3510 
3763 1263 1264 3772 3502 1234 1235 3511 
1003 3764 3773 1004 974 3503 3512 975 
3764 3765 3774 3773 3503 3504 3513 3512 
3765 3766 3775 3774 3504 3505 3514 3513 
3766 3767 3776 3775 3505 3506 3515 3514 
3767 3768 3777 3776 3506 3507 3516 3515 
3768 3769 3778 3777 3507 3508 3517 3516 
3769 3770 3779 3778 3508 3509 3518 3517 
3770 3771 3780 3779 3509 3510 3519 3518 
3771 3772 3781 3780 3510 3511 3520 3519 
3772 1264 1265 3781 3511 1235 1236 3520 
1004 3773 3782 1005 975 3512 3521 976 
3773 3774 3783 3782 3512 3513 3522 3521 
3774 3775 3784 3783 3513 3514 3523 3522 
3775 3776 3785 3784 3514 3515 3524 3523 
3776 3777 3786 3785 3515 3516 3525 3524 
3777 3778 3787 3786 3516 3517 3526 3525 
3778 3779 3788 3787 3517 3518 3527 3526 
3779 3780 3789 3788 3518 3519 3528 3527 
3780 3781 3790 3789 3519 3520 3529 3528 
3781 1265 1266 3790 3520 1236 1237 3529 
1005 3782 3791 1006 976 3521 3530 977 
3782 3783 3792 3791 3521 3522 3531 3530 
3783 3784 3793 3792 3522 3523 3532 3531 
3784 3785 3794 3793 3523 3524 3533 3532 
3785 3786 3795 3794 3524 3525 3534 3533 
3786 3787 3796 3795 3525 3526 3535 3534 
3787 3788 3797 3796 3526 3527 3536 3535 
3788 3789 3798 3797 3527 3528 3537 3536 
3789 3790 3799 3798 3528 3529 3538 3537 
3790 1266 1267 3799 3529 1237 1238 3538 
1006 3791 3800 1007 977 3530 3539 978 
3791 3792 3801 3800 3530 3531 3540 3539 
3792 3793 3802 3801 3531 3532 3541 3540 
3793 3794 3803 3802 3532 3533 3542 3541 
3794 3795 3804 3803 3533 3534 3543 3542 
3795 3796 3805 3804 3534 3535 3544 3543 
3796 3797 3806 3805 3535 3536 3545 3544 
3797 3798 3807 3806 3536 3537 3546 3545 
3798 3799 3808 3807 3537 3538 3547 3546 
3799 1267 1268 3808 3538 1238 1239 3547 
1007 3800 3809 1008 978 3539 3548 979 
3800 3801 3810 3809 3539 3540 3549 3548 
3801 3802 3811 3810 3540 3541 3550 3549 
3802 3803 3812 3811 3541 3542 3551 3550 
3803 3804 3813 3812 3542 3543 3552 3551 
3804 3805 3814 3813 3543 3544 3553 3552 
3805 3806 3815 3814 3544 3545 3554 3553 
3806 3807 3816 3815 3545 3546 3555 3554 
3807 3808 3817 3816 3546 3547 3556 3555 
3808 1268 1269 3817 3547 1239 1240 3556 
1008 3809 3818 1009 979 3548 3557 980 
3809 3810 3819 3818 3548 3549 3558 3557 
3810 3811 3820 3819 3549 3550 3559 3558 
3811 3812 3821 3820 3550 3551 3560 3559 
3812 3813 3822 3821 3551 3552 3561 3560 
3813 3814 3823 3822 3552 3553 3562 3561 
3814 3815 3824 3823 3553 3554 3563 3562 
3815 3816 3825 3824 3554 3555 3564 3563 
3816 3817 3826 3825 3555 3556 3565 3564 
3817 1269 1270 3826 3556 1240 1241 3565 
1009 3818 3827 1010 980 3557 3566 981 
3818 3819 3828 3827 3557 3558 3567 3566 
3819 3820 3829 3828 3558 3559 3568 3567 
3820 3821 3830 3829 3559 3560 3569 3568 
3821 3822 3831 3830 3560 3561 3570 3569 
3822 3823 3832 3831 3561 3562 3571 3570 
3823 3824 3833 3832 3562 3563 3572 3571 
3824 3825 3834 3833 3563 3564 3573 3572 
3825 3826 3835 3834 3564 3565 3574 3573 
3826 1270 1271 3835 3565 1241 1242 3574 
1010 3827 3836 1011 981 3566 3575 982 
3827 3828 3837 3836 3566 3567 3576 3575 
3828 3829 3838 3837 3567 3568 3577 3576 
3829 3830 3839 3838 3568 3569 3578 3577 
3830 3831 3840 3839 3569 3570 3579 3578 
3831 3832 3841 3840 3570 3571 3580 3579 
3832 3833 3842 3841 3571 3572 3581 3580 
3833 3834 3843 3842 3572 3573 3582 3581 
3834 3835 3844 3843 3573 3574 3583 3582 
3835 1271 1272 3844 3574 1242 1243 3583 
1011 3836 3845 1012 982 3575 3584 983 
3836 3837 3846 3845 3575 3576 3585 3584 
3837 3838 3847 3846 3576 3577 3586 3585 
3838 3839 3848 3847 3577 3578 3587 3586 
3839 3840 3849 3848 3578 3579 3588 3587 
3840 3841 3850 3849 3579 3580 3589 3588 
3841 3842 3851 3850 3580 3581 3590 3589 
3842 3843 3852 3851 3581 3582 3591 3590 
3843 3844 3853 3852 3582 3583 3592 3591 
3844 1272 1273 3853 3583 1243 1244 3592 
1012 3845 3854 1013 983 3584 3593 984 
3845 3846 3855 3854 3584 3585 3594 3593 
3846 3847 3856 3855 3585 3586 3595 3594 
3847 3848 3857 3856 3586 3587 3596 3595 
3848 3849 3858 3857 3587 3588 3597 3596 
3849 3850 3859 3858 3588 3589 3598 3597 
3850 3851 3860 3859 3589 3590 3599 3598 
3851 3852 3861 3860 3590 3591 3600 3599 
3852 3853 3862 3861 3591 3592 3601 3600 
3853 1273 1274 3862 3592 1244 1245 3601 
1013 3854 3863 1014 984 3593 3602 985 
3854 3855 3864 3863 3593 3594 3603 3602 
3855 3856 3865 3864 3594 3595 3604 3603 
3856 3857 3866 3865 3595 3596 3605 3604 
3857 3858 3867 3866 3596 3597 3606 3605 
3858 3859 3868 3867 3597 3598 3607 3606 
3859 3860 3869 3868 3598 3599 3608 3607 
3860 3861 3870 3869 3599 3600 3609 3608 
3861 3862 3871 3870 3600 3601 3610 3609 
3862 1274 1275 3871 3601 1245 1246 3610 
1014 3863 3872 1015 985 3602 3611 986 
3863 3864 3873 3872 3602 3603 3612 3611 
3864 3865 3874 3873 3603 3604 3613 3612 
3865 3866 3875 3874 3604 3605 3614 3613 
3866 3867 3876 3875 3605 3606 3615 3614 
3867 3868 3877 3876 3606 3607 3616 3615 
3868 3869 3878 3877 3607 3608 3617 3616 
3869 3870 3879 3878 3608 3609 3618 3617 
3870 3871 3880 3879 3609 3610 3619 3618 
3871 1275 1276 3880 3610 1246 1247 3619 
1015 3872 3881 1016 986 3611 3620 987 
3872 3873 3882 3881 3611 3612 3621 3620 
3873 3874 3883 3882 3612 3613 3622 3621 
3874 3875 3884 3883 3613 3614 3623 3622 
3875 3876 3885 3884 3614 3615 3624 3623 
3876 3877 3886 3885 3615 3616 3625 3624 
3877 3878 3887 3886 3616 3617 3626 3625 
3878 3879 3888 3887 3617 3618 3627 3626 
3879 3880 3889 3888 3618 3619 3628 3627 
3880 1276 1277 3889 3619 1247 1248 3628 
1016 3881 3890 1017 987 3620 3629 988 
3881 3882 3891 3890 3620 3621 3630 3629 
3882 3883 3892 3891 3621 3622 3631 3630 
3883 3884 3893 3892 3622 3623 3632 3631 
3884 3885 3894 3893 3623 3624 3633 3632 
3885 3886 3895 3894 3624 3625 3634 3633 
3886 3887 3896 3895 3625 3626 3635 3634 
3887 3888 3897 3896 3626 3627 3636 3635 
3888 3889 3898 3897 3627 3628 3637 3636 
3889 1277 1278 3898 3628 1248 1249 3637 
1017 3890 3899 1018 988 3629 3638 989 
3890 3891 3900 3899 3629 3630 3639 3638 
3891 3892 3901 3900 3630 3631 3640 3639 
3892 3893 3902 3901 3631 3632 3641 3640 
3893 3894 3903 3902 3632 3633 3642 3641 
3894 3895 3904 3903 3633 3634 3643 3642 
3895 3896 3905 3904 3634 3635 3644 3643 
3896 3897 3906 3905 3635 3636 3645 3644 
3897 3898 3907 3906 3636 3637 3646 3645 
3898 1278 1279 3907 3637 1249 1250 3646 
1018 3899 3908 1019 989 3638 3647 990 
3899 3900 3909 3908 3638 3639 3648 3647 
3900 3901 3910 3909 3639 3640 3649 3648 
3901 3902 3911 3910 3640 3641 3650 3649 
3902 3903 3912 3911 3641 3642 3651 3650 
3903 3904 3913 3912 3642 3643 3652 3651 
3904 3905 3914 3913 3643 3644 3653 3652 
3905 3906 3915 3914 3644 3645 3654 3653 
3906 3907 3916 3915 3645 3646 3655 3654 
3907 1279 1280 3916 3646 1250 1251 3655 
1019 3908 3917 1020 990 3647 3656 991 
3908 3909 3918 3917 3647 3648 3657 3656 
3909 3910 3919 3918 3648 3649 3658 3657 
3910 3911 3920 3919 3649 3650 3659 3658 
3911 3912 3921 3920 3650 3651 3660 3659 
3912 3913 3922 3921 3651 3652 3661 3660 
3913 3914 3923 3922 3652 3653 3662 3661 
3914 3915 3924 3923 3653 3654 3663 3662 
3915 3916 3925 3924 3654 3655 3664 3663 
3916 1280 1281 3925 3655 1251 1252 3664 
1020 3917 3926 1021 991 3656 3665 992 
3917 3918 3927 3926 3656 3657 3666 3665 
3918 3919 3928 3927 3657 3658 3667 3666 
3919 3920 3929 3928 3658 3659 3668 3667 
3920 3921 3930 3929 3659 3660 3669 3668 
3921 3922 3931 3930 3660 3661 3670 3669 
3922 3923 3932 3931 3661 3662 3671 3670 
3923 3924 3933 3932 3662 3663 3672 3671 
3924 3925 3934 3933 3663 3664 3673 3672 
3925 1281 1282 3934 3664 1252 1253 3673 
1021 3926 3935 1022 992 3665 3674 993 
3926 3927 3936 3935 3665 3666 3675 3674 
3927 3928 3937 3936 3666 3667 3676 3675 
3928 3929 3938 3937 3667 3668 3677 3676 
3929 3930 3939 3938 3668 3669 3678 3677 
3930 3931 3940 3939 3669 3670 3679 3678 
3931 3932 3941 3940 3670 3671 3680 3679 
3932 3933 3942 3941 3671 3672 3681 3680 
3933 3934 3943 3942 3672 3673 3682 3681 
3934 1282 1283 3943 3673 1253 1254 3682 
1022 3935 3944 1023 993 3674 3683 994 
3935 3936 3945 3944 3674 3675 3684 3683 
3936 3937 3946 3945 3675 3676 3685 3684 
3937 3938 3947 3946 3676 3677 3686 3685 
3938 3939 3948 3947 3677 3678 3687 3686 
3939 3940 3949 3948 3678 3679 3688 3687 
3940 3941 3950 3949 3679 3680 3689 3688 
3941 3942 3951 3950 3680 3681 3690 3689 
3942 3943 3952 3951 3681 3682 3691 3690 
3943 1283 1284 3952 3682 1254 1255 3691 
1023 3944 3953 1024 994 3683 3692 995 
3944 3945 3954 3953 3683 3684 3693 3692 
3945 3946 3955 3954 3684 3685 3694 3693 
3946 3947 3956 3955 3685 3686 3695 3694 
3947 3948 3957 3956 3686 3687 3696 3695 
3948 3949 3958 3957 3687 3688 3697 3696 
3949 3950 3959 3958 3688 3689 3698 3697 
3950 3951 3960 3959 3689 3690 3699 3698 
3951 3952 3961 3960 3690 3691 3700 3699 
3952 1284 1285 3961 3691 1255 1256 3700 
1024 3953 3962 1025 995 3692 3701 996 
3953 3954 3963 3962 3692 3693 3702 3701 
3954 3955 3964 3963 3693 3694 3703 3702 
3955 3956 3965 3964 3694 3695 3704 3703 
3956 3957 3966 3965 3695 3696 3705 3704 
3957 3958 3967 3966 3696 3697 3706 3705 
3958 3959 3968 3967 3697 3698 3707 3706 
3959 3960 3969 3968 3698 3699 3708 3707 
3960 3961 3970 3969 3699 3700 3709 3708 
3961 1285 1286 3970 3700 1256 1257 3709 
1025 3962 1460 171 996 3701 1451 170 
3962 3963 1461 1460 3701 3702 1452 1451 
3963 3964 1462 1461 3702 3703 1453 1452 
3964 3965 1463 1462 3703 3704 1454 1453 
3965 3966 1464 1463 3704 3705 1455 1454 
3966 3967 1465 1464 3705 3706 1456 1455 
3967 3968 1466 1465 3706 3707 1457 1456 
3968 3969 1467 1466 3707 3708 1458 1457 
3969 3970 1468 1467 3708 3709 1459 1458 
3970 1286 183 1468 3709 1257 184 1459 
173 1388 3971 1026 174 1379 3710 997 
1388 1389 3972 3971 1379 1380 3711 3710 
1389 1390 3973 3972 1380 1381 3712 3711 
1390 1391 3974 3973 1381 1382 3713 3712 
1391 1392 3975 3974 1382 1383 3714 3713 
1392 1393 3976 3975 1383 1384 3715 3714 
1393 1394 3977 3976 1384 1385 3716 3715 
1394 1395 3978 3977 1385 1386 3717 3716 
1395 1396 3979 3978 1386 1387 3718 3717 
1396 199 1287 3979 1387 198 1258 3718 
1026 3971 3980 1027 997 3710 3719 998 
3971 3972 3981 3980 3710 3711 3720 3719 
3972 3973 3982 3981 3711 3712 3721 3720 
3973 3974 3983 3982 3712 3713 3722 3721 
3974 3975 3984 3983 3713 3714 3723 3722 
3975 3976 3985 3984 3714 3715 3724 3723 
3976 3977 3986 3985 3715 3716 3725 3724 
3977 3978 3987 3986 3716 3717 3726 3725 
3978 3979 3988 3987 3717 3718 3727 3726 
3979 1287 1288 3988 3718 1258 1259 3727 
1027 3980 3989 1028 998 3719 3728 999 
3980 3981 3990 3989 3719 3720 3729 3728 
3981 3982 3991 3990 3720 3721 3730 3729 
3982 3983 3992 3991 3721 3722 3731 3730 
3983 3984 3993 3992 3722 3723 3732 3731 
3984 3985 3994 3993 3723 3724 3733 3732 
3985 3986 3995 3994 3724 3725 3734 3733 
3986 3987 3996 3995 3725 3726 3735 3734 
3987 3988 3997 3996 3726 3727 3736 3735 
3988 1288 1289 3997 3727 1259 1260 3736 
1028 3989 3998 1029 999 3728 3737 1000 
3989 3990 3999 3998 3728 3729 3738 3737 
3990 3991 4000 3999 3729 3730 3739 3738 
3991 3992 4001 4000 3730 3731 3740 3739 
3992 3993 4002 4001 3731 3732 3741 3740 
3993 3994 4003 4002 3732 3733 3742 3741 
3994 3995 4004 4003 3733 3734 3743 3742 
3995 3996 4005 4004 3734 3735 3744 3743 
3996 3997 4006 4005 3735 3736 3745 3744 
3997 1289 1290 4006 3736 1260 1261 3745 
1029 3998 4007 1030 1000 3737 3746 1001 
3998 3999 4008 4007 3737 3738 3747 3746 
3999 4000 4009 4008 3738 3739 3748 3747 
4000 4001 4010 4009 3739 3740 3749 3748 
4001 4002 4011 4010 3740 3741 3750 3749 
4002 4003 4012 4011 3741 3742 3751 3750 
4003 4004 4013 4012 3742 3743 3752 3751 
4004 4005 4014 4013 3743 3744 3753 3752 
4005 4006 4015 4014 3744 3745 3754 3753 
4006 1290 1291 4015 3745 1261 1262 3754 
1030 4007 4016 1031 1001 3746 3755 1002 
4007 4008 4017 4016 3746 3747 3756 3755 
4008 4009 4018 4017 3747 3748 3757 3756 
4009 4010 4019 4018 3748 3749 3758 3757 
4010 4011 4020 4019 3749 3750 3759 3758 
4011 4012 4021 4020 3750 3751 3760 3759 
4012 4013 4022 4021 3751 3752 3761 3760 
4013 4014 4023 4022 3752 3753 3762 3761 
4014 4015 4024 4023 3753 3754 3763 3762 
4015 1291 1292 4024 3754 1262 1263 3763 
1031 4016 4025 1032 1002 3755 3764 1003 
4016 4017 4026 4025 3755 3756 3765 3764 
4017 4018 4027 4026 3756 3757 3766 3765 
4018 4019 4028 4027 3757 3758 3767 3766 
4019 4020 4029 4028 3758 3759 3768 3767 
4020 4021 4030 4029 3759 3760 3769 3768 
4021 4022 4031 4030 3760 3761 3770 3769 
4022 4023 4032 4031 3761 3762 3771 3770 
4023 4024 4033 4032 3762 3763 3772 3771 
4024 1292 1293 4033 3763 1263 1264 3772 
1032 4025 4034 1033 1003 3764 3773 1004 
4025 4026 4035 4034 3764 3765 3774 3773 
4026 4027 4036 4035 3765 3766 3775 3774 
4027 4028 4037 4036 3766 3767 3776 3775 
4028 4029 4038 4037 3767 3768 3777 3776 
4029 4030 4039 4038 3768 3769 3778 3777 
4030 4031 4040 4039 3769 3770 3779 3778 
4031 4032 4041 4040 3770 3771 3780 3779 
4032 4033 4042 4041 3771 3772 3781 3780 
4033 1293 1294 4042 3772 1264 1265 3781 
1033 4034 4043 1034 1004 3773 3782 1005 
4034 4035 4044 4043 3773 3774 3783 3782 
4035 4036 4045 4044 3774 3775 3784 3783 
4036 4037 4046 4045 3775 3776 3785 3784 
4037 4038 4047 4046 3776 3777 3786 3785 
4038 4039 4048 4047 3777 3778 3787 3786 
4039 4040 4049 4048 3778 3779 3788 3787 
4040 4041 4050 4049 3779 3780 3789 3788 
4041 4042 4051 4050 3780 3781 3790 3789 
4042 1294 1295 4051 3781 1265 1266 3790 
1034 4043 4052 1035 1005 3782 3791 1006 
4043 4044 4053 4052 3782 3783 3792 3791 
4044 4045 4054 4053 3783 3784 3793 3792 
4045 4046 4055 4054 3784 3785 3794 3793 
4046 4047 4056 4055 3785 3786 3795 3794 
4047 4048 4057 4056 3786 3787 3796 3795 
4048 4049 4058 4057 3787 3788 3797 3796 
4049 4050 4059 4058 3788 3789 3798 3797 
4050 4051 4060 4059 3789 3790 3799 3798 
4051 1295 1296 4060 3790 1266 1267 3799 
1035 4052 4061 1036 1006 3791 3800 1007 
4052 4053 4062 4061 3791 3792 3801 3800 
4053 4054 4063 4062 3792 3793 3802 3801 
4054 4055 4064 4063 3793 3794 3803 3802 
4055 4056 4065 4064 3794 3795 3804 3803 
4056 4057 4066 4065 3795 3796 3805 3804 
4057 4058 4067 4066 3796 3797 3806 3805 
4058 4059 4068 4067 3797 3798 3807 3806 
4059 4060 4069 4068 3798 3799 3808 3807 
4060 1296 1297 4069 3799 1267 1268 3808 
1036 4061 4070 1037 1007 3800 3809 1008 
4061 4062 4071 4070 3800 3801 3810 3809 
4062 4063 4072 4071 3801 3802 3811 3810 
4063 4064 4073 4072 3802 3803 3812 3811 
4064 4065 4074 4073 3803 3804 3813 3812 
4065 4066 4075 4074 3804 3805 3814 3813 
4066 4067 4076 4075 3805 3806 3815 3814 
4067 4068 4077 4076 3806 3807 3816 3815 
4068 4069 4078 4077 3807 3808 3817 3816 
4069 1297 1298 4078 3808 1268 1269 3817 
1037 4070 4079 1038 1008 3809 3818 1009 
4070 4071 4080 4079 3809 3810 3819 3818 
4071 4072 4081 4080 3810 3811 3820 3819 
4072 4073 4082 4081 3811 3812 3821 3820 
4073 4074 4083 4082 3812 3813 3822 3821 
4074 4075 4084 4083 3813 3814 3823 3822 
4075 4076 4085 4084 3814 3815 3824 3823 
4076 4077 4086 4085 3815 3816 3825 3824 
4077 4078 4087 4086 3816 3817 3826 3825 
4078 1298 1299 4087 3817 1269 1270 3826 
1038 4079 4088 1039 1009 3818 3827 1010 
4079 4080 4089 4088 3818 3819 3828 3827 
4080 4081 4090 4089 3819 3820 3829 3828 
4081 4082 4091 4090 3820 3821 3830 3829 
4082 4083 4092 4091 3821 3822 3831 3830 
4083 4084 4093 4092 3822 3823 3832 3831 
4084 4085 4094 4093 3823 3824 3833 3832 
4085 4086 4095 4094 3824 3825 3834 3833 
4086 4087 4096 4095 3825 3826 3835 3834 
4087 1299 1300 4096 3826 1270 1271 3835 
1039 4088 4097 1040 1010 3827 3836 1011 
4088 4089 4098 4097 3827 3828 3837 3836 
4089 4090 4099 4098 3828 3829 3838 3837 
4090 4091 4100 4099 3829 3830 3839 3838 
4091 4092 4101 4100 3830 3831 3840 3839 
4092 4093 4102 4101 3831 3832 3841 3840 
4093 4094 4103 4102 3832 3833 3842 3841 
4094 4095 4104 4103 3833 3834 3843 3842 
4095 4096 4105 4104 3834 3835 3844 3843 
4096 1300 1301 4105 3835 1271 1272 3844 
1040 4097 4106 1041 1011 3836 3845 1012 
4097 4098 4107 4106 3836 3837 3846 3845 
4098 4099 4108 4107 3837 3838 3847 3846 
4099 4100 4109 4108 3838 3839 3848 3847 
4100 4101 4110 4109 3839 3840 3849 3848 
4101 4102 4111 4110 3840 3841 3850 3849 
4102 4103 4112 4111 3841 3842 3851 3850 
4103 4104 4113 4112 3842 3843 3852 3851 
4104 4105 4114 4113 3843 3844 3853 3852 
4105 1301 1302 4114 3844 1272 1273 3853 
1041 4106 4115 1042 1012 3845 3854 1013 
4106 4107 4116 4115 3845 3846 3855 3854 
4107 4108 4117 4116 3846 3847 3856 3855 
4108 4109 4118 4117 3847 3848 3857 3856 
4109 4110 4119 4118 3848 3849 3858 3857 
4110 4111 4120 4119 3849 3850 3859 3858 
4111 4112 4121 4120 3850 3851 3860 3859 
4112 4113 4122 4121 3851 3852 3861 3860 
4113 4114 4123 4122 3852 3853 3862 3861 
4114 1302 1303 4123 3853 1273 1274 3862 
1042 4115 4124 1043 1013 3854 3863 1014 
4115 4116 4125 4124 3854 3855 3864 3863 
4116 4117 4126 4125 3855 3856 3865 3864 
4117 4118 4127 4126 3856 3857 3866 3865 
4118 4119 4128 4127 3857 3858 3867 3866 
4119 4120 4129 4128 3858 3859 3868 3867 
4120 4121 4130 4129 3859 3860 3869 3868 
4121 4122 4131 4130 3860 3861 3870 3869 
4122 4123 4132 4131 3861 3862 3871 3870 
4123 1303 1304 4132 3862 1274 1275 3871 
1043 4124 4133 1044 1014 3863 3872 1015 
4124 4125 4134 4133 3863 3864 3873 3872 
4125 4126 4135 4134 3864 3865 3874 3873 
4126 4127 4136 4135 3865 3866 3875 3874 
4127 4128 4137 4136 3866 3867 3876 3875 
4128 4129 4138 4137 3867 3868 3877 3876 
4129 4130 4139 4138 3868 3869 3878 3877 
4130 4131 4140 4139 3869 3870 3879 3878 
4131 4132 4141 4140 3870 3871 3880 3879 
4132 1304 1305 4141 3871 1275 1276 3880 
1044 4133 4142 1045 1015 3872 3881 1016 
4133 4134 4143 4142 3872 3873 3882 3881 
4134 4135 4144 4143 3873 3874 3883 3882 
4135 4136 4145 4144 3874 3875 3884 3883 
4136 4137 4146 4145 3875 3876 3885 3884 
4137 4138 4147 4146 3876 3877 3886 3885 
4138 4139 4148 4147 3877 3878 3887 3886 
4139 4140 4149 4148 3878 3879 3888 3887 
4140 4141 4150 4149 3879 3880 3889 3888 
4141 1305 1306 4150 3880 1276 1277 3889 
1045 4142 4151 1046 1016 3881 3890 1017 
4142 4143 4152 4151 3881 3882 3891 3890 
4143 4144 4153 4152 3882 3883 3892 3891 
4144 4145 4154 4153 3883 3884 3893 3892 
4145 4146 4155 4154 3884 3885 3894 3893 
4146 4147 4156 4155 3885 3886 3895 3894 
4147 4148 4157 4156 3886 3887 3896 3895 
4148 4149 4158 4157 3887 3888 3897 3896 
4149 4150 4159 4158 3888 3889 3898 3897 
4150 1306 1307 4159 3889 1277 1278 3898 
1046 4151 4160 1047 1017 3890 3899 1018 
4151 4152 4161 4160 3890 3891 3900 3899 
4152 4153 4162 4161 3891 3892 3901 3900 
4153 4154 4163 4162 3892 3893 3902 3901 
4154 4155 4164 4163 3893 3894 3903 3902 
4155 4156 4165 4164 3894 3895 3904 3903 
4156 4157 4166 4165 3895 3896 3905 3904 
4157 4158 4167 4166 3896 3897 3906 3905 
4158 4159 4168 4167 3897 3898 3907 3906 
4159 1307 1308 4168 3898 1278 1279 3907 
1047 4160 4169 1048 1018 3899 3908 1019 
4160 4161 4170 4169 3899 3900 3909 3908 
4161 4162 4171 4170 3900 3901 3910 3909 
4162 4163 4172 4171 3901 3902 3911 3910 
4163 4164 4173 4172 3902 3903 3912 3911 
4164 4165 4174 4173 3903 3904 3913 3912 
4165 4166 4175 4174 3904 3905 3914 3913 
4166 4167 4176 4175 3905 3906 3915 3914 
4167 4168 4177 4176 3906 3907 3916 3915 
4168 1308 1309 4177 3907 1279 1280 3916 
1048 4169 4178 1049 1019 3908 3917 1020 
4169 4170 4179 4178 3908 3909 3918 3917 
4170 4171 4180 4179 3909 3910 3919 3918 
4171 4172 4181 4180 3910 3911 3920 3919 
4172 4173 4182 4181 3911 3912 3921 3920 
4173 4174 4183 4182 3912 3913 3922 3921 
4174 4175 4184 4183 3913 3914 3923 3922 
4175 4176 4185 4184 3914 3915 3924 3923 
4176 4177 4186 4185 3915 3916 3925 3924 
4177 1309 1310 4186 3916 1280 1281 3925 
1049 4178 4187 1050 1020 3917 3926 1021 
4178 4179 4188 4187 3917 3918 3927 3926 
4179 4180 4189 4188 3918 3919 3928 3927 
4180 4181 4190 4189 3919 3920 3929 3928 
4181 4182 4191 4190 3920 3921 3930 3929 
4182 4183 4192 4191 3921 3922 3931 3930 
4183 4184 4193 4192 3922 3923 3932 3931 
4184 4185 4194 4193 3923 3924 3933 3932 
4185 4186 4195 4194 3924 3925 3934 3933 
4186 1310 1311 4195 3925 1281 1282 3934 
1050 4187 4196 1051 1021 3926 3935 1022 
4187 4188 4197 4196 3926 3927 3936 3935 
4188 4189 4198 4197 3927 3928 3937 3936 
4189 4190 4199 4198 3928 3929 3938 3937 
4190 4191 4200 4199 3929 3930 3939 3938 
4191 4192 4201 4200 3930 3931 3940 3939 
4192 4193 4202 4201 3931 3932 3941 3940 
4193 4194 4203 4202 3932 3933 3942 3941 
4194 4195 4204 4203 3933 3934 3943 3942 
4195 1311 1312 4204 3934 1282 1283 3943 
1051 4196 4205 1052 1022 3935 3944 1023 
4196 4197 4206 4205 3935 3936 3945 3944 
4197 4198 4207 4206 3936 3937 3946 3945 
4198 4199 4208 4207 3937 3938 3947 3946 
4199 4200 4209 4208 3938 3939 3948 3947 
4200 4201 4210 4209 3939 3940 3949 3948 
4201 4202 4211 4210 3940 3941 3950 3949 
4202 4203 4212 4211 3941 3942 3951 3950 
4203 4204 4213 4212 3942 3943 3952 3951 
4204 1312 1313 4213 3943 1283 1284 3952 
1052 4205 4214 1053 1023 3944 3953 1024 
4205 4206 4215 4214 3944 3945 3954 3953 
4206 4207 4216 4215 3945 3946 3955 3954 
4207 4208 4217 4216 3946 3947 3956 3955 
4208 4209 4218 4217 3947 3948 3957 3956 
4209 4210 4219 4218 3948 3949 3958 3957 
4210 4211 4220 4219 3949 3950 3959 3958 
4211 4212 4221 4220 3950 3951 3960 3959 
4212 4213 4222 4221 3951 3952 3961 3960 
4213 1313 1314 4222 3952 1284 1285 3961 
1053 4214 4223 1054 1024 3953 3962 1025 
4214 4215 4224 4223 3953 3954 3963 3962 
4215 4216 4225 4224 3954 3955 3964 3963 
4216 4217 4226 4225 3955 3956 3965 3964 
4217 4218 4227 4226 3956 3957 3966 3965 
4218 4219 4228 4227 3957 3958 3967 3966 
4219 4220 4229 4228 3958 3959 3968 3967 
4220 4221 4230 4229 3959 3960 3969 3968 
4221 4222 4231 4230 3960 3961 3970 3969 
4222 1314 1315 4231 3961 1285 1286 3970 
1054 4223 1469 172 1025 3962 1460 171 
4223 4224 1470 1469 3962 3963 1461 1460 
4224 4225 1471 1470 3963 3964 1462 1461 
4225 4226 1472 1471 3964 3965 1463 1462 
4226 4227 1473 1472 3965 3966 1464 1463 
4227 4228 1474 1473 3966 3967 1465 1464 
4228 4229 1475 1474 3967 3968 1466 1465 
4229 4230 1476 1475 3968 3969 1467 1466 
4230 4231 1477 1476 3969 3970 1468 1467 
4231 1315 182 1477 3970 1286 183 1468 
7 96 533 135 173 1388 3971 1026 
96 95 534 533 1388 1389 3972 3971 
95 94 535 534 1389 1390 3973 3972 
94 93 536 535 1390 1391 3974 3973 
93 92 537 536 1391 1392 3975 3974 
92 91 538 537 1392 1393 3976 3975 
91 90 539 538 1393 1394 3977 3976 
90 89 540 539 1394 1395 3978 3977 
89 88 541 540 1395 1396 3979 3978 
88 4 125 541 1396 199 1287 3979 
135 533 542 136 1026 3971 3980 1027 
533 534 543 542 3971 3972 3981 3980 
534 535 544 543 3972 3973 3982 3981 
535 536 545 544 3973 3974 3983 3982 
536 537 546 545 3974 3975 3984 3983 
537 538 547 546 3975 3976 3985 3984 
538 539 548 547 3976 3977 3986 3985 
539 540 549 548 3977 3978 3987 3986 
540 541 550 549 3978 3979 3988 3987 
541 125 124 550 3979 1287 1288 3988 
136 542 551 137 1027 3980 3989 1028 
542 543 552 551 3980 3981 3990 3989 
543 544 553 552 3981 3982 3991 3990 
544 545 554 553 3982 3983 3992 3991 
545 546 555 554 3983 3984 3993 3992 
546 547 556 555 3984 3985 3994 3993 
547 548 557 556 3985 3986 3995 3994 
548 549 558 557 3986 3987 3996 3995 
549 550 559 558 3987 3988 3997 3996 
550 124 123 559 3988 1288 1289 3997 
137 551 560 138 1028 3989 3998 1029 
551 552 561 560 3989 3990 3999 3998 
552 553 562 561 3990 3991 4000 3999 
553 554 563 562 3991 3992 4001 4000 
554 555 564 563 3992 3993 4002 4001 
555 556 565 564 3993 3994 4003 4002 
556 557 566 565 3994 3995 4004 4003 
557 558 567 566 3995 3996 4005 4004 
558 559 568 567 3996 3997 4006 4005 
559 123 122 568 3997 1289 1290 4006 
138 560 569 139 1029 3998 4007 1030 
560 561 570 569 3998 3999 4008 4007 
561 562 571 570 3999 4000 4009 4008 
562 563 572 571 4000 4001 4010 4009 
563 564 573 572 4001 4002 4011 4010 
564 565 574 573 4002 4003 4012 4011 
565 566 575 574 4003 4004 4013 4012 
566 567 576 575 4004 4005 4014 4013 
567 568 577 576 4005 4006 4015 4014 
568 122 121 577 4006 1290 1291 4015 
139 569 578 140 1030 4007 4016 1031 
569 570 579 578 4007 4008 4017 4016 
570 571 580 579 4008 4009 4018 4017 
571 572 581 580 4009 4010 4019 4018 
572 573 582 581 4010 4011 4020 4019 
573 574 583 582 4011 4012 4021 4020 
574 575 584 583 4012 4013 4022 4021 
575 576 585 584 4013 4014 4023 4022 
576 577 586 585 4014 4015 4024 4023 
577 121 120 586 4015 1291 1292 4024 
140 578 587 141 1031 4016 4025 1032 
578 579 588 587 4016 4017 4026 4025 
579 580 589 588 4017 4018 4027 4026 
580 581 590 589 4018 4019 4028 4027 
581 582 591 590 4019 4020 4029 4028 
582 583 592 591 4020 4021 4030 4029 
583 584 593 592 4021 4022 4031 4030 
584 585 594 593 4022 4023 4032 4031 
585 586 595 594 4023 4024 4033 4032 
586 120 119 595 4024 1292 1293 4033 
141 587 596 142 1032 4025 4034 1033 
587 588 597 596 4025 4026 4035 4034 
588 589 598 597 4026 4027 4036 4035 
589 590 599 598 4027 4028 4037 4036 
590 591 600 599 4028 4029 4038 4037 
591 592 601 600 4029 4030 4039 4038 
592 593 602 601 4030 4031 4040 4039 
593 594 603 602 4031 4032 4041 4040 
594 595 604 603 4032 4033 4042 4041 
595 119 118 604 4033 1293 1294 4042 
142 596 605 143 1033 4034 4043 1034 
596 597 606 605 4034 4035 4044 4043 
597 598 607 606 4035 4036 4045 4044 
598 599 608 607 4036 4037 4046 4045 
599 600 609 608 4037 4038 4047 4046 
600 601 610 609 4038 4039 4048 4047 
601 602 611 610 4039 4040 4049 4048 
602 603 612 611 4040 4041 4050 4049 
603 604 613 612 4041 4042 4051 4050 
604 118 117 613 4042 1294 1295 4051 
143 605 614 144 1034 4043 4052 1035 
605 606 615 614 4043 4044 4053 4052 
606 607 616 615 4044 4045 4054 4053 
607 608 617 616 4045 4046 4055 4054 
608 609 618 617 4046 4047 4056 4055 
609 610 619 618 4047 4048 4057 4056 
610 611 620 619 4048 4049 4058 4057 
611 612 621 620 4049 4050 4059 4058 
612 613 622 621 4050 4051 4060 4059 
613 117 116 622 4051 1295 1296 4060 
144 614 623 145 1035 4052 4061 1036 
614 615 624 623 4052 4053 4062 4061 
615 616 625 624 4053 4054 4063 4062 
616 617 626 625 4054 4055 4064 4063 
617 618 627 626 4055 4056 4065 4064 
618 619 628 627 4056 4057 4066 4065 
619 620 629 628 4057 4058 4067 4066 
620 621 630 629 4058 4059 4068 4067 
621 622 631 630 4059 4060 4069 4068 
622 116 115 631 4060 1296 1297 4069 
145 623 632 146 1036 4061 4070 1037 
623 624 633 632 4061 4062 4071 4070 
624 625 634 633 4062 4063 4072 4071 
625 626 635 634 4063 4064 4073 4072 
626 627 636 635 4064 4065 4074 4073 
627 628 637 636 4065 4066 4075 4074 
628 629 638 637 4066 4067 4076 4075 
629 630 639 638 4067 4068 4077 4076 
630 631 640 639 4068 4069 4078 4077 
631 115 114 640 4069 1297 1298 4078 
146 632 641 147 1037 4070 4079 1038 
632 633 642 641 4070 4071 4080 4079 
633 634 643 642 4071 4072 4081 4080 
634 635 644 643 4072 4073 4082 4081 
635 636 645 644 4073 4074 4083 4082 
636 637 646 645 4074 4075 4084 4083 
637 638 647 646 4075 4076 4085 4084 
638 639 648 647 4076 4077 4086 4085 
639 640 649 648 4077 4078 4087 4086 
640 114 113 649 4078 1298 1299 4087 
147 641 650 148 1038 4079 4088 1039 
641 642 651 650 4079 4080 4089 4088 
642 643 652 651 4080 4081 4090 4089 
643 644 653 652 4081 4082 4091 4090 
644 645 654 653 4082 4083 4092 4091 
645 646 655 654 4083 4084 4093 4092 
646 647 656 655 4084 4085 4094 4093 
647 648 657 656 4085 4086 4095 4094 
648 649 658 657 4086 4087 4096 4095 
649 113 112 658 4087 1299 1300 4096 
148 650 659 149 1039 4088 4097 1040 
650 651 660 659 4088 4089 4098 4097 
651 652 661 660 4089 4090 4099 4098 
652 653 662 661 4090 4091 4100 4099 
653 654 663 662 4091 4092 4101 4100 
654 655 664 663 4092 4093 4102 4101 
655 656 665 664 4093 4094 4103 4102 
656 657 666 665 4094 4095 4104 4103 
657 658 667 666 4095 4096 4105 4104 
658 112 111 667 4096 1300 1301 4105 
149 659 668 150 1040 4097 4106 1041 
659 660 669 668 4097 4098 4107 4106 
660 661 670 669 4098 4099 4108 4107 
661 662 671 670 4099 4100 4109 4108 
662 663 672 671 4100 4101 4110 4109 
663 664 673 672 4101 4102 4111 4110 
664 665 674 673 4102 4103 4112 4111 
665 666 675 674 4103 4104 4113 4112 
666 667 676 675 4104 4105 4114 4113 
667 111 110 676 4105 1301 1302 4114 
150 668 677 151 1041 4106 4115 1042 
668 669 678 677 4106 4107 4116 4115 
669 670 679 678 4107 4108 4117 4116 
670 671 680 679 4108 4109 4118 4117 
671 672 681 680 4109 4110 4119 4118 
672 673 682 681 4110 4111 4120 4119 
673 674 683 682 4111 4112 4121 4120 
674 675 684 683 4112 4113 4122 4121 
675 676 685 684 4113 4114 4123 4122 
676 110 109 685 4114 1302 1303 4123 
151 677 686 152 1042 4115 4124 1043 
677 678 687 686 4115 4116 4125 4124 
678 679 688 687 4116 4117 4126 4125 
679 680 689 688 4117 4118 4127 4126 
680 681 690 689 4118 4119 4128 4127 
681 682 691 690 4119 4120 4129 4128 
682 683 692 691 4120 4121 4130 4129 
683 684 693 692 4121 4122 4131 4130 
684 685 694 693 4122 4123 4132 4131 
685 109 108 694 4123 1303 1304 4132 
152 686 695 153 1043 4124 4133 1044 
686 687 696 695 4124 4125 4134 4133 
687 688 697 696 4125 4126 4135 4134 
688 689 698 697 4126 4127 4136 4135 
689 690 699 698 4127 4128 4137 4136 
690 691 700 699 4128 4129 4138 4137 
691 692 701 700 4129 4130 4139 4138 
692 693 702 701 4130 4131 4140 4139 
693 694 703 702 4131 4132 4141 4140 
694 108 107 703 4132 1304 1305 4141 
153 695 704 154 1044 4133 4142 1045 
695 696 705 704 4133 4134 4143 4142 
696 697 706 705 4134 4135 4144 4143 
697 698 707 706 4135 4136 4145 4144 
698 699 708 707 4136 4137 4146 4145 
699 700 709 708 4137 4138 4147 4146 
700 701 710 709 4138 4139 4148 4147 
701 702 711 710 4139 4140 4149 4148 
702 703 712 711 4140 4141 4150 4149 
703 107 106 712 4141 1305 1306 4150 
154 704 713 155 1045 4142 4151 1046 
704 705 714 713 4142 4143 4152 4151 
705 706 715 714 4143 4144 4153 4152 
706 707 716 715 4144 4145 4154 4153 
707 708 717 716 4145 4146 4155 4154 
708 709 718 717 4146 4147 4156 4155 
709 710 719 718 4147 4148 4157 4156 
710 711 720 719 4148 4149 4158 4157 
711 712 721 720 4149 4150 4159 4158 
712 106 105 721 4150 1306 1307 4159 
155 713 722 156 1046 4151 4160 1047 
713 714 723 722 4151 4152 4161 4160 
714 715 724 723 4152 4153 4162 4161 
715 716 725 724 4153 4154 4163 4162 
716 717 726 725 4154 4155 4164 4163 
717 718 727 726 4155 4156 4165 4164 
718 719 728 727 4156 4157 4166 4165 
719 720 729 728 4157 4158 4167 4166 
720 721 730 729 4158 4159 4168 4167 
721 105 104 730 4159 1307 1308 4168 
156 722 731 157 1047 4160 4169 1048 
722 723 732 731 4160 4161 4170 4169 
723 724 733 732 4161 4162 4171 4170 
724 725 734 733 4162 4163 4172 4171 
725 726 735 734 4163 4164 4173 4172 
726 727 736 735 4164 4165 4174 4173 
727 728 737 736 4165 4166 4175 4174 
728 729 738 737 4166 4167 4176 4175 
729 730 739 738 4167 4168 4177 4176 
730 104 103 739 4168 1308 1309 4177 
157 731 740 158 1048 4169 4178 1049 
731 732 741 740 4169 4170 4179 4178 
732 733 742 741 4170 4171 4180 4179 
733 734 743 742 4171 4172 4181 4180 
734 735 744 743 4172 4173 4182 4181 
735 736 745 744 4173 4174 4183 4182 
736 737 746 745 4174 4175 4184 4183 
737 738 747 746 4175 4176 4185 4184 
738 739 748 747 4176 4177 4186 4185 
739 103 102 748 4177 1309 1310 4186 
158 740 749 159 1049 4178 4187 1050 
740 741 750 749 4178 4179 4188 4187 
741 742 751 750 4179 4180 4189 4188 
742 743 752 751 4180 4181 4190 4189 
743 744 753 752 4181 4182 4191 4190 
744 745 754 753 4182 4183 4192 4191 
745 746 755 754 4183 4184 4193 4192 
746 747 756 755 4184 4185 4194 4193 
747 748 757 756 4185 4186 4195 4194 
748 102 101 757 4186 1310 1311 4195 
159 749 758 160 1050 4187 4196 1051 
749 750 759 758 4187 4188 4197 4196 
750 751 760 759 4188 4189 4198 4197 
751 752 761 760 4189 4190 4199 4198 
752 753 762 761 4190 4191 4200 4199 
753 754 763 762 4191 4192 4201 4200 
754 755 764 763 4192 4193 4202 4201 
755 756 765 764 4193 4194 4203 4202 
756 757 766 765 4194 4195 4204 4203 
757 101 100 766 4195 1311 1312 4204 
160 758 767 161 1051 4196 4205 1052 
758 759 768 767 4196 4197 4206 4205 
759 760 769 768 4197 4198 4207 4206 
760 761 770 769 4198 4199 4208 4207 
761 762 771 770 4199 4200 4209 4208 
762 763 772 771 4200 4201 4210 4209 
763 764 773 772 4201 4202 4211 4210 
764 765 774 773 4202 4203 4212 4211 
765 766 775 774 4203 4204 4213 4212 
766 100 99 775 4204 1312 1313 4213 
161 767 776 162 1052 4205 4214 1053 
767 768 777 776 4205 4206 4215 4214 
768 769 778 777 4206 4207 4216 4215 
769 770 779 778 4207 4208 4217 4216 
770 771 780 779 4208 4209 4218 4217 
771 772 781 780 4209 4210 4219 4218 
772 773 782 781 4210 4211 4220 4219 
773 774 783 782 4211 4212 4221 4220 
774 775 784 783 4212 4213 4222 4221 
775 99 98 784 4213 1313 1314 4222 
162 776 785 163 1053 4214 4223 1054 
776 777 786 785 4214 4215 4224 4223 
777 778 787 786 4215 4216 4225 4224 
778 779 788 787 4216 4217 4226 4225 
779 780 789 788 4217 4218 4227 4226 
780 781 790 789 4218 4219 4228 4227 
781 782 791 790 4219 4220 4229 4228 
782 783 792 791 4220 4221 4230 4229 
783 784 793 792 4221 4222 4231 4230 
784 98 97 793 4222 1314 1315 4231 
163 785 126 6 1054 4223 1469 172 
785 786 127 126 4223 4224 1470 1469 
786 787 128 127 4224 4225 1471 1470 
787 788 129 128 4225 4226 1472 1471 
788 789 130 129 4226 4227 1473 1472 
789 790 131 130 4227 4228 1474 1473 
790 791 132 131 4228 4229 1475 1474 
791 792 133 132 4229 4230 1476 1475 
792 793 134 133 4230 4231 1477 1476 
793 97 5 134 4231 1315 182 1477 
191 1324 4232 1640 1 20 1478 226 
1324 1323 4233 4232 20 19 1479 1478 
1323 1322 4234 4233 19 18 1480 1479 
1322 1321 4235 4234 18 17 1481 1480 
1321 1320 4236 4235 17 16 1482 1481 
1320 1319 4237 4236 16 15 1483 1482 
1319 1318 4238 4237 15 14 1484 1483 
1318 1317 4239 4238 14 13 1485 1484 
1317 1316 4240 4239 13 12 1486 1485 
1316 181 1721 4240 12 0 200 1486 
1640 4232 4241 1641 226 1478 1487 225 
4232 4233 4242 4241 1478 1479 1488 1487 
4233 4234 4243 4242 1479 1480 1489 1488 
4234 4235 4244 4243 1480 1481 1490 1489 
4235 4236 4245 4244 1481 1482 1491 1490 
4236 4237 4246 4245 1482 1483 1492 1491 
4237 4238 4247 4246 1483 1484 1493 1492 
4238 4239 4248 4247 1484 1485 1494 1493 
4239 4240 4249 4248 1485 1486 1495 1494 
4240 1721 1722 4249 1486 200 201 1495 
1641 4241 4250 1642 225 1487 1496 224 
4241 4242 4251 4250 1487 1488 1497 1496 
4242 4243 4252 4251 1488 1489 1498 1497 
4243 4244 4253 4252 1489 1490 1499 1498 
4244 4245 4254 4253 1490 1491 1500 1499 
4245 4246 4255 4254 1491 1492 1501 1500 
4246 4247 4256 4255 1492 1493 1502 1501 
4247 4248 4257 4256 1493 1494 1503 1502 
4248 4249 4258 4257 1494 1495 1504 1503 
4249 1722 1723 4258 1495 201 202 1504 
1642 4250 4259 1643 224 1496 1505 223 
4250 4251 4260 4259 1496 1497 1506 1505 
4251 4252 4261 4260 1497 1498 1507 1506 
4252 4253 4262 4261 1498 1499 1508 1507 
4253 4254 4263 4262 1499 1500 1509 1508 
4254 4255 4264 4263 1500 1501 1510 1509 
4255 4256 4265 4264 1501 1502 1511 1510 
4256 4257 4266 4265 1502 1503 1512 1511 
4257 4258 4267 4266 1503 1504 1513 1512 
4258 1723 1724 4267 1504 202 203 1513 
1643 4259 4268 1644 223 1505 1514 222 
4259 4260 4269 4268 1505 1506 1515 1514 
4260 4261 4270 4269 1506 1507 1516 1515 
4261 4262 4271 4270 1507 1508 1517 1516 
4262 4263 4272 4271 1508 1509 1518 1517 
4263 4264 4273 4272 1509 1510 1519 1518 
4264 4265 4274 4273 1510 1511 1520 1519 
4265 4266 4275 4274 1511 1512 1521 1520 
4266 4267 4276 4275 1512 1513 1522 1521 
4267 1724 1725 4276 1513 203 204 1522 
1644 4268 4277 1645 222 1514 1523 221 
4268 4269 4278 4277 1514 1515 1524 1523 
4269 4270 4279 4278 1515 1516 1525 1524 
4270 4271 4280 4279 1516 1517 1526 1525 
4271 4272 4281 4280 1517 1518 1527 1526 
4272 4273 4282 4281 1518 1519 1528 1527 
4273 4274 4283 4282 1519 1520 1529 1528 
4274 4275 4284 4283 1520 1521 1530 1529 
4275 4276 4285 4284 1521 1522 1531 1530 
4276 1725 1726 4285 1522 204 205 1531 
1645 4277 4286 1646 221 1523 1532 220 
4277 4278 4287 4286 1523 1524 1533 1532 
4278 4279 4288 4287 1524 1525 1534 1533 
4279 4280 4289 4288 1525 1526 1535 1534 
4280 4281 4290 4289 1526 1527 1536 1535 
4281 4282 4291 4290 1527 1528 1537 1536 
4282 4283 4292 4291 1528 1529 1538 1537 
4283 4284 4293 4292 1529 1530 1539 1538 
4284 4285 4294 4293 1530 1531 1540 1539 
4285 1726 1727 4294 1531 205 206 1540 
1646 4286 4295 1647 220 1532 1541 219 
4286 4287 4296 4295 1532 1533 1542 1541 
4287 4288 4297 4296 1533 1534 1543 1542 
4288 4289 4298 4297 1534 1535 1544 1543 
4289 4290 4299 4298 1535 1536 1545 1544 
4290 4291 4300 4299 1536 1537 1546 1545 
4291 4292 4301 4300 1537 1538 1547 1546 
4292 4293 4302 4301 1538 1539 1548 1547 
4293 4294 4303 4302 1539 1540 1549 1548 
4294 1727 1728 4303 1540 206 207 1549 
1647 4295 4304 1648 219 1541 1550 218 
4295 4296 4305 4304 1541 1542 1551 1550 
4296 4297 4306 4305 1542 1543 1552 1551 
4297 4298 4307 4306 1543 1544 1553 1552 
4298 4299 4308 4307 1544 1545 1554 1553 
4299 4300 4309 4308 1545 1546 1555 1554 
4300 4301 4310 4309 1546 1547 1556 1555 
4301 4302 4311 4310 1547 1548 1557 1556 
4302 4303 4312 4311 1548 1549 1558 1557 
4303 1728 1729 4312 1549 207 208 1558 
1648 4304 1802 254 218 1550 217 9 
4304 4305 1803 1802 1550 1551 216 217 
4305 4306 1804 1803 1551 1552 215 216 
4306 4307 1805 1804 1552 1553 214 215 
4307 4308 1806 1805 1553 1554 213 214 
4308 4309 1807 1806 1554 1555 212 213 
4309 4310 1808 1807 1555 1556 211 212 
4310 4311 1809 1808 1556 1557 210 211 
4311 4312 1810 1809 1557 1558 209 210 
4312 1729 271 1810 1558 208 8 209 
192 1333 4313 1649 191 1324 4232 1640 
1333 1332 4314 4313 1324 1323 4233 4232 
1332 1331 4315 4314 1323 1322 4234 4233 
1331 1330 4316 4315 1322 1321 4235 4234 
1330 1329 4317 4316 1321 1320 4236 4235 
1329 1328 4318 4317 1320 1319 4237 4236 
1328 1327 4319 4318 1319 1318 4238 4237 
1327 1326 4320 4319 1318 1317 4239 4238 
1326 1325 4321 4320 1317 1316 4240 4239 
1325 180 1730 4321 1316 181 1721 4240 
1649 4313 4322 1650 1640 4232 4241 1641 
4313 4314 4323 4322 4232 4233 4242 4241 
4314 4315 4324 4323 4233 4234 4243 4242 
4315 4316 4325 4324 4234 4235 4244 4243 
4316 4317 4326 4325 4235 4236 4245 4244 
4317 4318 4327 4326 4236 4237 4246 4245 
4318 4319 4328 4327 4237 4238 4247 4246 
4319 4320 4329 4328 4238 4239 4248 4247 
4320 4321 4330 4329 4239 4240 4249 4248 
4321 1730 1731 4330 4240 1721 1722 4249 
1650 4322 4331 1651 1641 4241 4250 1642 
4322 4323 4332 4331 4241 4242 4251 4250 
4323 4324 4333 4332 4242 4243 4252 4251 
4324 4325 4334 4333 4243 4244 4253 4252 
4325 4326 4335 4334 4244 4245 4254 4253 
4326 4327 4336 4335 4245 4246 4255 4254 
4327 4328 4337 4336 4246 4247 4256 4255 
4328 4329 4338 4337 4247 4248 4257 4256 
4329 4330 4339 4338 4248 4249 4258 4257 
4330 1731 1732 4339 4249 1722 1723 4258 
1651 4331 4340 1652 1642 4250 4259 1643 
4331 4332 4341 4340 4250 4251 4260 4259 
4332 4333 4342 4341 4251 4252 4261 4260 
4333 4334 4343 4342 4252 4253 4262 4261 
4334 4335 4344 4343 4253 4254 4263 4262 
4335 4336 4345 4344 4254 4255 4264 4263 
4336 4337 4346 4345 4255 4256 4265 4264 
4337 4338 4347 4346 4256 4257 4266 4265 
4338 4339 4348 4347 4257 4258 4267 4266 
4339 1732 1733 4348 4258 1723 1724 4267 
1652 4340 4349 1653 1643 4259 4268 1644 
4340 4341 4350 4349 4259 4260 4269 4268 
4341 4342 4351 4350 4260 4261 4270 4269 
4342 4343 4352 4351 4261 4262 4271 4270 
4343 4344 4353 4352 4262 4263 4272 4271 
4344 4345 4354 4353 4263 4264 4273 4272 
4345 4346 4355 4354 4264 4265 4274 4273 
4346 4347 4356 4355 4265 4266 4275 4274 
4347 4348 4357 4356 4266 4267 4276 4275 
4348 1733 1734 4357 4267 1724 1725 4276 
1653 4349 4358 1654 1644 4268 4277 1645 
4349 4350 4359 4358 4268 4269 4278 4277 
4350 4351 4360 4359 4269 4270 4279 4278 
4351 4352 4361 4360 4270 4271 4280 4279 
4352 4353 4362 4361 4271 4272 4281 4280 
4353 4354 4363 4362 4272 4273 4282 4281 
4354 4355 4364 4363 4273 4274 4283 4282 
4355 4356 4365 4364 4274 4275 4284 4283 
4356 4357 4366 4365 4275 4276 4285 4284 
4357 1734 1735 4366 4276 1725 1726 4285 
1654 4358 4367 1655 1645 4277 4286 1646 
4358 4359 4368 4367 4277 4278 4287 4286 
4359 4360 4369 4368 4278 4279 4288 4287 
4360 4361 4370 4369 4279 4280 4289 4288 
4361 4362 4371 4370 4280 4281 4290 4289 
4362 4363 4372 4371 4281 4282 4291 4290 
4363 4364 4373 4372 4282 4283 4292 4291 
4364 4365 4374 4373 4283 4284 4293 4292 
4365 4366 4375 4374 4284 4285 4294 4293 
4366 1735 1736 4375 4285 1726 1727 4294 
1655 4367 4376 1656 1646 4286 4295 1647 
4367 4368 4377 4376 4286 4287 4296 4295 
4368 4369 4378 4377 4287 4288 4297 4296 
4369 4370 4379 4378 4288 4289 4298 4297 
4370 4371 4380 4379 4289 4290 4299 4298 
4371 4372 4381 4380 4290 4291 4300 4299 
4372 4373 4382 4381 4291 4292 4301 4300 
4373 4374 4383 4382 4292 4293 4302 4301 
4374 4375 4384 4383 4293 4294 4303 4302 
4375 1736 1737 4384 4294 1727 1728 4303 
1656 4376 4385 1657 1647 4295 4304 1648 
4376 4377 4386 4385 4295 4296 4305 4304 
4377 4378 4387 4386 4296 4297 4306 4305 
4378 4379 4388 4387 4297 4298 4307 4306 
4379 4380 4389 4388 4298 4299 4308 4307 
4380 4381 4390 4389 4299 4300 4309 4308 
4381 4382 4391 4390 4300 4301 4310 4309 
4382 4383 4392 4391 4301 4302 4311 4310 
4383 4384 4393 4392 4302 4303 4312 4311 
4384 1737 1738 4393 4303 1728 1729 4312 
1657 4385 1811 255 1648 4304 1802 254 
4385 4386 1812 1811 4304 4305 1803 1802 
4386 4387 1813 1812 4305 4306 1804 1803 
4387 4388 1814 1813 4306 4307 1805 1804 
4388 4389 1815 1814 4307 4308 1806 1805 
4389 4390 1816 1815 4308 4309 1807 1806 
4390 4391 1817 1816 4309 4310 1808 1807 
4391 4392 1818 1817 4310 4311 1809 1808 
4392 4393 1819 1818 4311 4312 1810 1809 
4393 1738 270 1819 4312 1729 271 1810 
193 1342 4394 1658 192 1333 4313 1649 
1342 1341 4395 4394 1333 1332 4314 4313 
1341 1340 4396 4395 1332 1331 4315 4314 
1340 1339 4397 4396 1331 1330 4316 4315 
1339 1338 4398 4397 1330 1329 4317 4316 
1338 1337 4399 4398 1329 1328 4318 4317 
1337 1336 4400 4399 1328 1327 4319 4318 
1336 1335 4401 4400 1327 1326 4320 4319 
1335 1334 4402 4401 1326 1325 4321 4320 
1334 179 1739 4402 1325 180 1730 4321 
1658 4394 4403 1659 1649 4313 4322 1650 
4394 4395 4404 4403 4313 4314 4323 4322 
4395 4396 4405 4404 4314 4315 4324 4323 
4396 4397 4406 4405 4315 4316 4325 4324 
4397 4398 4407 4406 4316 4317 4326 4325 
4398 4399 4408 4407 4317 4318 4327 4326 
4399 4400 4409 4408 4318 4319 4328 4327 
4400 4401 4410 4409 4319 4320 4329 4328 
4401 4402 4411 4410 4320 4321 4330 4329 
4402 1739 1740 4411 4321 1730 1731 4330 
1659 4403 4412 1660 1650 4322 4331 1651 
4403 4404 4413 4412 4322 4323 4332 4331 
4404 4405 4414 4413 4323 4324 4333 4332 
4405 4406 4415 4414 4324 4325 4334 4333 
4406 4407 4416 4415 4325 4326 4335 4334 
4407 4408 4417 4416 4326 4327 4336 4335 
4408 4409 4418 4417 4327 4328 4337 4336 
4409 4410 4419 4418 4328 4329 4338 4337 
4410 4411 4420 4419 4329 4330 4339 4338 
4411 1740 1741 4420 4330 1731 1732 4339 
1660 4412 4421 1661 1651 4331 4340 1652 
4412 4413 4422 4421 4331 4332 4341 4340 
4413 4414 4423 4422 4332 4333 4342 4341 
4414 4415 4424 4423 4333 4334 4343 4342 
4415 4416 4425 4424 4334 4335 4344 4343 
4416 4417 4426 4425 4335 4336 4345 4344 
4417 4418 4427 4426 4336 4337 4346 4345 
4418 4419 4428 4427 4337 4338 4347 4346 
4419 4420 4429 4428 4338 4339 4348 4347 
4420 1741 1742 4429 4339 1732 1733 4348 
1661 4421 4430 1662 1652 4340 4349 1653 
4421 4422 4431 4430 4340 4341 4350 4349 
4422 4423 4432 4431 4341 4342 4351 4350 
4423 4424 4433 4432 4342 4343 4352 4351 
4424 4425 4434 4433 4343 4344 4353 4352 
4425 4426 4435 4434 4344 4345 4354 4353 
4426 4427 4436 4435 4345 4346 4355 4354 
4427 4428 4437 4436 4346 4347 4356 4355 
4428 4429 4438 4437 4347 4348 4357 4356 
4429 1742 1743 4438 4348 1733 1734 4357 
1662 4430 4439 1663 1653 4349 4358 1654 
4430 4431 4440 4439 4349 4350 4359 4358 
4431 4432 4441 4440 4350 4351 4360 4359 
4432 4433 4442 4441 4351 4352 4361 4360 
4433 4434 4443 4442 4352 4353 4362 4361 
4434 4435 4444 4443 4353 4354 4363 4362 
4435 4436 4445 4444 4354 4355 4364 4363 
4436 4437 4446 4445 4355 4356 4365 4364 
4437 4438 4447 4446 4356 4357 4366 4365 
4438 1743 1744 4447 4357 1734 1735 4366 
1663 4439 4448 1664 1654 4358 4367 1655 
4439 4440 4449 4448 4358 4359 4368 4367 
4440 4441 4450 4449 4359 4360 4369 4368 
4441 4442 4451 4450 4360 4361 4370 4369 
4442 4443 4452 4451 4361 4362 4371 4370 
4443 4444 4453 4452 4362 4363 4372 4371 
4444 4445 4454 4453 4363 4364 4373 4372 
4445 4446 4455 4454 4364 4365 4374 4373 
4446 4447 4456 4455 4365 4366 4375 4374 
4447 1744 1745 4456 4366 1735 1736 4375 
1664 4448 4457 1665 1655 4367 4376 1656 
4448 4449 4458 4457 4367 4368 4377 4376 
4449 4450 4459 4458 4368 4369 4378 4377 
4450 4451 4460 4459 4369 4370 4379 4378 
4451 4452 4461 4460 4370 4371 4380 4379 
4452 4453 4462 4461 4371 4372 4381 4380 
4453 4454 4463 4462 4372 4373 4382 4381 
4454 4455 4464 4463 4373 4374 4383 4382 
4455 4456 4465 4464 4374 4375 4384 4383 
4456 1745 1746 4465 4375 1736 1737 4384 
1665 4457 4466 1666 1656 4376 4385 1657 
4457 4458 4467 4466 4376 4377 4386 4385 
4458 4459 4468 4467 4377 4378 4387 4386 
4459 4460 4469 4468 4378 4379 4388 4387 
4460 4461 4470 4469 4379 4380 4389 4388 
4461 4462 4471 4470 4380 4381 4390 4389 
4462 4463 4472 4471 4381 4382 4391 4390 
4463 4464 4473 4472 4382 4383 4392 4391 
4464 4465 4474 4473 4383 4384 4393 4392 
4465 1746 1747 4474 4384 1737 1738 4393 
1666 4466 1820 256 1657 4385 1811 255 
4466 4467 1821 1820 4385 4386 1812 1811 
4467 4468 1822 1821 4386 4387 1813 1812 
4468 4469 1823 1822 4387 4388 1814 1813 
4469 4470 1824 1823 4388 4389 1815 1814 
4470 4471 1825 1824 4389 4390 1816 1815 
4471 4472 1826 1825 4390 4391 1817 1816 
4472 4473 1827 1826 4391 4392 1818 1817 
4473 4474 1828 1827 4392 4393 1819 1818 
4474 1747 269 1828 4393 1738 270 1819 
194 1351 4475 1667 193 1342 4394 1658 
1351 1350 4476 4475 1342 1341 4395 4394 
1350 1349 4477 4476 1341 1340 4396 4395 
1349 1348 4478 4477 1340 1339 4397 4396 
1348 1347 4479 4478 1339 1338 4398 4397 
1347 1346 4480 4479 1338 1337 4399 4398 
1346 1345 4481 4480 1337 1336 4400 4399 
1345 1344 4482 4481 1336 1335 4401 4400 
1344 1343 4483 4482 1335 1334 4402 4401 
1343 178 1748 4483 1334 179 1739 4402 
1667 4475 4484 1668 1658 4394 4403 1659 
4475 4476 4485 4484 4394 4395 4404 4403 
4476 4477 4486 4485 4395 4396 4405 4404 
4477 4478 4487 4486 4396 4397 4406 4405 
4478 4479 4488 4487 4397 4398 4407 4406 
4479 4480 4489 4488 4398 4399 4408 4407 
4480 4481 4490 4489 4399 4400 4409 4408 
4481 4482 4491 4490 4400 4401 4410 4409 
4482 4483 4492 4491 4401 4402 4411 4410 
4483 1748 1749 4492 4402 1739 1740 4411 
1668 4484 4493 1669 1659 4403 4412 1660 
4484 4485 4494 4493 4403 4404 4413 4412 
4485 4486 4495 4494 4404 4405 4414 4413 
4486 4487 4496 4495 4405 4406 4415 4414 
4487 4488 4497 4496 4406 4407 4416 4415 
4488 4489 4498 4497 4407 4408 4417 4416 
4489 4490 4499 4498 4408 4409 4418 4417 
4490 4491 4500 4499 4409 4410 4419 4418 
4491 4492 4501 4500 4410 4411 4420 4419 
4492 1749 1750 4501 4411 1740 1741 4420 
1669 4493 4502 1670 1660 4412 4421 1661 
4493 4494 4503 4502 4412 4413 4422 4421 
4494 4495 4504 4503 4413 4414 4423 4422 
4495 4496 4505 4504 4414 4415 4424 4423 
4496 4497 4506 4505 4415 4416 4425 4424 
4497 4498 4507 4506 4416 4417 4426 4425 
4498 4499 4508 4507 4417 4418 4427 4426 
4499 4500 4509 4508 4418 4419 4428 4427 
4500 4501 4510 4509 4419 4420 4429 4428 
4501 1750 1751 4510 4420 1741 1742 4429 
1670 4502 4511 1671 1661 4421 4430 1662 
4502 4503 4512 4511 4421 4422 4431 4430 
4503 4504 4513 4512 4422 4423 4432 4431 
4504 4505 4514 4513 4423 4424 4433 4432 
4505 4506 4515 4514 4424 4425 4434 4433 
4506 4507 4516 4515 4425 4426 4435 4434 
4507 4508 4517 4516 4426 4427 4436 4435 
4508 4509 4518 4517 4427 4428 4437 4436 
4509 4510 4519 4518 4428 4429 4438 4437 
4510 1751 1752 4519 4429 1742 1743 4438 
1671 4511 4520 1672 1662 4430 4439 1663 
4511 4512 4521 4520 4430 4431 4440 4439 
4512 4513 4522 4521 4431 4432 4441 4440 
4513 4514 4523 4522 4432 4433 4442 4441 
4514 4515 4524 4523 4433 4434 4443 4442 
4515 4516 4525 4524 4434 4435 4444 4443 
4516 4517 4526 4525 4435 4436 4445 4444 
4517 4518 4527 4526 4436 4437 4446 4445 
4518 4519 4528 4527 4437 4438 4447 4446 
4519 1752 1753 4528 4438 1743 1744 4447 
1672 4520 4529 1673 1663 4439 4448 1664 
4520 4521 4530 4529 4439 4440 4449 4448 
4521 4522 4531 4530 4440 4441 4450 4449 
4522 4523 4532 4531 4441 4442 4451 4450 
4523 4524 4533 4532 4442 4443 4452 4451 
4524 4525 4534 4533 4443 4444 4453 4452 
4525 4526 4535 4534 4444 4445 4454 4453 
4526 4527 4536 4535 4445 4446 4455 4454 
4527 4528 4537 4536 4446 4447 4456 4455 
4528 1753 1754 4537 4447 1744 1745 4456 
1673 4529 4538 1674 1664 4448 4457 1665 
4529 4530 4539 4538 4448 4449 4458 4457 
4530 4531 4540 4539 4449 4450 4459 4458 
4531 4532 4541 4540 4450 4451 4460 4459 
4532 4533 4542 4541 4451 4452 4461 4460 
4533 4534 4543 4542 4452 4453 4462 4461 
4534 4535 4544 4543 4453 4454 4463 4462 
4535 4536 4545 4544 4454 4455 4464 4463 
4536 4537 4546 4545 4455 4456 4465 4464 
4537 1754 1755 4546 4456 1745 1746 4465 
1674 4538 4547 1675 1665 4457 4466 1666 
4538 4539 4548 4547 4457 4458 4467 4466 
4539 4540 4549 4548 4458 4459 4468 4467 
4540 4541 4550 4549 4459 4460 4469 4468 
4541 4542 4551 4550 4460 4461 4470 4469 
4542 4543 4552 4551 4461 4462 4471 4470 
4543 4544 4553 4552 4462 4463 4472 4471 
4544 4545 4554 4553 4463 4464 4473 4472 
4545 4546 4555 4554 4464 4465 4474 4473 
4546 1755 1756 4555 4465 1746 1747 4474 
1675 4547 1829 257 1666 4466 1820 256 
4547 4548 1830 1829 4466 4467 1821 1820 
4548 4549 1831 1830 4467 4468 1822 1821 
4549 4550 1832 1831 4468 4469 1823 1822 
4550 4551 1833 1832 4469 4470 1824 1823 
4551 4552 1834 1833 4470 4471 1825 1824 
4552 4553 1835 1834 4471 4472 1826 1825 
4553 4554 1836 1835 4472 4473 1827 1826 
4554 4555 1837 1836 4473 4474 1828 1827 
4555 1756 268 1837 4474 1747 269 1828 
195 1360 4556 1676 194 1351 4475 1667 
1360 1359 4557 4556 1351 1350 4476 4475 
1359 1358 4558 4557 1350 1349 4477 4476 
1358 1357 4559 4558 1349 1348 4478 4477 
1357 1356 4560 4559 1348 1347 4479 4478 
1356 1355 4561 4560 1347 1346 4480 4479 
1355 1354 4562 4561 1346 1345 4481 4480 
1354 1353 4563 4562 1345 1344 4482 4481 
1353 1352 4564 4563 1344 1343 4483 4482 
1352 177 1757 4564 1343 178 1748 4483 
1676 4556 4565 1677 1667 4475 4484 1668 
4556 4557 4566 4565 4475 4476 4485 4484 
4557 4558 4567 4566 4476 4477 4486 4485 
4558 4559 4568 4567 4477 4478 4487 4486 
4559 4560 4569 4568 4478 4479 4488 4487 
4560 4561 4570 4569 4479 4480 4489 4488 
4561 4562 4571 4570 4480 4481 4490 4489 
4562 4563 4572 4571 4481 4482 4491 4490 
4563 4564 4573 4572 4482 4483 4492 4491 
4564 1757 1758 4573 4483 1748 1749 4492 
1677 4565 4574 1678 1668 4484 4493 1669 
4565 4566 4575 4574 4484 4485 4494 4493 
4566 4567 4576 4575 4485 4486 4495 4494 
4567 4568 4577 4576 4486 4487 4496 4495 
4568 4569 4578 4577 4487 4488 4497 4496 
4569 4570 4579 4578 4488 4489 4498 4497 
4570 4571 4580 4579 4489 4490 4499 4498 
4571 4572 4581 4580 4490 4491 4500 4499 
4572 4573 4582 4581 4491 4492 4501 4500 
4573 1758 1759 4582 4492 1749 1750 4501 
1678 4574 4583 1679 1669 4493 4502 1670 
4574 4575 4584 4583 4493 4494 4503 4502 
4575 4576 4585 4584 4494 4495 4504 4503 
4576 4577 4586 4585 4495 4496 4505 4504 
4577 4578 4587 4586 4496 4497 4506 4505 
4578 4579 4588 4587 4497 4498 4507 4506 
4579 4580 4589 4588 4498 4499 4508 4507 
4580 4581 4590 4589 4499 4500 4509 4508 
4581 4582 4591 4590 4500 4501 4510 4509 
4582 1759 1760 4591 4501 1750 1751 4510 
1679 4583 4592 1680 1670 4502 4511 1671 
4583 4584 4593 4592 4502 4503 4512 4511 
4584 4585 4594 4593 4503 4504 4513 4512 
4585 4586 4595 4594 4504 4505 4514 4513 
4586 4587 4596 4595 4505 4506 4515 4514 
4587 4588 4597 4596 4506 4507 4516 4515 
4588 4589 4598 4597 4507 4508 4517 4516 
4589 4590 4599 4598 4508 4509 4518 4517 
4590 4591 4600 4599 4509 4510 4519 4518 
4591 1760 1761 4600 4510 1751 1752 4519 
1680 4592 4601 1681 1671 4511 4520 1672 
4592 4593 4602 4601 4511 4512 4521 4520 
4593 4594 4603 4602 4512 4513 4522 4521 
4594 4595 4604 4603 4513 4514 4523 4522 
4595 4596 4605 4604 4514 4515 4524 4523 
4596 4597 4606 4605 4515 4516 4525 4524 
4597 4598 4607 4606 4516 4517 4526 4525 
4598 4599 4608 4607 4517 4518 4527 4526 
4599 4600 4609 4608 4518 4519 4528 4527 
4600 1761 1762 4609 4519 1752 1753 4528 
1681 4601 4610 1682 1672 4520 4529 1673 
4601 4602 4611 4610 4520 4521 4530 4529 
4602 4603 4612 4611 4521 4522 4531 4530 
4603 4604 4613 4612 4522 4523 4532 4531 
4604 4605 4614 4613 4523 4524 4533 4532 
4605 4606 4615 4614 4524 4525 4534 4533 
4606 4607 4616 4615 4525 4526 4535 4534 
4607 4608 4617 4616 4526 4527 4536 4535 
4608 4609 4618 4617 4527 4528 4537 4536 
4609 1762 1763 4618 4528 1753 1754 4537 
1682 4610 4619 1683 1673 4529 4538 1674 
4610 4611 4620 4619 4529 4530 4539 4538 
4611 4612 4621 4620 4530 4531 4540 4539 
4612 4613 4622 4621 4531 4532 4541 4540 
4613 4614 4623 4622 4532 4533 4542 4541 
4614 4615 4624 4623 4533 4534 4543 4542 
4615 4616 4625 4624 4534 4535 4544 4543 
4616 4617 4626 4625 4535 4536 4545 4544 
4617 4618 4627 4626 4536 4537 4546 4545 
4618 1763 1764 4627 4537 1754 1755 4546 
1683 4619 4628 1684 1674 4538 4547 1675 
4619 4620 4629 4628 4538 4539 4548 4547 
4620 4621 4630 4629 4539 4540 4549 4548 
4621 4622 4631 4630 4540 4541 4550 4549 
4622 4623 4632 4631 4541 4542 4551 4550 
4623 4624 4633 4632 4542 4543 4552 4551 
4624 4625 4634 4633 4543 4544 4553 4552 
4625 4626 4635 4634 4544 4545 4554 4553 
4626 4627 4636 4635 4545 4546 4555 4554 
4627 1764 1765 4636 4546 1755 1756 4555 
1684 4628 1838 258 1675 4547 1829 257 
4628 4629 1839 1838 4547 4548 1830 1829 
4629 4630 1840 1839 4548 4549 1831 1830 
4630 4631 1841 1840 4549 4550 1832 1831 
4631 4632 1842 1841 4550 4551 1833 1832 
4632 4633 1843 1842 4551 4552 1834 1833 
4633 4634 1844 1843 4552 4553 1835 1834 
4634 4635 1845 1844 4553 4554 1836 1835 
4635 4636 1846 1845 4554 4555 1837 1836 
4636 1765 267 1846 4555 1756 268 1837 
196 1369 4637 1685 195 1360 4556 1676 
1369 1368 4638 4637 1360 1359 4557 4556 
1368 1367 4639 4638 1359 1358 4558 4557 
1367 1366 4640 4639 1358 1357 4559 4558 
1366 1365 4641 4640 1357 1356 4560 4559 
1365 1364 4642 4641 1356 1355 4561 4560 
1364 1363 4643 4642 1355 1354 4562 4561 
1363 1362 4644 4643 1354 1353 4563 4562 
1362 1361 4645 4644 1353 1352 4564 4563 
1361 176 1766 4645 1352 177 1757 4564 
1685 4637 4646 1686 1676 4556 4565 1677 
4637 4638 4647 4646 4556 4557 4566 4565 
4638 4639 4648 4647 4557 4558 4567 4566 
4639 4640 4649 4648 4558 4559 4568 4567 
4640 4641 4650 4649 4559 4560 4569 4568 
4641 4642 4651 4650 4560 4561 4570 4569 
4642 4643 4652 4651 4561 4562 4571 4570 
4643 4644 4653 4652 4562 4563 4572 4571 
4644 4645 4654 4653 4563 4564 4573 4572 
4645 1766 1767 4654 4564 1757 1758 4573 
1686 4646 4655 1687 1677 4565 4574 1678 
4646 4647 4656 4655 4565 4566 4575 4574 
4647 4648 4657 4656 4566 4567 4576 4575 
4648 4649 4658 4657 4567 4568 4577 4576 
4649 4650 4659 4658 4568 4569 4578 4577 
4650 4651 4660 4659 4569 4570 4579 4578 
4651 4652 4661 4660 4570 4571 4580 4579 
4652 4653 4662 4661 4571 4572 4581 4580 
4653 4654 4663 4662 4572 4573 4582 4581 
4654 1767 1768 4663 4573 1758 1759 4582 
1687 4655 4664 1688 1678 4574 4583 1679 
4655 4656 4665 4664 4574 4575 4584 4583 
4656 4657 4666 4665 4575 4576 4585 4584 
4657 4658 4667 4666 4576 4577 4586 4585 
4658 4659 4668 4667 4577 4578 4587 4586 
4659 4660 4669 4668 4578 4579 4588 4587 
4660 4661 4670 4669 4579 4580 4589 4588 
4661 4662 4671 4670 4580 4581 4590 4589 
4662 4663 4672 4671 4581 4582 4591 4590 
4663 1768 1769 4672 4582 1759 1760 4591 
1688 4664 4673 1689 1679 4583 4592 1680 
4664 4665 4674 4673 4583 4584 4593 4592 
4665 4666 4675 4674 4584 4585 4594 4593 
4666 4667 4676 4675 4585 4586 4595 4594 
4667 4668 4677 4676 4586 4587 4596 4595 
4668 4669 4678 4677 4587 4588 4597 4596 
4669 4670 4679 4678 4588 4589 4598 4597 
4670 4671 4680 4679 4589 4590 4599 4598 
4671 4672 4681 4680 4590 4591 4600 4599 
4672 1769 1770 4681 4591 1760 1761 4600 
1689 4673 4682 1690 1680 4592 4601 1681 
4673 4674 4683 4682 4592 4593 4602 4601 
4674 4675 4684 4683 4593 4594 4603 4602 
4675 4676 4685 4684 4594 4595 4604 4603 
4676 4677 4686 4685 4595 4596 4605 4604 
4677 4678 4687 4686 4596 4597 4606 4605 
4678 4679 4688 4687 4597 4598 4607 4606 
4679 4680 4689 4688 4598 4599 4608 4607 
4680 4681 4690 4689 4599 4600 4609 4608 
4681 1770 1771 4690 4600 1761 1762 4609 
1690 4682 4691 1691 1681 4601 4610 1682 
4682 4683 4692 4691 4601 4602 4611 4610 
4683 4684 4693 4692 4602 4603 4612 4611 
4684 4685 4694 4693 4603 4604 4613 4612 
4685 4686 4695 4694 4604 4605 4614 4613 
4686 4687 4696 4695 4605 4606 4615 4614 
4687 4688 4697 4696 4606 4607 4616 4615 
4688 4689 4698 4697 4607 4608 4617 4616 
4689 4690 4699 4698 4608 4609 4618 4617 
4690 1771 1772 4699 4609 1762 1763 4618 
1691 4691 4700 1692 1682 4610 4619 1683 
4691 4692 4701 4700 4610 4611 4620 4619 
4692 4693 4702 4701 4611 4612 4621 4620 
4693 4694 4703 4702 4612 4613 4622 4621 
4694 4695 4704 4703 4613 4614 4623 4622 
4695 4696 4705 4704 4614 4615 4624 4623 
4696 4697 4706 4705 4615 4616 4625 4624 
4697 4698 4707 4706 4616 4617 4626 4625 
4698 4699 4708 4707 4617 4618 4627 4626 
4699 1772 1773 4708 4618 1763 1764 4627 
1692 4700 4709 1693 1683 4619 4628 1684 
4700 4701 4710 4709 4619 4620 4629 4628 
4701 4702 4711 4710 4620 4621 4630 4629 
4702 4703 4712 4711 4621 4622 4631 4630 
4703 4704 4713 4712 4622 4623 4632 4631 
4704 4705 4714 4713 4623 4624 4633 4632 
4705 4706 4715 4714 4624 4625 4634 4633 
4706 4707 4716 4715 4625 4626 4635 4634 
4707 4708 4717 4716 4626 4627 4636 4635 
4708 1773 1774 4717 4627 1764 1765 4636 
1693 4709 1847 259 1684 4628 1838 258 
4709 4710 1848 1847 4628 4629 1839 1838 
4710 4711 1849 1848 4629 4630 1840 1839 
4711 4712 1850 1849 4630 4631 1841 1840 
4712 4713 1851 1850 4631 4632 1842 1841 
4713 4714 1852 1851 4632 4633 1843 1842 
4714 4715 1853 1852 4633 4634 1844 1843 
4715 4716 1854 1853 4634 4635 1845 1844 
4716 4717 1855 1854 4635 4636 1846 1845 
4717 1774 266 1855 4636 1765 267 1846 
197 1378 4718 1694 196 1369 4637 1685 
1378 1377 4719 4718 1369 1368 4638 4637 
1377 1376 4720 4719 1368 1367 4639 4638 
1376 1375 4721 4720 1367 1366 4640 4639 
1375 1374 4722 4721 1366 1365 4641 4640 
1374 1373 4723 4722 1365 1364 4642 4641 
1373 1372 4724 4723 1364 1363 4643 4642 
1372 1371 4725 4724 1363 1362 4644 4643 
1371 1370 4726 4725 1362 1361 4645 4644 
1370 175 1775 4726 1361 176 1766 4645 
1694 4718 4727 1695 1685 4637 4646 1686 
4718 4719 4728 4727 4637 4638 4647 4646 
4719 4720 4729 4728 4638 4639 4648 4647 
4720 4721 4730 4729 4639 4640 4649 4648 
4721 4722 4731 4730 4640 4641 4650 4649 
4722 4723 4732 4731 4641 4642 4651 4650 
4723 4724 4733 4732 4642 4643 4652 4651 
4724 4725 4734 4733 4643 4644 4653 4652 
4725 4726 4735 4734 4644 4645 4654 4653 
4726 1775 1776 4735 4645 1766 1767 4654 
1695 4727 4736 1696 1686 4646 4655 1687 
4727 4728 4737 4736 4646 4647 4656 4655 
4728 4729 4738 4737 4647 4648 4657 4656 
4729 4730 4739 4738 4648 4649 4658 4657 
4730 4731 4740 4739 4649 4650 4659 4658 
4731 4732 4741 4740 4650 4651 4660 4659 
4732 4733 4742 4741 4651 4652 4661 4660 
4733 4734 4743 4742 4652 4653 4662 4661 
4734 4735 4744 4743 4653 4654 4663 4662 
4735 1776 1777 4744 4654 1767 1768 4663 
1696 4736 4745 1697 1687 4655 4664 1688 
4736 4737 4746 4745 4655 4656 4665 4664 
4737 4738 4747 4746 4656 4657 4666 4665 
4738 4739 4748 4747 4657 4658 4667 4666 
4739 4740 4749 4748 4658 4659 4668 4667 
4740 4741 4750 4749 4659 4660 4669 4668 
4741 4742 4751 4750 4660 4661 4670 4669 
4742 4743 4752 4751 4661 4662 4671 4670 
4743 4744 4753 4752 4662 4663 4672 4671 
4744 1777 1778 4753 4663 1768 1769 4672 
1697 4745 4754 1698 1688 4664 4673 1689 
4745 4746 4755 4754 4664 4665 4674 4673 
4746 4747 4756 4755 4665 4666 4675 4674 
4747 4748 4757 4756 4666 4667 4676 4675 
4748 4749 4758 4757 4667 4668 4677 4676 
4749 4750 4759 4758 4668 4669 4678 4677 
4750 4751 4760 4759 4669 4670 4679 4678 
4751 4752 4761 4760 4670 4671 4680 4679 
4752 4753 4762 4761 4671 4672 4681 4680 
4753 1778 1779 4762 4672 1769 1770 4681 
1698 4754 4763 1699 1689 4673 4682 1690 
4754 4755 4764 4763 4673 4674 4683 4682 
4755 4756 4765 4764 4674 4675 4684 4683 
4756 4757 4766 4765 4675 4676 4685 4684 
4757 4758 4767 4766 4676 4677 4686 4685 
4758 4759 4768 4767 4677 4678 4687 4686 
4759 4760 4769 4768 4678 4679 4688 4687 
4760 4761 4770 4769 4679 4680 4689 4688 
4761 4762 4771 4770 4680 4681 4690 4689 
4762 1779 1780 4771 4681 1770 1771 4690 
1699 4763 4772 1700 1690 4682 4691 1691 
4763 4764 4773 4772 4682 4683 4692 4691 
4764 4765 4774 4773 4683 4684 4693 4692 
4765 4766 4775 4774 4684 4685 4694 4693 
4766 4767 4776 4775 4685 4686 4695 4694 
4767 4768 4777 4776 4686 4687 4696 4695 
4768 4769 4778 4777 4687 4688 4697 4696 
4769 4770 4779 4778 4688 4689 4698 4697 
4770 4771 4780 4779 4689 4690 4699 4698 
4771 1780 1781 4780 4690 1771 1772 4699 
1700 4772 4781 1701 1691 4691 4700 1692 
4772 4773 4782 4781 4691 4692 4701 4700 
4773 4774 4783 4782 4692 4693 4702 4701 
4774 4775 4784 4783 4693 4694 4703 4702 
4775 4776 4785 4784 4694 4695 4704 4703 
4776 4777 4786 4785 4695 4696 4705 4704 
4777 4778 4787 4786 4696 4697 4706 4705 
4778 4779 4788 4787 4697 4698 4707 4706 
4779 4780 4789 4788 4698 4699 4708 4707 
4780 1781 1782 4789 4699 1772 1773 4708 
1701 4781 4790 1702 1692 4700 4709 1693 
4781 4782 4791 4790 4700 4701 4710 4709 
4782 4783 4792 4791 4701 4702 4711 4710 
4783 4784 4793 4792 4702 4703 4712 4711 
4784 4785 4794 4793 4703 4704 4713 4712 
4785 4786 4795 4794 4704 4705 4714 4713 
4786 4787 4796 4795 4705 4706 4715 4714 
4787 4788 4797 4796 4706 4707 4716 4715 
4788 4789 4798 4797 4707 4708 4717 4716 
4789 1782 1783 4798 4708 1773 1774 4717 
1702 4790 1856 260 1693 4709 1847 259 
4790 4791 1857 1856 4709 4710 1848 1847 
4791 4792 1858 1857 4710 4711 1849 1848 
4792 4793 1859 1858 4711 4712 1850 1849 
4793 4794 1860 1859 4712 4713 1851 1850 
4794 4795 1861 1860 4713 4714 1852 1851 
4795 4796 1862 1861 4714 4715 1853 1852 
4796 4797 1863 1862 4715 4716 1854 1853 
4797 4798 1864 1863 4716 4717 1855 1854 
4798 1783 265 1864 4717 1774 266 1855 
198 1387 4799 1703 197 1378 4718 1694 
1387 1386 4800 4799 1378 1377 4719 4718 
1386 1385 4801 4800 1377 1376 4720 4719 
1385 1384 4802 4801 1376 1375 4721 4720 
1384 1383 4803 4802 1375 1374 4722 4721 
1383 1382 4804 4803 1374 1373 4723 4722 
1382 1381 4805 4804 1373 1372 4724 4723 
1381 1380 4806 4805 1372 1371 4725 4724 
1380 1379 4807 4806 1371 1370 4726 4725 
1379 174 1784 4807 1370 175 1775 4726 
1703 4799 4808 1704 1694 4718 4727 1695 
4799 4800 4809 4808 4718 4719 4728 4727 
4800 4801 4810 4809 4719 4720 4729 4728 
4801 4802 4811 4810 4720 4721 4730 4729 
4802 4803 4812 4811 4721 4722 4731 4730 
4803 4804 4813 4812 4722 4723 4732 4731 
4804 4805 4814 4813 4723 4724 4733 4732 
4805 4806 4815 4814 4724 4725 4734 4733 
4806 4807 4816 4815 4725 4726 4735 4734 
4807 1784 1785 4816 4726 1775 1776 4735 
1704 4808 4817 1705 1695 4727 4736 1696 
4808 4809 4818 4817 4727 4728 4737 4736 
4809 4810 4819 4818 4728 4729 4738 4737 
4810 4811 4820 4819 4729 4730 4739 4738 
4811 4812 4821 4820 4730 4731 4740 4739 
4812 4813 4822 4821 4731 4732 4741 4740 
4813 4814 4823 4822 4732 4733 4742 4741 
4814 4815 4824 4823 4733 4734 4743 4742 
4815 4816 4825 4824 4734 4735 4744 4743 
4816 1785 1786 4825 4735 1776 1777 4744 
1705 4817 4826 1706 1696 4736 4745 1697 
4817 4818 4827 4826 4736 4737 4746 4745 
4818 4819 4828 4827 4737 4738 4747 4746 
4819 4820 4829 4828 4738 4739 4748 4747 
4820 4821 4830 4829 4739 4740 4749 4748 
4821 4822 4831 4830 4740 4741 4750 4749 
4822 4823 4832 4831 4741 4742 4751 4750 
4823 4824 4833 4832 4742 4743 4752 4751 
4824 4825 4834 4833 4743 4744 4753 4752 
4825 1786 1787 4834 4744 1777 1778 4753 
1706 4826 4835 1707 1697 4745 4754 1698 
4826 4827 4836 4835 4745 4746 4755 4754 
4827 4828 4837 4836 4746 4747 4756 4755 
4828 4829 4838 4837 4747 4748 4757 4756 
4829 4830 4839 4838 4748 4749 4758 4757 
4830 4831 4840 4839 4749 4750 4759 4758 
4831 4832 4841 4840 4750 4751 4760 4759 
4832 4833 4842 4841 4751 4752 4761 4760 
4833 4834 4843 4842 4752 4753 4762 4761 
4834 1787 1788 4843 4753 1778 1779 4762 
1707 4835 4844 1708 1698 4754 4763 1699 
4835 4836 4845 4844 4754 4755 4764 4763 
4836 4837 4846 4845 4755 4756 4765 4764 
4837 4838 4847 4846 4756 4757 4766 4765 
4838 4839 4848 4847 4757 4758 4767 4766 
4839 4840 4849 4848 4758 4759 4768 4767 
4840 4841 4850 4849 4759 4760 4769 4768 
4841 4842 4851 4850 4760 4761 4770 4769 
4842 4843 4852 4851 4761 4762 4771 4770 
4843 1788 1789 4852 4762 1779 1780 4771 
1708 4844 4853 1709 1699 4763 4772 1700 
4844 4845 4854 4853 4763 4764 4773 4772 
4845 4846 4855 4854 4764 4765 4774 4773 
4846 4847 4856 4855 4765 4766 4775 4774 
4847 4848 4857 4856 4766 4767 4776 4775 
4848 4849 4858 4857 4767 4768 4777 4776 
4849 4850 4859 4858 4768 4769 4778 4777 
4850 4851 4860 4859 4769 4770 4779 4778 
4851 4852 4861 4860 4770 4771 4780 4779 
4852 1789 1790 4861 4771 1780 1781 4780 
1709 4853 4862 1710 1700 4772 4781 1701 
4853 4854 4863 4862 4772 4773 4782 4781 
4854 4855 4864 4863 4773 4774 4783 4782 
4855 4856 4865 4864 4774 4775 4784 4783 
4856 4857 4866 4865 4775 4776 4785 4784 
4857 4858 4867 4866 4776 4777 4786 4785 
4858 4859 4868 4867 4777 4778 4787 4786 
4859 4860 4869 4868 4778 4779 4788 4787 
4860 4861 4870 4869 4779 4780 4789 4788 
4861 1790 1791 4870 4780 1781 1782 4789 
1710 4862 4871 1711 1701 4781 4790 1702 
4862 4863 4872 4871 4781 4782 4791 4790 
4863 4864 4873 4872 4782 4783 4792 4791 
4864 4865 4874 4873 4783 4784 4793 4792 
4865 4866 4875 4874 4784 4785 4794 4793 
4866 4867 4876 4875 4785 4786 4795 4794 
4867 4868 4877 4876 4786 4787 4796 4795 
4868 4869 4878 4877 4787 4788 4797 4796 
4869 4870 4879 4878 4788 4789 4798 4797 
4870 1791 1792 4879 4789 1782 1783 4798 
1711 4871 1865 261 1702 4790 1856 260 
4871 4872 1866 1865 4790 4791 1857 1856 
4872 4873 1867 1866 4791 4792 1858 1857 
4873 4874 1868 1867 4792 4793 1859 1858 
4874 4875 1869 1868 4793 4794 1860 1859 
4875 4876 1870 1869 4794 4795 1861 1860 
4876 4877 1871 1870 4795 4796 1862 1861 
4877 4878 1872 1871 4796 4797 1863 1862 
4878 4879 1873 1872 4797 4798 1864 1863 
4879 1792 264 1873 4798 1783 265 1864 
199 1396 4880 1712 198 1387 4799 1703 
1396 1395 4881 4880 1387 1386 4800 4799 
1395 1394 4882 4881 1386 1385 4801 4800 
1394 1393 4883 4882 1385 1384 4802 4801 
1393 1392 4884 4883 1384 1383 4803 4802 
1392 1391 4885 4884 1383 1382 4804 4803 
1391 1390 4886 4885 1382 1381 4805 4804 
1390 1389 4887 4886 1381 1380 4806 4805 
1389 1388 4888 4887 1380 1379 4807 4806 
1388 173 1793 4888 1379 174 1784 4807 
1712 4880 4889 1713 1703 4799 4808 1704 
4880 4881 4890 4889 4799 4800 4809 4808 
4881 4882 4891 4890 4800 4801 4810 4809 
4882 4883 4892 4891 4801 4802 4811 4810 
4883 4884 4893 4892 4802 4803 4812 4811 
4884 4885 4894 4893 4803 4804 4813 4812 
4885 4886 4895 4894 4804 4805 4814 4813 
4886 4887 4896 4895 4805 4806 4815 4814 
4887 4888 4897 4896 4806 4807 4816 4815 
4888 1793 1794 4897 4807 1784 1785 4816 
1713 4889 4898 1714 1704 4808 4817 1705 
4889 4890 4899 4898 4808 4809 4818 4817 
4890 4891 4900 4899 4809 4810 4819 4818 
4891 4892 4901 4900 4810 4811 4820 4819 
4892 4893 4902 4901 4811 4812 4821 4820 
4893 4894 4903 4902 4812 4813 4822 4821 
4894 4895 4904 4903 4813 4814 4823 4822 
4895 4896 4905 4904 4814 4815 4824 4823 
4896 4897 4906 4905 4815 4816 4825 4824 
4897 1794 1795 4906 4816 1785 1786 4825 
1714 4898 4907 1715 1705 4817 4826 1706 
4898 4899 4908 4907 4817 4818 4827 4826 
4899 4900 4909 4908 4818 4819 4828 4827 
4900 4901 4910 4909 4819 4820 4829 4828 
4901 4902 4911 4910 4820 4821 4830 4829 
4902 4903 4912 4911 4821 4822 4831 4830 
4903 4904 4913 4912 4822 4823 4832 4831 
4904 4905 4914 4913 4823 4824 4833 4832 
4905 4906 4915 4914 4824 4825 4834 4833 
4906 1795 1796 4915 4825 1786 1787 4834 
1715 4907 4916 1716 1706 4826 4835 1707 
4907 4908 4917 4916 4826 4827 4836 4835 
4908 4909 4918 4917 4827 4828 4837 4836 
4909 4910 4919 4918 4828 4829 4838 4837 
4910 4911 4920 4919 4829 4830 4839 4838 
4911 4912 4921 4920 4830 4831 4840 4839 
4912 4913 4922 4921 4831 4832 4841 4840 
4913 4914 4923 4922 4832 4833 4842 4841 
4914 4915 4924 4923 4833 4834 4843 4842 
4915 1796 1797 4924 4834 1787 1788 4843 
1716 4916 4925 1717 1707 4835 4844 1708 
4916 4917 4926 4925 4835 4836 4845 4844 
4917 4918 4927 4926 4836 4837 4846 4845 
4918 4919 4928 4927 4837 4838 4847 4846 
4919 4920 4929 4928 4838 4839 4848 4847 
4920 4921 4930 4929 4839 4840 4849 4848 
4921 4922 4931 4930 4840 4841 4850 4849 
4922 4923 4932 4931 4841 4842 4851 4850 
4923 4924 4933 4932 4842 4843 4852 4851 
4924 1797 1798 4933 4843 1788 1789 4852 
1717 4925 4934 1718 1708 4844 4853 1709 
4925 4926 4935 4934 4844 4845 4854 4853 
4926 4927 4936 4935 4845 4846 4855 4854 
4927 4928 4937 4936 4846 4847 4856 4855 
4928 4929 4938 4937 4847 4848 4857 4856 
4929 4930 4939 4938 4848 4849 4858 4857 
4930 4931 4940 4939 4849 4850 4859 4858 
4931 4932 4941 4940 4850 4851 4860 4859 
4932 4933 4942 4941 4851 4852 4861 4860 
4933 1798 1799 4942 4852 1789 1790 4861 
1718 4934 4943 1719 1709 4853 4862 1710 
4934 4935 4944 4943 4853 4854 4863 4862 
4935 4936 4945 4944 4854 4855 4864 4863 
4936 4937 4946 4945 4855 4856 4865 4864 
4937 4938 4947 4946 4856 4857 4866 4865 
4938 4939 4948 4947 4857 4858 4867 4866 
4939 4940 4949 4948 4858 4859 4868 4867 
4940 4941 4950 4949 4859 4860 4869 4868 
4941 4942 4951 4950 4860 4861 4870 4869 
4942 1799 1800 4951 4861 1790 1791 4870 
1719 4943 4952 1720 1710 4862 4871 1711 
4943 4944 4953 4952 4862 4863 4872 4871 
4944 4945 4954 4953 4863 4864 4873 4872 
4945 4946 4955 4954 4864 4865 4874 4873 
4946 4947 4956 4955 4865 4866 4875 4874 
4947 4948 4957 4956 4866 4867 4876 4875 
4948 4949 4958 4957 4867 4868 4877 4876 
4949 4950 4959 4958 4868 4869 4878 4877 
4950 4951 4960 4959 4869 4870 4879 4878 
4951 1800 1801 4960 4870 1791 1792 4879 
1720 4952 1874 262 1711 4871 1865 261 
4952 4953 1875 1874 4871 4872 1866 1865 
4953 4954 1876 1875 4872 4873 1867 1866 
4954 4955 1877 1876 4873 4874 1868 1867 
4955 4956 1878 1877 4874 4875 1869 1868 
4956 4957 1879 1878 4875 4876 1870 1869 
4957 4958 1880 1879 4876 4877 1871 1870 
4958 4959 1881 1880 4877 4878 1872 1871 
4959 4960 1882 1881 4878 4879 1873 1872 
4960 1801 263 1882 4879 1792 264 1873 
4 88 1559 245 199 1396 4880 1712 
88 89 1560 1559 1396 1395 4881 4880 
89 90 1561 1560 1395 1394 4882 4881 
90 91 1562 1561 1394 1393 4883 4882 
91 92 1563 1562 1393 1392 4884 4883 
92 93 1564 1563 1392 1391 4885 4884 
93 94 1565 1564 1391 1390 4886 4885 
94 95 1566 1565 1390 1389 4887 4886 
95 96 1567 1566 1389 1388 4888 4887 
96 7 235 1567 1388 173 1793 4888 
245 1559 1568 246 1712 4880 4889 1713 
1559 1560 1569 1568 4880 4881 4890 4889 
1560 1561 1570 1569 4881 4882 4891 4890 
1561 1562 1571 1570 4882 4883 4892 4891 
1562 1563 1572 1571 4883 4884 4893 4892 
1563 1564 1573 1572 4884 4885 4894 4893 
1564 1565 1574 1573 4885 4886 4895 4894 
1565 1566 1575 1574 4886 4887 4896 4895 
1566 1567 1576 1575 4887 4888 4897 4896 
1567 235 234 1576 4888 1793 1794 4897 
246 1568 1577 247 1713 4889 4898 1714 
1568 1569 1578 1577 4889 4890 4899 4898 
1569 1570 1579 1578 4890 4891 4900 4899 
1570 1571 1580 1579 4891 4892 4901 4900 
1571 1572 1581 1580 4892 4893 4902 4901 
1572 1573 1582 1581 4893 4894 4903 4902 
1573 1574 1583 1582 4894 4895 4904 4903 
1574 1575 1584 1583 4895 4896 4905 4904 
1575 1576 1585 1584 4896 4897 4906 4905 
1576 234 233 1585 4897 1794 1795 4906 
247 1577 1586 248 1714 4898 4907 1715 
1577 1578 1587 1586 4898 4899 4908 4907 
1578 1579 1588 1587 4899 4900 4909 4908 
1579 1580 1589 1588 4900 4901 4910 4909 
1580 1581 1590 1589 4901 4902 4911 4910 
1581 1582 1591 1590 4902 4903 4912 4911 
1582 1583 1592 1591 4903 4904 4913 4912 
1583 1584 1593 1592 4904 4905 4914 4913 
1584 1585 1594 1593 4905 4906 4915 4914 
1585 233 232 1594 4906 1795 1796 4915 
248 1586 1595 249 1715 4907 4916 1716 
1586 1587 1596 1595 4907 4908 4917 4916 
1587 1588 1597 1596 4908 4909 4918 4917 
1588 1589 1598 1597 4909 4910 4919 4918 
1589 1590 1599 1598 4910 4911 4920 4919 
1590 1591 1600 1599 4911 4912 4921 4920 
1591 1592 1601 1600 4912 4913 4922 4921 
1592 1593 1602 1601 4913 4914 4923 4922 
1593 1594 1603 1602 4914 4915 4924 4923 
1594 232 231 1603 4915 1796 1797 4924 
249 1595 1604 250 1716 4916 4925 1717 
1595 1596 1605 1604 4916 4917 4926 4925 
1596 1597 1606 1605 4917 4918 4927 4926 
1597 1598 1607 1606 4918 4919 4928 4927 
1598 1599 1608 1607 4919 4920 4929 4928 
1599 1600 1609 1608 4920 4921 4930 4929 
1600 1601 1610 1609 4921 4922 4931 4930 
1601 1602 1611 1610 4922 4923 4932 4931 
1602 1603 1612 1611 4923 4924 4933 4932 
1603 231 230 1612 4924 1797 1798 4933 
250 1604 1613 251 1717 4925 4934 1718 
1604 1605 1614 1613 4925 4926 4935 4934 
1605 1606 1615 1614 4926 4927 4936 4935 
1606 1607 1616 1615 4927 4928 4937 4936 
1607 1608 1617 1616 4928 4929 4938 4937 
1608 1609 1618 1617 4929 4930 4939 4938 
1609 1610 1619 1618 4930 4931 4940 4939 
1610 1611 1620 1619 4931 4932 4941 4940 
1611 1612 1621 1620 4932 4933 4942 4941 
1612 230 229 1621 4933 1798 1799 4942 
251 1613 1622 252 1718 4934 4943 1719 
1613 1614 1623 1622 4934 4935 4944 4943 
1614 1615 1624 1623 4935 4936 4945 4944 
1615 1616 1625 1624 4936 4937 4946 4945 
1616 1617 1626 1625 4937 4938 4947 4946 
1617 1618 1627 1626 4938 4939 4948 4947 
1618 1619 1628 1627 4939 4940 4949 4948 
1619 1620 1629 1628 4940 4941 4950 4949 
1620 1621 1630 1629 4941 4942 4951 4950 
1621 229 228 1630 4942 1799 1800 4951 
252 1622 1631 253 1719 4943 4952 1720 
1622 1623 1632 1631 4943 4944 4953 4952 
1623 1624 1633 1632 4944 4945 4954 4953 
1624 1625 1634 1633 4945 4946 4955 4954 
1625 1626 1635 1634 4946 4947 4956 4955 
1626 1627 1636 1635 4947 4948 4957 4956 
1627 1628 1637 1636 4948 4949 4958 4957 
1628 1629 1638 1637 4949 4950 4959 4958 
1629 1630 1639 1638 4950 4951 4960 4959 
1630 228 227 1639 4951 1800 1801 4960 
253 1631 236 11 1720 4952 1874 262 
1631 1632 237 236 4952 4953 1875 1874 
1632 1633 238 237 4953 4954 1876 1875 
1633 1634 239 238 4954 4955 1877 1876 
1634 1635 240 239 4955 4956 1878 1877 
1635 1636 241 240 4956 4957 1879 1878 
1636 1637 242 241 4957 4958 1880 1879 
1637 1638 243 242 4958 4959 1881 1880 
1638 1639 244 243 4959 4960 1882 1881 
1639 227 10 244 4960 1801 263 1882 
</DataArray>
<DataArray type="UInt32" Name="offsets" NumberOfComponents="1" format="ascii" >
8
16
24
32
40
48
56
64
72
80
88
96
104
112
120
128
136
144
152
160
168
176
184
192
200
208
216
224
232
240
248
256
264
272
280
288
296
304
312
320
328
336
344
352
360
368
376
384
392
400
408
416
424
432
440
448
456
464
472
480
488
496
504
512
520
528
536
544
552
560
568
576
584
592
600
608
616
624
632
640
648
656
664
672
680
688
696
704
712
720
728
736
744
752
760
768
776
784
792
800
808
816
824
832
840
848
856
864
872
880
888
896
904
912
920
928
936
944
952
960
968
976
984
992
1000
1008
1016
1024
1032
1040
1048
1056
1064
1072
1080
1088
1096
1104
1112
1120
1128
1136
1144
1152
1160
1168
1176
1184
1192
1200
1208
1216
1224
1232
1240
1248
1256
1264
1272
1280
1288
1296
1304
1312
1320
1328
1336
1344
1352
1360
1368
1376
1384
1392
1400
1408
1416
1424
1432
1440
1448
1456
1464
1472
1480
1488
1496
1504
1512
1520
1528
1536
1544
1552
1560
1568
1576
1584
1592
1600
1608
1616
1624
1632
1640
1648
1656
1664
1672
1680
1688
1696
1704
1712
1720
1728
1736
1744
1752
1760
1768
1776
1784
1792
1800
1808
1816
1824
1832
1840
1848
1856
1864
1872
1880
1888
1896
1904
1912
1920
1928
1936
1944
1952
1960
1968
1976
1984
1992
2000
2008
2016
2024
2032
2040
2048
2056
2064
2072
2080
2088
2096
2104
2112
2120
2128
2136
2144
2152
2160
2168
2176
2184
2192
2200
2208
2216
2224
2232
2240
2248
2256
2264
2272
2280
2288
2296
2304
2312
2320
2328
2336
2344
2352
2360
2368
2376
2384
2392
2400
2408
2416
2424
2432
2440
2448
2456
2464
2472
2480
2488
2496
2504
2512
2520
2528
2536
2544
2552
2560
2568
2576
2584
2592
2600
2608
2616
2624
2632
2640
2648
2656
2664
2672
2680
2688
2696
2704
2712
2720
2728
2736
2744
2752
2760
2768
2776
2784
2792
2800
2808
2816
2824
2832
2840
2848
2856
2864
2872
2880
2888
2896
2904
2912
2920
2928
2936
2944
2952
2960
2968
2976
2984
2992
3000
3008
3016
3024
3032
3040
3048
3056
3064
3072
3080
3088
3096
3104
3112
3120
3128
3136
3144
3152
3160
3168
3176
3184
3192
3200
3208
3216
3224
3232
3240
3248
3256
3264
3272
3280
3288
3296
3304
3312
3320
3328
3336
3344
3352
3360
3368
3376
3384
3392
3400
3408
3416
3424
3432
3440
3448
3456
3464
3472
3480
3488
3496
3504
3512
3520
3528
3536
3544
3552
3560
3568
3576
3584
3592
3600
3608
3616
3624
3632
3640
3648
3656
3664
3672
3680
3688
3696
3704
3712
3720
3728
3736
3744
3752
3760
3768
3776
3784
3792
3800
3808
3816
3824
3832
3840
3848
3856
3864
3872
3880
3888
3896
3904
3912
3920
3928
3936
3944
3952
3960
3968
3976
3984
3992
4000
4008
4016
4024
4032
4040
4048
4056
4064
4072
4080
4088
4096
4104
4112
4120
4128
4136
4144
4152
4160
4168
4176
4184
4192
4200
4208
4216
4224
4232
4240
4248
4256
4264
4272
4280
4288
4296
4304
4312
4320
4328
4336
4344
4352
4360
4368
4376
4384
4392
4400
4408
4416
4424
4432
4440
4448
4456
4464
4472
4480
4488
4496
4504
4512
4520
4528
4536
4544
4552
4560
4568
4576
4584
4592
4600
4608
4616
4624
4632
4640
4648
4656
4664
4672
4680
4688
4696
4704
4712
4720
4728
4736
4744
4752
4760
4768
4776
4784
4792
4800
4808
4816
4824
4832
4840
4848
4856
4864
4872
4880
4888
4896
4904
4912
4920
4928
4936
4944
4952
4960
4968
4976
4984
4992
5000
5008
5016
5024
5032
5040
5048
5056
5064
5072
5080
5088
5096
5104
5112
5120
5128
5136
5144
5152
5160
5168
5176
5184
5192
5200
5208
5216
5224
5232
5240
5248
5256
5264
5272
5280
5288
5296
5304
5312
5320
5328
5336
5344
5352
5360
5368
5376
5384
5392
5400
5408
5416
5424
5432
5440
5448
5456
5464
5472
5480
5488
5496
5504
5512
5520
5528
5536
5544
5552
5560
5568
5576
5584
5592
5600
5608
5616
5624
5632
5640
5648
5656
5664
5672
5680
5688
5696
5704
5712
5720
5728
5736
5744
5752
5760
5768
5776
5784
5792
5800
5808
5816
5824
5832
5840
5848
5856
5864
5872
5880
5888
5896
5904
5912
5920
5928
5936
5944
5952
5960
5968
5976
5984
5992
6000
6008
6016
6024
6032
6040
6048
6056
6064
6072
6080
6088
6096
6104
6112
6120
6128
6136
6144
6152
6160
6168
6176
6184
6192
6200
6208
6216
6224
6232
6240
6248
6256
6264
6272
6280
6288
6296
6304
6312
6320
6328
6336
6344
6352
6360
6368
6376
6384
6392
6400
6408
6416
6424
6432
6440
6448
6456
6464
6472
6480
6488
6496
6504
6512
6520
6528
6536
6544
6552
6560
6568
6576
6584
6592
6600
6608
6616
6624
6632
6640
6648
6656
6664
6672
6680
6688
6696
6704
6712
6720
6728
6736
6744
6752
6760
6768
6776
6784
6792
6800
6808
6816
6824
6832
6840
6848
6856
6864
6872
6880
6888
6896
6904
6912
6920
6928
6936
6944
6952
6960
6968
6976
6984
6992
7000
7008
7016
7024
7032
7040
7048
7056
7064
7072
7080
7088
7096
7104
7112
7120
7128
7136
7144
7152
7160
7168
7176
7184
7192
7200
7208
7216
7224
7232
7240
7248
7256
7264
7272
7280
7288
7296
7304
7312
7320
7328
7336
7344
7352
7360
7368
7376
7384
7392
7400
7408
7416
7424
7432
7440
7448
7456
7464
7472
7480
7488
7496
7504
7512
7520
7528
7536
7544
7552
7560
7568
7576
7584
7592
7600
7608
7616
7624
7632
7640
7648
7656
7664
7672
7680
7688
7696
7704
7712
7720
7728
7736
7744
7752
7760
7768
7776
7784
7792
7800
7808
7816
7824
7832
7840
7848
7856
7864
7872
7880
7888
7896
7904
7912
7920
7928
7936
7944
7952
7960
7968
7976
7984
7992
8000
8008
8016
8024
8032
8040
8048
8056
8064
8072
8080
8088
8096
8104
8112
8120
8128
8136
8144
8152
8160
8168
8176
8184
8192
8200
8208
8216
8224
8232
8240
8248
8256
8264
8272
8280
8288
8296
8304
8312
8320
8328
8336
8344
8352
8360
8368
8376
8384
8392
8400
8408
8416
8424
8432
8440
8448
8456
8464
8472
8480
8488
8496
8504
8512
8520
8528
8536
8544
8552
8560
8568
8576
8584
8592
8600
8608
8616
8624
8632
8640
8648
8656
8664
8672
8680
8688
8696
8704
8712
8720
8728
8736
8744
8752
8760
8768
8776
8784
8792
8800
8808
8816
8824
8832
8840
8848
8856
8864
8872
8880
8888
8896
8904
8912
8920
8928
8936
8944
8952
8960
8968
8976
8984
8992
9000
9008
9016
9024
9032
9040
9048
9056
9064
9072
9080
9088
9096
9104
9112
9120
9128
9136
9144
9152
9160
9168
9176
9184
9192
9200
9208
9216
9224
9232
9240
9248
9256
9264
9272
9280
9288
9296
9304
9312
9320
9328
9336
9344
9352
9360
9368
9376
9384
9392
9400
9408
9416
9424
9432
9440
9448
9456
9464
9472
9480
9488
9496
9504
9512
9520
9528
9536
9544
9552
9560
9568
9576
9584
9592
9600
9608
9616
9624
9632
9640
9648
9656
9664
9672
9680
9688
9696
9704
9712
9720
9728
9736
9744
9752
9760
9768
9776
9784
9792
9800
9808
9816
9824
9832
9840
9848
9856
9864
9872
9880
9888
9896
9904
9912
9920
9928
9936
9944
9952
9960
9968
9976
9984
9992
10000
10008
10016
10024
10032
10040
10048
10056
10064
10072
10080
10088
10096
10104
10112
10120
10128
10136
10144
10152
10160
10168
10176
10184
10192
10200
10208
10216
10224
10232
10240
10248
10256
10264
10272
10280
10288
10296
10304
10312
10320
10328
10336
10344
10352
10360
10368
10376
10384
10392
10400
10408
10416
10424
10432
10440
10448
10456
10464
10472
10480
10488
10496
10504
10512
10520
10528
10536
10544
10552
10560
10568
10576
10584
10592
10600
10608
10616
10624
10632
10640
10648
10656
10664
10672
10680
10688
10696
10704
10712
10720
10728
10736
10744
10752
10760
10768
10776
10784
10792
10800
10808
10816
10824
10832
10840
10848
10856
10864
10872
10880
10888
10896
10904
10912
10920
10928
10936
10944
10952
10960
10968
10976
10984
10992
11000
11008
11016
11024
11032
11040
11048
11056
11064
11072
11080
11088
11096
11104
11112
11120
11128
11136
11144
11152
11160
11168
11176
11184
11192
11200
11208
11216
11224
11232
11240
11248
11256
11264
11272
11280
11288
11296
11304
11312
11320
11328
11336
11344
11352
11360
11368
11376
11384
11392
11400
11408
11416
11424
11432
11440
11448
11456
11464
11472
11480
11488
11496
11504
11512
11520
11528
11536
11544
11552
11560
11568
11576
11584
11592
11600
11608
11616
11624
11632
11640
11648
11656
11664
11672
11680
11688
11696
11704
11712
11720
11728
11736
11744
11752
11760
11768
11776
11784
11792
11800
11808
11816
11824
11832
11840
11848
11856
11864
11872
11880
11888
11896
11904
11912
11920
11928
11936
11944
11952
11960
11968
11976
11984
11992
12000
12008
12016
12024
12032
12040
12048
12056
12064
12072
12080
12088
12096
12104
12112
12120
12128
12136
12144
12152
12160
12168
12176
12184
12192
12200
12208
12216
12224
12232
12240
12248
12256
12264
12272
12280
12288
12296
12304
12312
12320
12328
12336
12344
12352
12360
12368
12376
12384
12392
12400
12408
12416
12424
12432
12440
12448
12456
12464
12472
12480
12488
12496
12504
12512
12520
12528
12536
12544
12552
12560
12568
12576
12584
12592
12600
12608
12616
12624
12632
12640
12648
12656
12664
12672
12680
12688
12696
12704
12712
12720
12728
12736
12744
12752
12760
12768
12776
12784
12792
12800
12808
12816
12824
12832
12840
12848
12856
12864
12872
12880
12888
12896
12904
12912
12920
12928
12936
12944
12952
12960
12968
12976
12984
12992
13000
13008
13016
13024
13032
13040
13048
13056
13064
13072
13080
13088
13096
13104
13112
13120
13128
13136
13144
13152
13160
13168
13176
13184
13192
13200
13208
13216
13224
13232
13240
13248
13256
13264
13272
13280
13288
13296
13304
13312
13320
13328
13336
13344
13352
13360
13368
13376
13384
13392
13400
13408
13416
13424
13432
13440
13448
13456
13464
13472
13480
13488
13496
13504
13512
13520
13528
13536
13544
13552
13560
13568
13576
13584
13592
13600
13608
13616
13624
13632
13640
13648
13656
13664
13672
13680
13688
13696
13704
13712
13720
13728
13736
13744
13752
13760
13768
13776
13784
13792
13800
13808
13816
13824
13832
13840
13848
13856
13864
13872
13880
13888
13896
13904
13912
13920
13928
13936
13944
13952
13960
13968
13976
13984
13992
14000
14008
14016
14024
14032
14040
14048
14056
14064
14072
14080
14088
14096
14104
14112
14120
14128
14136
14144
14152
14160
14168
14176
14184
14192
14200
14208
14216
14224
14232
14240
14248
14256
14264
14272
14280
14288
14296
14304
14312
14320
14328
14336
14344
14352
14360
14368
14376
14384
14392
14400
14408
14416
14424
14432
14440
14448
14456
14464
14472
14480
14488
14496
14504
14512
14520
14528
14536
14544
14552
14560
14568
14576
14584
14592
14600
14608
14616
14624
14632
14640
14648
14656
14664
14672
14680
14688
14696
14704
14712
14720
14728
14736
14744
14752
14760
14768
14776
14784
14792
14800
14808
14816
14824
14832
14840
14848
14856
14864
14872
14880
14888
14896
14904
14912
14920
14928
14936
14944
14952
14960
14968
14976
14984
14992
15000
15008
15016
15024
15032
15040
15048
15056
15064
15072
15080
15088
15096
15104
15112
15120
15128
15136
15144
15152
15160
15168
15176
15184
15192
15200
15208
15216
15224
15232
15240
15248
15256
15264
15272
15280
15288
15296
15304
15312
15320
15328
15336
15344
15352
15360
15368
15376
15384
15392
15400
15408
15416
15424
15432
15440
15448
15456
15464
15472
15480
15488
15496
15504
15512
15520
15528
15536
15544
15552
15560
15568
15576
15584
15592
15600
15608
15616
15624
15632
15640
15648
15656
15664
15672
15680
15688
15696
15704
15712
15720
15728
15736
15744
15752
15760
15768
15776
15784
15792
15800
15808
15816
15824
15832
15840
15848
15856
15864
15872
15880
15888
15896
15904
15912
15920
15928
15936
15944
15952
15960
15968
15976
15984
15992
16000
16008
16016
16024
16032
16040
16048
16056
16064
16072
16080
16088
16096
16104
16112
16120
16128
16136
16144
16152
16160
16168
16176
16184
16192
16200
16208
16216
16224
16232
16240
16248
16256
16264
16272
16280
16288
16296
16304
16312
16320
16328
16336
16344
16352
16360
16368
16376
16384
16392
16400
16408
16416
16424
16432
16440
16448
16456
16464
16472
16480
16488
16496
16504
16512
16520
16528
16536
16544
16552
16560
16568
16576
16584
16592
16600
16608
16616
16624
16632
16640
16648
16656
16664
16672
16680
16688
16696
16704
16712
16720
16728
16736
16744
16752
16760
16768
16776
16784
16792
16800
16808
16816
16824
16832
16840
16848
16856
16864
16872
16880
16888
16896
16904
16912
16920
16928
16936
16944
16952
16960
16968
16976
16984
16992
17000
17008
17016
17024
17032
17040
17048
17056
17064
17072
17080
17088
17096
17104
17112
17120
17128
17136
17144
17152
17160
17168
17176
17184
17192
17200
17208
17216
17224
17232
17240
17248
17256
17264
17272
17280
17288
17296
17304
17312
17320
17328
17336
17344
17352
17360
17368
17376
17384
17392
17400
17408
17416
17424
17432
17440
17448
17456
17464
17472
17480
17488
17496
17504
17512
17520
17528
17536
17544
17552
17560
17568
17576
17584
17592
17600
17608
17616
17624
17632
17640
17648
17656
17664
17672
17680
17688
17696
17704
17712
17720
17728
17736
17744
17752
17760
17768
17776
17784
17792
17800
17808
17816
17824
17832
17840
17848
17856
17864
17872
17880
17888
17896
17904
17912
17920
17928
17936
17944
17952
17960
17968
17976
17984
17992
18000
18008
18016
18024
18032
18040
18048
18056
18064
18072
18080
18088
18096
18104
18112
18120
18128
18136
18144
18152
18160
18168
18176
18184
18192
18200
18208
18216
18224
18232
18240
18248
18256
18264
18272
18280
18288
18296
18304
18312
18320
18328
18336
18344
18352
18360
18368
18376
18384
18392
18400
18408
18416
18424
18432
18440
18448
18456
18464
18472
18480
18488
18496
18504
18512
18520
18528
18536
18544
18552
18560
18568
18576
18584
18592
18600
18608
18616
18624
18632
18640
18648
18656
18664
18672
18680
18688
18696
18704
18712
18720
18728
18736
18744
18752
18760
18768
18776
18784
18792
18800
18808
18816
18824
18832
18840
18848
18856
18864
18872
18880
18888
18896
18904
18912
18920
18928
18936
18944
18952
18960
18968
18976
18984
18992
19000
19008
19016
19024
19032
19040
19048
19056
19064
19072
19080
19088
19096
19104
19112
19120
19128
19136
19144
19152
19160
19168
19176
19184
19192
19200
19208
19216
19224
19232
19240
19248
19256
19264
19272
19280
19288
19296
19304
19312
19320
19328
19336
19344
19352
19360
19368
19376
19384
19392
19400
19408
19416
19424
19432
19440
19448
19456
19464
19472
19480
19488
19496
19504
19512
19520
19528
19536
19544
19552
19560
19568
19576
19584
19592
19600
19608
19616
19624
19632
19640
19648
19656
19664
19672
19680
19688
19696
19704
19712
19720
19728
19736
19744
19752
19760
19768
19776
19784
19792
19800
19808
19816
19824
19832
19840
19848
19856
19864
19872
19880
19888
19896
19904
19912
19920
19928
19936
19944
19952
19960
19968
19976
19984
19992
20000
20008
20016
20024
20032
20040
20048
20056
20064
20072
20080
20088
20096
20104
20112
20120
20128
20136
20144
20152
20160
20168
20176
20184
20192
20200
20208
20216
20224
20232
20240
20248
20256
20264
20272
20280
20288
20296
20304
20312
20320
20328
20336
20344
20352
20360
20368
20376
20384
20392
20400
20408
20416
20424
20432
20440
20448
20456
20464
20472
20480
20488
20496
20504
20512
20520
20528
20536
20544
20552
20560
20568
20576
20584
20592
20600
20608
20616
20624
20632
20640
20648
20656
20664
20672
20680
20688
20696
20704
20712
20720
20728
20736
20744
20752
20760
20768
20776
20784
20792
20800
20808
20816
20824
20832
20840
20848
20856
20864
20872
20880
20888
20896
20904
20912
20920
20928
20936
20944
20952
20960
20968
20976
20984
20992
21000
21008
21016
21024
21032
21040
21048
21056
21064
21072
21080
21088
21096
21104
21112
21120
21128
21136
21144
21152
21160
21168
21176
21184
21192
21200
21208
21216
21224
21232
21240
21248
21256
21264
21272
21280
21288
21296
21304
21312
21320
21328
21336
21344
21352
21360
21368
21376
21384
21392
21400
21408
21416
21424
21432
21440
21448
21456
21464
21472
21480
21488
21496
21504
21512
21520
21528
21536
21544
21552
21560
21568
21576
21584
21592
21600
21608
21616
21624
21632
21640
21648
21656
21664
21672
21680
21688
21696
21704
21712
21720
21728
21736
21744
21752
21760
21768
21776
21784
21792
21800
21808
21816
21824
21832
21840
21848
21856
21864
21872
21880
21888
21896
21904
21912
21920
21928
21936
21944
21952
21960
21968
21976
21984
21992
22000
22008
22016
22024
22032
22040
22048
22056
22064
22072
22080
22088
22096
22104
22112
22120
22128
22136
22144
22152
22160
22168
22176
22184
22192
22200
22208
22216
22224
22232
22240
22248
22256
22264
22272
22280
22288
22296
22304
22312
22320
22328
22336
22344
22352
22360
22368
22376
22384
22392
22400
22408
22416
22424
22432
22440
22448
22456
22464
22472
22480
22488
22496
22504
22512
22520
22528
22536
22544
22552
22560
22568
22576
22584
22592
22600
22608
22616
22624
22632
22640
22648
22656
22664
22672
22680
22688
22696
22704
22712
22720
22728
22736
22744
22752
22760
22768
22776
22784
22792
22800
22808
22816
22824
22832
22840
22848
22856
22864
22872
22880
22888
22896
22904
22912
22920
22928
22936
22944
22952
22960
22968
22976
22984
22992
23000
23008
23016
23024
23032
23040
23048
23056
23064
23072
23080
23088
23096
23104
23112
23120
23128
23136
23144
23152
23160
23168
23176
23184
23192
23200
23208
23216
23224
23232
23240
23248
23256
23264
23272
23280
23288
23296
23304
23312
23320
23328
23336
23344
23352
23360
23368
23376
23384
23392
23400
23408
23416
23424
23432
23440
23448
23456
23464
23472
23480
23488
23496
23504
23512
23520
23528
23536
23544
23552
23560
23568
23576
23584
23592
23600
23608
23616
23624
23632
23640
23648
23656
23664
23672
23680
23688
23696
23704
23712
23720
23728
23736
23744
23752
23760
23768
23776
23784
23792
23800
23808
23816
23824
23832
23840
23848
23856
23864
23872
23880
23888
23896
23904
23912
23920
23928
23936
23944
23952
23960
23968
23976
23984
23992
24000
24008
24016
24024
24032
24040
24048
24056
24064
24072
24080
24088
24096
24104
24112
24120
24128
24136
24144
24152
24160
24168
24176
24184
24192
24200
24208
24216
24224
24232
24240
24248
24256
24264
24272
24280
24288
24296
24304
24312
24320
24328
24336
24344
24352
24360
24368
24376
24384
24392
24400
24408
24416
24424
24432
24440
24448
24456
24464
24472
24480
24488
24496
24504
24512
24520
24528
24536
24544
24552
24560
24568
24576
24584
24592
24600
24608
24616
24624
24632
24640
24648
24656
24664
24672
24680
24688
24696
24704
24712
24720
24728
24736
24744
24752
24760
24768
24776
24784
24792
24800
24808
24816
24824
24832
24840
24848
24856
24864
24872
24880
24888
24896
24904
24912
24920
24928
24936
24944
24952
24960
24968
24976
24984
24992
25000
25008
25016
25024
25032
25040
25048
25056
25064
25072
25080
25088
25096
25104
25112
25120
25128
25136
25144
25152
25160
25168
25176
25184
25192
25200
25208
25216
25224
25232
25240
25248
25256
25264
25272
25280
25288
25296
25304
25312
25320
25328
25336
25344
25352
25360
25368
25376
25384
25392
25400
25408
25416
25424
25432
25440
25448
25456
25464
25472
25480
25488
25496
25504
25512
25520
25528
25536
25544
25552
25560
25568
25576
25584
25592
25600
25608
25616
25624
25632
25640
25648
25656
25664
25672
25680
25688
25696
25704
25712
25720
25728
25736
25744
25752
25760
25768
25776
25784
25792
25800
25808
25816
25824
25832
25840
25848
25856
25864
25872
25880
25888
25896
25904
25912
25920
25928
25936
25944
25952
25960
25968
25976
25984
25992
26000
26008
26016
26024
26032
26040
26048
26056
26064
26072
26080
26088
26096
26104
26112
26120
26128
26136
26144
26152
26160
26168
26176
26184
26192
26200
26208
26216
26224
26232
26240
26248
26256
26264
26272
26280
26288
26296
26304
26312
26320
26328
26336
26344
26352
26360
26368
26376
26384
26392
26400
26408
26416
26424
26432
26440
26448
26456
26464
26472
26480
26488
26496
26504
26512
26520
26528
26536
26544
26552
26560
26568
26576
26584
26592
26600
26608
26616
26624
26632
26640
26648
26656
26664
26672
26680
26688
26696
26704
26712
26720
26728
26736
26744
26752
26760
26768
26776
26784
26792
26800
26808
26816
26824
26832
26840
26848
26856
26864
26872
26880
26888
26896
26904
26912
26920
26928
26936
26944
26952
26960
26968
26976
26984
26992
27000
27008
27016
27024
27032
27040
27048
27056
27064
27072
27080
27088
27096
27104
27112
27120
27128
27136
27144
27152
27160
27168
27176
27184
27192
27200
27208
27216
27224
27232
27240
27248
27256
27264
27272
27280
27288
27296
27304
27312
27320
27328
27336
27344
27352
27360
27368
27376
27384
27392
27400
27408
27416
27424
27432
27440
27448
27456
27464
27472
27480
27488
27496
27504
27512
27520
27528
27536
27544
27552
27560
27568
27576
27584
27592
27600
27608
27616
27624
27632
27640
27648
27656
27664
27672
27680
27688
27696
27704
27712
27720
27728
27736
27744
27752
27760
27768
27776
27784
27792
27800
27808
27816
27824
27832
27840
27848
27856
27864
27872
27880
27888
27896
27904
27912
27920
27928
27936
27944
27952
27960
27968
27976
27984
27992
28000
28008
28016
28024
28032
28040
28048
28056
28064
28072
28080
28088
28096
28104
28112
28120
28128
28136
28144
28152
28160
28168
28176
28184
28192
28200
28208
28216
28224
28232
28240
28248
28256
28264
28272
28280
28288
28296
28304
28312
28320
28328
28336
28344
28352
28360
28368
28376
28384
28392
28400
28408
28416
28424
28432
28440
28448
28456
28464
28472
28480
28488
28496
28504
28512
28520
28528
28536
28544
28552
28560
28568
28576
28584
28592
28600
28608
28616
28624
28632
28640
28648
28656
28664
28672
28680
28688
28696
28704
28712
28720
28728
28736
28744
28752
28760
28768
28776
28784
28792
28800
28808
28816
28824
28832
28840
28848
28856
28864
28872
28880
28888
28896
28904
28912
28920
28928
28936
28944
28952
28960
28968
28976
28984
28992
29000
29008
29016
29024
29032
29040
29048
29056
29064
29072
29080
29088
29096
29104
29112
29120
29128
29136
29144
29152
29160
29168
29176
29184
29192
29200
29208
29216
29224
29232
29240
29248
29256
29264
29272
29280
29288
29296
29304
29312
29320
29328
29336
29344
29352
29360
29368
29376
29384
29392
29400
29408
29416
29424
29432
29440
29448
29456
29464
29472
29480
29488
29496
29504
29512
29520
29528
29536
29544
29552
29560
29568
29576
29584
29592
29600
29608
29616
29624
29632
29640
29648
29656
29664
29672
29680
29688
29696
29704
29712
29720
29728
29736
29744
29752
29760
29768
29776
29784
29792
29800
29808
29816
29824
29832
29840
29848
29856
29864
29872
29880
29888
29896
29904
29912
29920
29928
29936
29944
29952
29960
29968
29976
29984
29992
30000
30008
30016
30024
30032
30040
30048
30056
30064
30072
30080
30088
30096
30104
30112
30120
30128
30136
30144
30152
30160
30168
30176
30184
30192
30200
30208
30216
30224
30232
30240
30248
30256
30264
30272
30280
30288
30296
30304
30312
30320
30328
30336
30344
30352
30360
30368
30376
30384
30392
30400
30408
30416
30424
30432
30440
30448
30456
30464
30472
30480
30488
30496
30504
30512
30520
30528
30536
30544
30552
30560
30568
30576
30584
30592
30600
30608
30616
30624
30632
30640
30648
30656
30664
30672
30680
30688
30696
30704
30712
30720
30728
30736
30744
30752
30760
30768
30776
30784
30792
30800
30808
30816
30824
30832
30840
30848
30856
30864
30872
30880
30888
30896
30904
30912
30920
30928
30936
30944
30952
30960
30968
30976
30984
30992
31000
31008
31016
31024
31032
31040
31048
31056
31064
31072
31080
31088
31096
31104
31112
31120
31128
31136
31144
31152
31160
31168
31176
31184
31192
31200
31208
31216
31224
31232
31240
31248
31256
31264
31272
31280
31288
31296
31304
31312
31320
31328
31336
31344
31352
31360
31368
31376
31384
31392
31400
31408
31416
31424
31432
31440
31448
31456
31464
31472
31480
31488
31496
31504
31512
31520
31528
31536
31544
31552
31560
31568
31576
31584
31592
31600
31608
31616
31624
31632
31640
31648
31656
31664
31672
31680
31688
31696
31704
31712
31720
31728
31736
31744
31752
31760
31768
31776
31784
31792
31800
31808
31816
31824
31832
31840
31848
31856
31864
31872
31880
31888
31896
31904
31912
31920
31928
31936
31944
31952
31960
31968
31976
31984
31992
32000
</DataArray>
<DataArray type="UInt8" Name="types" NumberOfComponents="1" format="ascii" >
12
12
12
12
12
12
12
12
12
12
12
12
12
12
12
12
12
12
12
12
12
12
12
12
12
12
12
12
12
12
12
12
12
12
12
12
12
12
12
12
12
12
12
12
12
12
12
12
12
12
12
12
12
12
12
12
12
12
12
12
12
12
12
12
12
12
12
12
12
12
12
12
12
12
12
12
12
12
12
12
12
12
12
12
12
12
12
12
12
12
12
12
12
12
12
12
12
12
12
12
12
12
12
12
12
12
12
12
12
12
12
12
12
12
12
12
12
12
12
12
12
12
12
12
12
12
12
12
12
12
12
12
12
12
12
12
12
12
12
12
12
12
12
12
12
12
12
12
12
12
12
12
12
12
12
12
12
12
12
12
12
12
12
12
12
12
12
12
12
12
12
12
12
12
12
12
12
12
12
12
12
12
12
12
12
12
12
12
12
12
12
12
12
12
12
12
12
12
12
12
12
12
12
12
12
12
12
12
12
12
12
12
12
12
12
12
12
12
12
12
12
12
12
12
12
12
12
12
12
12
12
12
12
12
12
12
12
12
12
12
12
12
12
12
12
12
12
12
12
12
12
12
12
12
12
12
12
12
12
12
12
12
12
12
12
12
12
12
12
12
12
12
12
12
12
12
12
12
12
12
12
12
12
12
12
12
12
12
12
12
12
12
12
12
12
12
12
12
12
12
12
12
12
12
12
12
12
12
12
12
12
12
12
12
12
12
12
12
12
12
12
12
12
12
12
12
12
12
12
12
12
12
12
12
12
12
12
12
12
12
12
12
12
12
12
12
12
12
12
12
12
12
12
12
12
12
12
12
12
12
12
12
12
12
12
12
12
12
12
12
12
12
12
12
12
12
12
12
12
12
12
12
12
12
12
12
12
12
12
12
12
12
12
12
12
12
12
12
12
12
12
12
12
12
12
12
12
12
12
12
12
12
12
12
12
12
12
12
12
12
12
12
12
12
12
12
12
12
12
12
12
12
12
12
12
12
12
12
12
12
12
12
12
12
12
12
12
12
12
12
12
12
12
12
12
12
12
12
12
12
12
12
12
12
12
12
12
12
12
12
12
12
12
12
12
12
12
12
12
12
12
12
12
12
12
12
12
12
12
12
12
12
12
12
12
12
12
12
12
12
12
12
12
12
12
12
12
12
12
12
12
12
12
12
12
12
12
12
12
12
12
12
12
12
12
12
12
12
12
12
12
12
12
12
12
12
12
12
12
12
12
12
12
12
12
12
12
12
12
12
12
12
12
12
12
12
12
12
12
12
12
12
12
12
12
12
12
12
12
12
12
12
12
12
12
12
12
12
12
12
12
12
12
12
12
12
12
12
12
12
12
12
12
12
12
12
12
12
12
12
12
12
12
12
12
12
12
12
12
12
12
12
12
12
12
12
12
12
12
12
12
12
12
12
12
12
12
12
12
12
12
12
12
12
12
12
12
12
12
12
12
12
12
12
12
12
12
12
12
12
12
12
12
12
12
12
12
12
12
12
12
12
12
12
12
12
12
12
12
12
12
12
12
12
12
12
12
12
12
12
12
12
12
12
12
12
12
12
12
12
12
12
12
12
12
12
12
12
12
12
12
12
12
12
12
12
12
12
12
12
12
12
12
12
12
12
12
12
12
12
12
12
12
12
12
12
12
12
12
12
12
12
12
12
12
12
12
12
12
12
12
12
12
12
12
12
12
12
12
12
12
12
12
12
12
12
12
12
12
12
12
12
12
12
12
12
12
12
12
12
12
12
12
12
12
12
12
12
12
12
12
12
12
12
12
12
12
12
12
12
12
12
12
12
12
12
12
12
12
12
12
12
12
12
12
12
12
12
12
12
12
12
12
12
12
12
12
12
12
12
12
12
12
12
12
12
12
12
12
12
12
12
12
12
12
12
12
12
12
12
12
12
12
12
12
12
12
12
12
12
12
12
12
12
12
12
12
12
12
12
12
12
12
12
12
12
12
12
12
12
12
12
12
12
12
12
12
12
12
12
12
12
12
12
12
12
12
12
12
12
12
12
12
12
12
12
12
12
12
12
12
12
12
12
12
12
12
12
12
12
12
12
12
12
12
12
12
12
12
12
12
12
12
12
12
12
12
12
12
12
12
12
12
12
12
12
12
12
12
12
12
12
12
12
12
12
12
12
12
12
12
12
12
12
12
12
12
12
12
12
12
12
12
12
12
12
12
12
12
12
12
12
12
12
12
12
12
12
12
12
12
12
12
12
12
12
12
12
12
12
12
12
12
12
12
12
12
12
12
12
12
12
12
12
12
12
12
12
12
12
12
12
12
12
12
12
12
12
12
12
12
12
12
12
12
12
12
12
12
12
12
12
12
12
12
12
12
12
12
12
12
12
12
12
12
12
12
12
12
12
12
12
12
12
12
12
12
12
12
12
12
12
12
12
12
12
12
12
12
12
12
12
12
12
12
12
12
12
12
12
12
12
12
12
12
12
12
12
12
12
12
12
12
12
12
12
12
12
12
12
12
12
12
12
12
12
12
12
12
12
12
12
12
12
12
12
12
12
12
12
12
12
12
12
12
12
12
12
12
12
12
12
12
12
12
12
12
12
12
12
12
12
12
12
12
12
12
12
12
12
12
12
12
12
12
12
12
12
12
12
12
12
12
12
12
12
12
12
12
12
12
12
12
12
12
12
12
12
12
12
12
12
12
12
12
12
12
12
12
12
12
12
12
12
12
12
12
12
12
12
12
12
12
12
12
12
12
12
12
12
12
12
12
12
12
12
12
12
12
12
12
12
12
12
12
12
12
12
12
12
12
12
12
12
12
12
12
12
12
12
12
12
12
12
12
12
12
12
12
12
12
12
12
12
12
12
12
12
12
12
12
12
12
12
12
12
12
12
12
12
12
12
12
12
12
12
12
12
12
12
12
12
12
12
12
12
12
12
12
12
12
12
12
12
12
12
12
12
12
12
12
12
12
12
12
12
12
12
12
12
12
12
12
12
12
12
12
12
12
12
12
12
12
12
12
12
12
12
12
12
12
12
12
12
12
12
12
12
12
12
12
12
12
12
12
12
12
12
12
12
12
12
12
12
12
12
12
12
12
12
12
12
12
12
12
12
12
12
12
12
12
12
12
12
12
12
12
12
12
12
12
12
12
12
12
12
12
12
12
12
12
12
12
12
12
12
12
12
12
12
12
12
12
12
12
12
12
12
12
12
12
12
12
12
12
12
12
12
12
12
12
12
12
12
12
12
12
12
12
12
12
12
12
12
12
12
12
12
12
12
12
12
12
12
12
12
12
12
12
12
12
12
12
12
12
12
12
12
12
12
12
12
12
12
12
12
12
12
12
12
12
12
12
12
12
12
12
12
12
12
12
12
12
12
12
12
12
12
12
12
12
12
12
12
12
12
12
12
12
12
12
12
12
12
12
12
12
12
12
12
12
12
12
12
12
12
12
12
12
12
12
12
12
12
12
12
12
12
12
12
12
12
12
12
12
12
12
12
12
12
12
12
12
12
12
12
12
12
12
12
12
12
12
12
12
12
12
12
12
12
12
12
12
12
12
12
12
12
12
12
12
12
12
12
12
12
12
12
12
12
12
12
12
12
12
12
12
12
12
12
12
12
12
12
12
12
12
12
12
12
12
12
12
12
12
12
12
12
12
12
12
12
12
12
12
12
12
12
12
12
12
12
12
12
12
12
12
12
12
12
12
12
12
12
12
12
12
12
12
12
12
12
12
12
12
12
12
12
12
12
12
12
12
12
12
12
12
12
12
12
12
12
12
12
12
12
12
12
12
12
12
12
12
12
12
12
12
12
12
12
12
12
12
12
12
12
12
12
12
12
12
12
12
12
12
12
12
12
12
12
12
12
12
12
12
12
12
12
12
12
12
12
12
12
12
12
12
12
12
12
12
12
12
12
12
12
12
12
12
12
12
12
12
12
12
12
12
12
12
12
12
12
12
12
12
12
12
12
12
12
12
12
12
12
12
12
12
12
12
12
12
12
12
12
12
12
12
12
12
12
12
12
12
12
12
12
12
12
12
12
12
12
12
12
12
12
12
12
12
12
12
12
12
12
12
12
12
12
12
12
12
12
12
12
12
12
12
12
12
12
12
12
12
12
12
12
12
12
12
12
12
12
12
12
12
12
12
12
12
12
12
12
12
12
12
12
12
12
12
12
12
12
12
12
12
12
12
12
12
12
12
12
12
12
12
12
12
12
12
12
12
12
12
12
12
12
12
12
12
12
12
12
12
12
12
12
12
12
12
12
12
12
12
12
12
12
12
12
12
12
12
12
12
12
12
12
12
12
12
12
12
12
12
12
12
12
12
12
12
12
12
12
12
12
12
12
12
12
12
12
12
12
12
12
12
12
12
12
12
12
12
12
12
12
12
12
12
12
12
12
12
12
12
12
12
12
12
12
12
12
12
12
12
12
12
12
12
12
12
12
12
12
12
12
12
12
12
12
12
12
12
12
12
12
12
12
12
12
12
12
12
12
12
12
12
12
12
12
12
12
12
12
12
12
12
12
12
12
12
12
12
12
12
12
12
12
12
12
12
12
12
12
12
12
12
12
12
12
12
12
12
12
12
12
12
12
12
12
12
12
12
12
12
12
12
12
12
12
12
12
12
12
12
12
12
12
12
12
12
12
12
12
12
12
12
12
12
12
12
12
12
12
12
12
12
12
12
12
12
12
12
12
12
12
12
12
12
12
12
12
12
12
12
12
12
12
12
12
12
12
12
12
12
12
12
12
12
12
12
12
12
12
12
12
12
12
12
12
12
12
12
12
12
12
12
12
12
12
12
12
12
12
12
12
12
12
12
12
12
12
12
12
12
12
12
12
12
12
12
12
12
12
12
12
12
12
12
12
12
12
12
12
12
12
12
12
12
12
12
12
12
12
12
12
12
12
12
12
12
12
12
12
12
12
12
12
12
12
12
12
12
12
12
12
12
12
12
12
12
12
12
12
12
12
12
12
12
12
12
12
12
12
12
12
12
12
12
12
12
12
12
12
12
12
12
12
12
12
12
12
12
12
12
12
12
12
12
12
12
12
12
12
12
12
12
12
12
12
12
12
12
12
12
12
12
12
12
12
12
12
12
12
12
12
12
12
12
12
12
12
12
12
12
12
12
12
12
12
12
12
12
12
12
12
12
12
12
12
12
12
12
12
12
12
12
12
12
12
12
12
12
12
12
12
12
12
12
12
12
12
12
12
12
12
12
12
12
12
12
12
12
12
12
12
12
12
12
12
12
12
12
12
12
12
12
12
12
12
12
12
12
12
12
12
12
12
12
12
12
12
12
12
12
12
12
12
12
12
12
12
12
12
12
12
12
12
12
12
12
12
12
12
12
12
12
12
12
12
12
12
12
12
12
12
12
12
12
12
12
12
12
12
12
12
12
12
12
12
12
12
12
12
12
12
12
12
12
12
12
12
12
12
12
12
12
12
12
12
12
12
12
12
12
12
12
12
12
12
12
12
12
12
12
12
12
12
12
12
12
12
12
12
12
12
12
12
12
12
12
12
12
12
12
12
12
12
12
12
12
12
12
12
12
12
12
12
12
12
12
12
12
12
12
12
12
12
12
12
12
12
12
12
12
12
12
12
12
12
12
12
12
12
12
12
12
12
12
12
12
12
12
12
12
12
12
12
12
12
12
12
12
12
12
12
12
12
12
12
12
12
12
12
12
12
12
12
12
12
12
12
12
12
12
12
12
12
12
12
12
12
12
12
12
12
12
12
12
12
12
12
12
12
12
12
12
12
12
12
12
12
12
12
12
12
12
12
12
12
12
12
12
12
12
12
12
12
12
12
12
12
12
12
12
12
12
12
12
12
12
12
12
12
12
12
12
12
12
12
12
12
12
12
12
12
12
12
12
12
12
12
12
12
12
12
12
12
12
12
12
12
12
12
12
12
12
12
12
12
12
12
12
12
12
12
12
12
12
12
12
12
12
12
12
12
12
12
12
12
12
12
12
12
12
12
12
12
12
12
12
12
12
12
12
12
12
12
12
12
12
12
12
12
12
12
12
12
12
12
12
12
12
12
12
12
12
12
12
12
12
12
12
12
12
12
12
12
12
12
12
12
12
12
12
12
12
12
12
12
12
12
12
12
12
12
12
12
12
12
12
12
12
12
12
12
12
12
12
12
12
12
12
12
12
12
12
12
12
12
12
12
12
12
12
12
12
12
12
12
12
12
12
12
12
12
12
12
12
12
12
12
12
12
12
12
12
12
12
12
12
12
12
12
12
12
12
12
12
12
12
12
12
12
12
12
12
12
12
12
12
12
12
12
12
12
12
12
12
12
12
12
12
12
12
12
12
12
12
12
12
12
12
12
12
12
12
12
12
12
12
12
12
12
12
12
12
12
12
12
12
12
12
12
12
12
12
12
12
12
12
12
12
12
12
12
12
12
12
12
12
12
12
12
12
12
12
12
12
12
12
12
12
12
12
12
12
12
12
12
12
12
12
12
12
12
12
12
12
12
12
12
12
12
12
12
12
12
12
12
12
12
12
12
12
12
12
12
12
12
12
12
12
12
12
12
12
12
12
12
12
12
12
12
12
12
12
12
12
12
12
12
12
12
12
12
12
12
12
12
12
12
12
12
12
12
12
12
12
12
12
12
12
12
12
12
12
12
12
12
12
12
12
12
12
12
12
12
12
12
12
12
12
12
12
12
12
12
12
12
12
12
12
12
12
12
12
12
12
12
12
12
12
12
12
12
12
12
12
12
12
12
12
12
12
12
12
12
12
12
12
12
12
12
12
12
12
12
12
12
12
12
12
12
12
12
12
12
12
12
12
12
12
12
12
12
12
12
12
12
12
12
12
12
12
12
12
12
12
12
12
12
12
12
12
12
12
12
12
12
12
12
12
12
12
12
12
12
12
12
12
12
12
12
12
12
12
12
12
12
12
12
12
12
12
12
12
12
12
12
12
12
12
12
12
12
12
12
12
12
12
12
12
12
12
12
12
12
12
12
12
12
12
12
12
12
12
12
12
12
12
12
12
12
12
12
12
12
12
12
12
12
12
12
12
12
12
12
12
12
12
12
12
12
12
12
12
12
12
12
12
12
12
12
12
12
12
12
12
12
12
12
12
12
12
12
12
12
12
12
12
12
12
12
12
12
12
12
12
12
12
12
12
12
12
12
12
12
12
12
12
12
12
12
12
12
12
12
12
12
12
12
12
12
12
12
12
12
12
12
12
12
12
12
12
12
12
12
12
12
12
12
12
12
12
12
12
12
12
12
12
12
12
12
12
12
12
12
12
12
12
12
12
12
12
12
12
12
12
12
12
12
12
12
12
12
12
12
12
12
12
12
12
12
12
12
12
12
12
12
12
12
12
12
12
12
12
12
12
12
12
12
12
12
12
12
12
12
12
12
12
12
12
12
12
12
12
12
12
12
12
12
12
12
12
12
12
12
12
12
12
12
12
12
12
12
12
12
12
12
12
12
12
12
12
12
12
12
12
12
12
12
12
12
12
12
12
12
12
12
12
12
12
12
12
12
12
12
12
12
12
12
12
12
12
12
12
12
12
12
12
12
12
12
12
12
12
12
12
12
12
12
12
12
12
12
12
12
12
12
12
12
12
12
12
12
12
12
12
12
12
12
12
12
12
12
12
12
12
12
12
12
12
12
12
12
12
12
12
12
12
12
12
12
12
12
12
12
12
12
12
12
12
12
12
12
12
12
12
12
12
12
12
12
12
12
12
12
12
12
12
12
12
12
12
12
12
12
12
12
12
12
12
12
12
12
12
12
12
12
12
12
12
12
12
12
12
12
12
12
12
12
12
12
12
12
12
12
12
12
12
12
12
12
12
12
12
12
12
12
12
12
12
12
12
12
12
12
12
12
12
12
12
12
12
12
12
12
12
12
12
12
12
12
12
12
12
12
12
12
12
12
12
12
12
12
12
12
12
12
12
12
12
12
12
12
12
12
12
12
12
12
12
12
12
12
12
12
12
12
12
12
12
12
12
12
12
12
12
12
12
12
12
12
12
12
12
12
12
12
12
12
12
12
12
12
12
12
12
12
12
12
12
12
12
12
12
12
12
12
12
12
12
12
12
12
12
12
12
12
12
12
12
12
12
12
12
12
12
12
12
12
12
12
12
12
12
12
12
12
12
12
12
12
12
12
12
12
12
12
12
12
12
12
12
12
12
12
12
12
12
12
12
12
12
12
12
12
12
12
12
12
12
12
12
12
12
12
12
12
12
12
12
12
12
12
12
12
12
12
12
12
12
12
12
12
12
12
12
12
12
12
12
12
12
12
12
12
12
12
12
12
12
12
12
12
12
12
12
12
12
12
12
12
12
12
12
12
12
12
12
12
12
12
12
12
12
12
12
12
12
12
12
12
12
12
12
12
12
12
12
12
12
12
12
12
12
12
12
12
12
12
12
12
12
12
12
12
12
12
12
12
12
12
12
12
12
12
12
12
12
12
12
12
12
12
12
12
12
12
12
12
12
12
12
12
12
12
12
12
12
12
12
12
12
12
12
12
12
12
12
12
12
12
12
12
12
12
12
12
12
12
12
12
12
12
12
12
12
12
12
12
12
12
12
12
12
12
12
12
12
12
12
12
12
12
12
12
12
12
12
12
12
12
12
12
12
12
12
12
12
12
12
12
12
12
12
12
12
12
12
12
12
12
12
12
12
12
12
12
12
12
12
12
12
12
12
12
12
12
12
12
12
12
12
12
12
12
12
12
12
12
12
12
12
12
12
12
12
12
12
12
12
12
12
12
12
12
12
12
12
12
12
12
12
12
12
12
12
12
12
12
12
12
12
12
12
12
12
12
12
12
12
12
12
12
12
12
12
12
12
12
12
12
12
12
12
12
12
12
12
12
12
12
12
12
12
12
12
12
12
12
12
12
12
12
12
12
12
12
12
12
12
12
12
12
12
12
12
12
12
12
12
12
12
12
12
12
12
12
12
12
12
12
12
12
12
12
12
12
12
12
12
12
12
12
12
12
12
12
12
12
12
12
12
12
12
12
12
12
12
12
12
12
12
12
12
12
12
12
12
12
</DataArray>
</Cells>
<Points>
<DataArray type="Float64" Name="coordinates" NumberOfComponents="3" format="ascii" >
0 0 5
5 0 5
5 0 20
0 0 20
5 5 5
5 5 20
0 5 20
0 5 5
0 0 0
5 0 0
0 5 0
5 5 0
0.5 0 5
1 0 5
1.5 0 5
2 0 5
2.5 0 5
3 0 5
3.5 0 5
4 0 5
4.5 0 5
5 0 5.5
5 0 6
5 0 6.5
5 0 7
5 0 7.5
5 0 8
5 0 8.5
5 0 9
5 0 9.5
5 0 10
5 0 10.5
5 0 11
5 0 11.5
5 0 12
5 0 12.5
5 0 13
5 0 13.5
5 0 14
5 0 14.5
5 0 15
5 0 15.5
5 0 16
5 0 16.5
5 0 17
5 0 17.5
5 0 18
5 0 18.5
5 0 19
5 0 19.5
4.5 0 20
4 0 20
3.5 0 20
3 0 20
2.5 0 20
2 0 20
1.5 0 20
1 0 20
0.5 0 20
0 0 19.5
0 0 19
0 0 18.5
0 0 18
0 0 17.5
0 0 17
0 0 16.5
0 0 16
0 0 15.5
0 0 15
0 0 14.5
0 0 14
0 0 13.5
0 0 13
0 0 12.5
0 0 12
0 0 11.5
0 0 11
0 0 10.5
0 0 10
0 0 9.5
0 0 9
0 0 8.5
0 0 8
0 0 7.5
0 0 7
0 0 6.5
0 0 6
0 0 5.5
4.5 5 5
4 5 5
3.5 5 5
3 5 5
2.5 5 5
2 5 5
1.5 5 5
1 5 5
0.5 5 5
5 5 19.5
5 5 19
5 5 18.5
5 5 18
5 5 17.5
5 5 17
5 5 16.5
5 5 16
5 5 15.5
5 5 15
5 5 14.5
5 5 14
5 5 13.5
5 5 13
5 5 12.5
5 5 12
5 5 11.5
5 5 11
5 5 10.5
5 5 10
5 5 9.5
5 5 9
5 5 8.5
5 5 8
5 5 7.5
5 5 7
5 5 6.5
5 5 6
5 5 5.5
0.5 5 20
1 5 20
1.5 5 20
2 5 20
2.5 5 20
3 5 20
3.5 5 20
4 5 20
4.5 5 20
0 5 5.5
0 5 6
0 5 6.5
0 5 7
0 5 7.5
0 5 8
0 5 8.5
0 5 9
0 5 9.5
0 5 10
0 5 10.5
0 5 11
0 5 11.5
0 5 12
0 5 12.5
0 5 13
0 5 13.5
0 5 14
0 5 14.5
0 5 15
0 5 15.5
0 5 16
0 5 16.5
0 5 17
0 5 17.5
0 5 18
0 5 18.5
0 5 19
0 5 19.5
0 0.5 20
0 1 20
0 1.5 20
0 2 20
0 2.5 20
0 3 20
0 3.5 20
0 4 20
0 4.5 20
0 4.5 5
0 4 5
0 3.5 5
0 3 5
0 2.5 5
0 2 5
0 1.5 5
0 1 5
0 0.5 5
5 4.5 20
5 4 20
5 3.5 20
5 3 20
5 2.5 20
5 2 20
5 1.5 20
5 1 20
5 0.5 20
5 0.5 5
5 1 5
5 1.5 5
5 2 5
5 2.5 5
5 3 5
5 3.5 5
5 4 5
5 4.5 5
0 0 4.5
0 0 4
0 0 3.5
0 0 3
0 0 2.5
0 0 2
0 0 1.5
0 0 1
0 0 0.5
0.5 0 0
1 0 0
1.5 0 0
2 0 0
2.5 0 0
3 0 0
3.5 0 0
4 0 0
4.5 0 0
5 0 0.5
5 0 1
5 0 1.5
5 0 2
5 0 2.5
5 0 3
5 0 3.5
5 0 4
5 0 4.5
0 5 0.5
0 5 1
0 5 1.5
0 5 2
0 5 2.5
0 5 3
0 5 3.5
0 5 4
0 5 4.5
4.5 5 0
4 5 0
3.5 5 0
3 5 0
2.5 5 0
2 5 0
1.5 5 0
1 5 0
0.5 5 0
5 5 4.5
5 5 4
5 5 3.5
5 5 3
5 5 2.5
5 5 2
5 5 1.5
5 5 1
5 5 0.5
5 0.5 0
5 1 0
5 1.5 0
5 2 0
5 2.5 0
5 3 0
5 3.5 0
5 4 0
5 4.5 0
0 4.5 0
0 4 0
0 3.5 0
0 3 0
0 2.5 0
0 2 0
0 1.5 0
0 1 0
0 0.5 0
0.5 0 5.5
1 0 5.5
1.5 0 5.5
2 0 5.5
2.5 0 5.5
3 0 5.5
3.5 0 5.5
4 0 5.5
4.5 0 5.5
0.5 0 6
1 0 6
1.5 0 6
2 0 6
2.5 0 6
3 0 6
3.5 0 6
4 0 6
4.5 0 6
0.5 0 6.5
1 0 6.5
1.5 0 6.5
2 0 6.5
2.5 0 6.5
3 0 6.5
3.5 0 6.5
4 0 6.5
4.5 0 6.5
0.5 0 7
1 0 7
1.5 0 7
2 0 7
2.5 0 7
3 0 7
3.5 0 7
4 0 7
4.5 0 7
0.5 0 7.5
1 0 7.5
1.5 0 7.5
2 0 7.5
2.5 0 7.5
3 0 7.5
3.5 0 7.5
4 0 7.5
4.5 0 7.5
0.5 0 8
1 0 8
1.5 0 8
2 0 8
2.5 0 8
3 0 8
3.5 0 8
4 0 8
4.5 0 8
0.5 0 8.5
1 0 8.5
1.5 0 8.5
2 0 8.5
2.5 0 8.5
3 0 8.5
3.5 0 8.5
4 0 8.5
4.5 0 8.5
0.5 0 9
1 0 9
1.5 0 9
2 0 9
2.5 0 9
3 0 9
3.5 0 9
4 0 9
4.5 0 9
0.5 0 9.5
1 0 9.5
1.5 0 9.5
2 0 9.5
2.5 0 9.5
3 0 9.5
3.5 0 9.5
4 0 9.5
4.5 0 9.5
0.5 0 10
1 0 10
1.5 0 10
2 0 10
2.5 0 10
3 0 10
3.5 0 10
4 0 10
4.5 0 10
0.5 0 10.5
1 0 10.5
1.5 0 10.5
2 0 10.5
2.5 0 10.5
3 0 10.5
3.5 0 10.5
4 0 10.5
4.5 0 10.5
0.5 0 11
1 0 11
1.5 0 11
2 0 11
2.5 0 11
3 0 11
3.5 0 11
4 0 11
4.5 0 11
0.5 0 11.5
1 0 11.5
1.5 0 11.5
2 0 11.5
2.5 0 11.5
3 0 11.5
3.5 0 11.5
4 0 11.5
4.5 0 11.5
0.5 0 12
1 0 12
1.5 0 12
2 0 12
2.5 0 12
3 0 12
3.5 0 12
4 0 12
4.5 0 12
0.5 0 12.5
1 0 12.5
1.5 0 12.5
2 0 12.5
2.5 0 12.5
3 0 12.5
3.5 0 12.5
4 0 12.5
4.5 0 12.5
0.5 0 13
1 0 13
1.5 0 13
2 0 13
2.5 0 13
3 0 13
3.5 0 13
4 0 13
4.5 0 13
0.5 0 13.5
1 0 13.5
1.5 0 13.5
2 0 13.5
2.5 0 13.5
3 0 13.5
3.5 0 13.5
4 0 13.5
4.5 0 13.5
0.5 0 14
1 0 14
1.5 0 14
2 0 14
2.5 0 14
3 0 14
3.5 0 14
4 0 14
4.5 0 14
0.5 0 14.5
1 0 14.5
1.5 0 14.5
2 0 14.5
2.5 0 14.5
3 0 14.5
3.5 0 14.5
4 0 14.5
4.5 0 14.5
0.5 0 15
1 0 15
1.5 0 15
2 0 15
2.5 0 15
3 0 15
3.5 0 15
4 0 15
4.5 0 15
0.5 0 15.5
1 0 15.5
1.5 0 15.5
2 0 15.5
2.5 0 15.5
3 0 15.5
3.5 0 15.5
4 0 15.5
4.5 0 15.5
0.5 0 16
1 0 16
1.5 0 16
2 0 16
2.5 0 16
3 0 16
3.5 0 16
4 0 16
4.5 0 16
0.5 0 16.5
1 0 16.5
1.5 0 16.5
2 0 16.5
2.5 0 16.5
3 0 16.5
3.5 0 16.5
4 0 16.5
4.5 0 16.5
0.5 0 17
1 0 17
1.5 0 17
2 0 17
2.5 0 17
3 0 17
3.5 0 17
4 0 17
4.5 0 17
0.5 0 17.5
1 0 17.5
1.5 0 17.5
2 0 17.5
2.5 0 17.5
3 0 17.5
3.5 0 17.5
4 0 17.5
4.5 0 17.5
0.5 0 18
1 0 18
1.5 0 18
2 0 18
2.5 0 18
3 0 18
3.5 0 18
4 0 18
4.5 0 18
0.5 0 18.5
1 0 18.5
1.5 0 18.5
2 0 18.5
2.5 0 18.5
3 0 18.5
3.5 0 18.5
4 0 18.5
4.5 0 18.5
0.5 0 19
1 0 19
1.5 0 19
2 0 19
2.5 0 19
3 0 19
3.5 0 19
4 0 19
4.5 0 19
0.5 0 19.5
1 0 19.5
1.5 0 19.5
2 0 19.5
2.5 0 19.5
3 0 19.5
3.5 0 19.5
4 0 19.5
4.5 0 19.5
0.5 5 5.5
1 5 5.5
1.5 5 5.5
2 5 5.5
2.5 5 5.5
3 5 5.5
3.5 5 5.5
4 5 5.5
4.5 5 5.5
0.5 5 6
1 5 6
1.5 5 6
2 5 6
2.5 5 6
3 5 6
3.5 5 6
4 5 6
4.5 5 6
0.5 5 6.5
1 5 6.5
1.5 5 6.5
2 5 6.5
2.5 5 6.5
3 5 6.5
3.5 5 6.5
4 5 6.5
4.5 5 6.5
0.5 5 7
1 5 7
1.5 5 7
2 5 7
2.5 5 7
3 5 7
3.5 5 7
4 5 7
4.5 5 7
0.5 5 7.5
1 5 7.5
1.5 5 7.5
2 5 7.5
2.5 5 7.5
3 5 7.5
3.5 5 7.5
4 5 7.5
4.5 5 7.5
0.5 5 8
1 5 8
1.5 5 8
2 5 8
2.5 5 8
3 5 8
3.5 5 8
4 5 8
4.5 5 8
0.5 5 8.5
1 5 8.5
1.5 5 8.5
2 5 8.5
2.5 5 8.5
3 5 8.5
3.5 5 8.5
4 5 8.5
4.5 5 8.5
0.5 5 9
1 5 9
1.5 5 9
2 5 9
2.5 5 9
3 5 9
3.5 5 9
4 5 9
4.5 5 9
0.5 5 9.5
1 5 9.5
1.5 5 9.5
2 5 9.5
2.5 5 9.5
3 5 9.5
3.5 5 9.5
4 5 9.5
4.5 5 9.5
0.5 5 10
1 5 10
1.5 5 10
2 5 10
2.5 5 10
3 5 10
3.5 5 10
4 5 10
4.5 5 10
0.5 5 10.5
1 5 10.5
1.5 5 10.5
2 5 10.5
2.5 5 10.5
3 5 10.5
3.5 5 10.5
4 5 10.5
4.5 5 10.5
0.5 5 11
1 5 11
1.5 5 11
2 5 11
2.5 5 11
3 5 11
3.5 5 11
4 5 11
4.5 5 11
0.5 5 11.5
1 5 11.5
1.5 5 11.5
2 5 11.5
2.5 5 11.5
3 5 11.5
3.5 5 11.5
4 5 11.5
4.5 5 11.5
0.5 5 12
1 5 12
1.5 5 12
2 5 12
2.5 5 12
3 5 12
3.5 5 12
4 5 12
4.5 5 12
0.5 5 12.5
1 5 12.5
1.5 5 12.5
2 5 12.5
2.5 5 12.5
3 5 12.5
3.5 5 12.5
4 5 12.5
4.5 5 12.5
0.5 5 13
1 5 13
1.5 5 13
2 5 13
2.5 5 13
3 5 13
3.5 5 13
4 5 13
4.5 5 13
0.5 5 13.5
1 5 13.5
1.5 5 13.5
2 5 13.5
2.5 5 13.5
3 5 13.5
3.5 5 13.5
4 5 13.5
4.5 5 13.5
0.5 5 14
1 5 14
1.5 5 14
2 5 14
2.5 5 14
3 5 14
3.5 5 14
4 5 14
4.5 5 14
0.5 5 14.5
1 5 14.5
1.5 5 14.5
2 5 14.5
2.5 5 14.5
3 5 14.5
3.5 5 14.5
4 5 14.5
4.5 5 14.5
0.5 5 15
1 5 15
1.5 5 15
2 5 15
2.5 5 15
3 5 15
3.5 5 15
4 5 15
4.5 5 15
0.5 5 15.5
1 5 15.5
1.5 5 15.5
2 5 15.5
2.5 5 15.5
3 5 15.5
3.5 5 15.5
4 5 15.5
4.5 5 15.5
0.5 5 16
1 5 16
1.5 5 16
2 5 16
2.5 5 16
3 5 16
3.5 5 16
4 5 16
4.5 5 16
0.5 5 16.5
1 5 16.5
1.5 5 16.5
2 5 16.5
2.5 5 16.5
3 5 16.5
3.5 5 16.5
4 5 16.5
4.5 5 16.5
0.5 5 17
1 5 17
1.5 5 17
2 5 17
2.5 5 17
3 5 17
3.5 5 17
4 5 17
4.5 5 17
0.5 5 17.5
1 5 17.5
1.5 5 17.5
2 5 17.5
2.5 5 17.5
3 5 17.5
3.5 5 17.5
4 5 17.5
4.5 5 17.5
0.5 5 18
1 5 18
1.5 5 18
2 5 18
2.5 5 18
3 5 18
3.5 5 18
4 5 18
4.5 5 18
0.5 5 18.5
1 5 18.5
1.5 5 18.5
2 5 18.5
2.5 5 18.5
3 5 18.5
3.5 5 18.5
4 5 18.5
4.5 5 18.5
0.5 5 19
1 5 19
1.5 5 19
2 5 19
2.5 5 19
3 5 19
3.5 5 19
4 5 19
4.5 5 19
0.5 5 19.5
1 5 19.5
1.5 5 19.5
2 5 19.5
2.5 5 19.5
3 5 19.5
3.5 5 19.5
4 5 19.5
4.5 5 19.5
0 0.5 5.5
0 0.5 6
0 0.5 6.5
0 0.5 7
0 0.5 7.5
0 0.5 8
0 0.5 8.5
0 0.5 9
0 0.5 9.5
0 0.5 10
0 0.5 10.5
0 0.5 11
0 0.5 11.5
0 0.5 12
0 0.5 12.5
0 0.5 13
0 0.5 13.5
0 0.5 14
0 0.5 14.5
0 0.5 15
0 0.5 15.5
0 0.5 16
0 0.5 16.5
0 0.5 17
0 0.5 17.5
0 0.5 18
0 0.5 18.5
0 0.5 19
0 0.5 19.5
0 1 5.5
0 1 6
0 1 6.5
0 1 7
0 1 7.5
0 1 8
0 1 8.5
0 1 9
0 1 9.5
0 1 10
0 1 10.5
0 1 11
0 1 11.5
0 1 12
0 1 12.5
0 1 13
0 1 13.5
0 1 14
0 1 14.5
0 1 15
0 1 15.5
0 1 16
0 1 16.5
0 1 17
0 1 17.5
0 1 18
0 1 18.5
0 1 19
0 1 19.5
0 1.5 5.5
0 1.5 6
0 1.5 6.5
0 1.5 7
0 1.5 7.5
0 1.5 8
0 1.5 8.5
0 1.5 9
0 1.5 9.5
0 1.5 10
0 1.5 10.5
0 1.5 11
0 1.5 11.5
0 1.5 12
0 1.5 12.5
0 1.5 13
0 1.5 13.5
0 1.5 14
0 1.5 14.5
0 1.5 15
0 1.5 15.5
0 1.5 16
0 1.5 16.5
0 1.5 17
0 1.5 17.5
0 1.5 18
0 1.5 18.5
0 1.5 19
0 1.5 19.5
0 2 5.5
0 2 6
0 2 6.5
0 2 7
0 2 7.5
0 2 8
0 2 8.5
0 2 9
0 2 9.5
0 2 10
0 2 10.5
0 2 11
0 2 11.5
0 2 12
0 2 12.5
0 2 13
0 2 13.5
0 2 14
0 2 14.5
0 2 15
0 2 15.5
0 2 16
0 2 16.5
0 2 17
0 2 17.5
0 2 18
0 2 18.5
0 2 19
0 2 19.5
0 2.5 5.5
0 2.5 6
0 2.5 6.5
0 2.5 7
0 2.5 7.5
0 2.5 8
0 2.5 8.5
0 2.5 9
0 2.5 9.5
0 2.5 10
0 2.5 10.5
0 2.5 11
0 2.5 11.5
0 2.5 12
0 2.5 12.5
0 2.5 13
0 2.5 13.5
0 2.5 14
0 2.5 14.5
0 2.5 15
0 2.5 15.5
0 2.5 16
0 2.5 16.5
0 2.5 17
0 2.5 17.5
0 2.5 18
0 2.5 18.5
0 2.5 19
0 2.5 19.5
0 3 5.5
0 3 6
0 3 6.5
0 3 7
0 3 7.5
0 3 8
0 3 8.5
0 3 9
0 3 9.5
0 3 10
0 3 10.5
0 3 11
0 3 11.5
0 3 12
0 3 12.5
0 3 13
0 3 13.5
0 3 14
0 3 14.5
0 3 15
0 3 15.5
0 3 16
0 3 16.5
0 3 17
0 3 17.5
0 3 18
0 3 18.5
0 3 19
0 3 19.5
0 3.5 5.5
0 3.5 6
0 3.5 6.5
0 3.5 7
0 3.5 7.5
0 3.5 8
0 3.5 8.5
0 3.5 9
0 3.5 9.5
0 3.5 10
0 3.5 10.5
0 3.5 11
0 3.5 11.5
0 3.5 12
0 3.5 12.5
0 3.5 13
0 3.5 13.5
0 3.5 14
0 3.5 14.5
0 3.5 15
0 3.5 15.5
0 3.5 16
0 3.5 16.5
0 3.5 17
0 3.5 17.5
0 3.5 18
0 3.5 18.5
0 3.5 19
0 3.5 19.5
0 4 5.5
0 4 6
0 4 6.5
0 4 7
0 4 7.5
0 4 8
0 4 8.5
0 4 9
0 4 9.5
0 4 10
0 4 10.5
0 4 11
0 4 11.5
0 4 12
0 4 12.5
0 4 13
0 4 13.5
0 4 14
0 4 14.5
0 4 15
0 4 15.5
0 4 16
0 4 16.5
0 4 17
0 4 17.5
0 4 18
0 4 18.5
0 4 19
0 4 19.5
0 4.5 5.5
0 4.5 6
0 4.5 6.5
0 4.5 7
0 4.5 7.5
0 4.5 8
0 4.5 8.5
0 4.5 9
0 4.5 9.5
0 4.5 10
0 4.5 10.5
0 4.5 11
0 4.5 11.5
0 4.5 12
0 4.5 12.5
0 4.5 13
0 4.5 13.5
0 4.5 14
0 4.5 14.5
0 4.5 15
0 4.5 15.5
0 4.5 16
0 4.5 16.5
0 4.5 17
0 4.5 17.5
0 4.5 18
0 4.5 18.5
0 4.5 19
0 4.5 19.5
5 0.5 5.5
5 0.5 6
5 0.5 6.5
5 0.5 7
5 0.5 7.5
5 0.5 8
5 0.5 8.5
5 0.5 9
5 0.5 9.5
5 0.5 10
5 0.5 10.5
5 0.5 11
5 0.5 11.5
5 0.5 12
5 0.5 12.5
5 0.5 13
5 0.5 13.5
5 0.5 14
5 0.5 14.5
5 0.5 15
5 0.5 15.5
5 0.5 16
5 0.5 16.5
5 0.5 17
5 0.5 17.5
5 0.5 18
5 0.5 18.5
5 0.5 19
5 0.5 19.5
5 1 5.5
5 1 6
5 1 6.5
5 1 7
5 1 7.5
5 1 8
5 1 8.5
5 1 9
5 1 9.5
5 1 10
5 1 10.5
5 1 11
5 1 11.5
5 1 12
5 1 12.5
5 1 13
5 1 13.5
5 1 14
5 1 14.5
5 1 15
5 1 15.5
5 1 16
5 1 16.5
5 1 17
5 1 17.5
5 1 18
5 1 18.5
5 1 19
5 1 19.5
5 1.5 5.5
5 1.5 6
5 1.5 6.5
5 1.5 7
5 1.5 7.5
5 1.5 8
5 1.5 8.5
5 1.5 9
5 1.5 9.5
5 1.5 10
5 1.5 10.5
5 1.5 11
5 1.5 11.5
5 1.5 12
5 1.5 12.5
5 1.5 13
5 1.5 13.5
5 1.5 14
5 1.5 14.5
5 1.5 15
5 1.5 15.5
5 1.5 16
5 1.5 16.5
5 1.5 17
5 1.5 17.5
5 1.5 18
5 1.5 18.5
5 1.5 19
5 1.5 19.5
5 2 5.5
5 2 6
5 2 6.5
5 2 7
5 2 7.5
5 2 8
5 2 8.5
5 2 9
5 2 9.5
5 2 10
5 2 10.5
5 2 11
5 2 11.5
5 2 12
5 2 12.5
5 2 13
5 2 13.5
5 2 14
5 2 14.5
5 2 15
5 2 15.5
5 2 16
5 2 16.5
5 2 17
5 2 17.5
5 2 18
5 2 18.5
5 2 19
5 2 19.5
5 2.5 5.5
5 2.5 6
5 2.5 6.5
5 2.5 7
5 2.5 7.5
5 2.5 8
5 2.5 8.5
5 2.5 9
5 2.5 9.5
5 2.5 10
5 2.5 10.5
5 2.5 11
5 2.5 11.5
5 2.5 12
5 2.5 12.5
5 2.5 13
5 2.5 13.5
5 2.5 14
5 2.5 14.5
5 2.5 15
5 2.5 15.5
5 2.5 16
5 2.5 16.5
5 2.5 17
5 2.5 17.5
5 2.5 18
5 2.5 18.5
5 2.5 19
5 2.5 19.5
5 3 5.5
5 3 6
5 3 6.5
5 3 7
5 3 7.5
5 3 8
5 3 8.5
5 3 9
5 3 9.5
5 3 10
5 3 10.5
5 3 11
5 3 11.5
5 3 12
5 3 12.5
5 3 13
5 3 13.5
5 3 14
5 3 14.5
5 3 15
5 3 15.5
5 3 16
5 3 16.5
5 3 17
5 3 17.5
5 3 18
5 3 18.5
5 3 19
5 3 19.5
5 3.5 5.5
5 3.5 6
5 3.5 6.5
5 3.5 7
5 3.5 7.5
5 3.5 8
5 3.5 8.5
5 3.5 9
5 3.5 9.5
5 3.5 10
5 3.5 10.5
5 3.5 11
5 3.5 11.5
5 3.5 12
5 3.5 12.5
5 3.5 13
5 3.5 13.5
5 3.5 14
5 3.5 14.5
5 3.5 15
5 3.5 15.5
5 3.5 16
5 3.5 16.5
5 3.5 17
5 3.5 17.5
5 3.5 18
5 3.5 18.5
5 3.5 19
5 3.5 19.5
5 4 5.5
5 4 6
5 4 6.5
5 4 7
5 4 7.5
5 4 8
5 4 8.5
5 4 9
5 4 9.5
5 4 10
5 4 10.5
5 4 11
5 4 11.5
5 4 12
5 4 12.5
5 4 13
5 4 13.5
5 4 14
5 4 14.5
5 4 15
5 4 15.5
5 4 16
5 4 16.5
5 4 17
5 4 17.5
5 4 18
5 4 18.5
5 4 19
5 4 19.5
5 4.5 5.5
5 4.5 6
5 4.5 6.5
5 4.5 7
5 4.5 7.5
5 4.5 8
5 4.5 8.5
5 4.5 9
5 4.5 9.5
5 4.5 10
5 4.5 10.5
5 4.5 11
5 4.5 11.5
5 4.5 12
5 4.5 12.5
5 4.5 13
5 4.5 13.5
5 4.5 14
5 4.5 14.5
5 4.5 15
5 4.5 15.5
5 4.5 16
5 4.5 16.5
5 4.5 17
5 4.5 17.5
5 4.5 18
5 4.5 18.5
5 4.5 19
5 4.5 19.5
0.5 0.5 5
1 0.5 5
1.5 0.5 5
2 0.5 5
2.5 0.5 5
3 0.5 5
3.5 0.5 5
4 0.5 5
4.5 0.5 5
0.5 1 5
1 1 5
1.5 1 5
2 1 5
2.5 1 5
3 1 5
3.5 1 5
4 1 5
4.5 1 5
0.5 1.5 5
1 1.5 5
1.5 1.5 5
2 1.5 5
2.5 1.5 5
3 1.5 5
3.5 1.5 5
4 1.5 5
4.5 1.5 5
0.5 2 5
1 2 5
1.5 2 5
2 2 5
2.5 2 5
3 2 5
3.5 2 5
4 2 5
4.5 2 5
0.5 2.5 5
1 2.5 5
1.5 2.5 5
2 2.5 5
2.5 2.5 5
3 2.5 5
3.5 2.5 5
4 2.5 5
4.5 2.5 5
0.5 3 5
1 3 5
1.5 3 5
2 3 5
2.5 3 5
3 3 5
3.5 3 5
4 3 5
4.5 3 5
0.5 3.5 5
1 3.5 5
1.5 3.5 5
2 3.5 5
2.5 3.5 5
3 3.5 5
3.5 3.5 5
4 3.5 5
4.5 3.5 5
0.5 4 5
1 4 5
1.5 4 5
2 4 5
2.5 4 5
3 4 5
3.5 4 5
4 4 5
4.5 4 5
0.5 4.5 5
1 4.5 5
1.5 4.5 5
2 4.5 5
2.5 4.5 5
3 4.5 5
3.5 4.5 5
4 4.5 5
4.5 4.5 5
0.5 0.5 20
1 0.5 20
1.5 0.5 20
2 0.5 20
2.5 0.5 20
3 0.5 20
3.5 0.5 20
4 0.5 20
4.5 0.5 20
0.5 1 20
1 1 20
1.5 1 20
2 1 20
2.5 1 20
3 1 20
3.5 1 20
4 1 20
4.5 1 20
0.5 1.5 20
1 1.5 20
1.5 1.5 20
2 1.5 20
2.5 1.5 20
3 1.5 20
3.5 1.5 20
4 1.5 20
4.5 1.5 20
0.5 2 20
1 2 20
1.5 2 20
2 2 20
2.5 2 20
3 2 20
3.5 2 20
4 2 20
4.5 2 20
0.5 2.5 20
1 2.5 20
1.5 2.5 20
2 2.5 20
2.5 2.5 20
3 2.5 20
3.5 2.5 20
4 2.5 20
4.5 2.5 20
0.5 3 20
1 3 20
1.5 3 20
2 3 20
2.5 3 20
3 3 20
3.5 3 20
4 3 20
4.5 3 20
0.5 3.5 20
1 3.5 20
1.5 3.5 20
2 3.5 20
2.5 3.5 20
3 3.5 20
3.5 3.5 20
4 3.5 20
4.5 3.5 20
0.5 4 20
1 4 20
1.5 4 20
2 4 20
2.5 4 20
3 4 20
3.5 4 20
4 4 20
4.5 4 20
0.5 4.5 20
1 4.5 20
1.5 4.5 20
2 4.5 20
2.5 4.5 20
3 4.5 20
3.5 4.5 20
4 4.5 20
4.5 4.5 20
4.5 0 4.5
4 0 4.5
3.5 0 4.5
3 0 4.5
2.5 0 4.5
2 0 4.5
1.5 0 4.5
1 0 4.5
0.5 0 4.5
4.5 0 4
4 0 4
3.5 0 4
3 0 4
2.5 0 4
2 0 4
1.5 0 4
1 0 4
0.5 0 4
4.5 0 3.5
4 0 3.5
3.5 0 3.5
3 0 3.5
2.5 0 3.5
2 0 3.5
1.5 0 3.5
1 0 3.5
0.5 0 3.5
4.5 0 3
4 0 3
3.5 0 3
3 0 3
2.5 0 3
2 0 3
1.5 0 3
1 0 3
0.5 0 3
4.5 0 2.5
4 0 2.5
3.5 0 2.5
3 0 2.5
2.5 0 2.5
2 0 2.5
1.5 0 2.5
1 0 2.5
0.5 0 2.5
4.5 0 2
4 0 2
3.5 0 2
3 0 2
2.5 0 2
2 0 2
1.5 0 2
1 0 2
0.5 0 2
4.5 0 1.5
4 0 1.5
3.5 0 1.5
3 0 1.5
2.5 0 1.5
2 0 1.5
1.5 0 1.5
1 0 1.5
0.5 0 1.5
4.5 0 1
4 0 1
3.5 0 1
3 0 1
2.5 0 1
2 0 1
1.5 0 1
1 0 1
0.5 0 1
4.5 0 0.5
4 0 0.5
3.5 0 0.5
3 0 0.5
2.5 0 0.5
2 0 0.5
1.5 0 0.5
1 0 0.5
0.5 0 0.5
4.5 5 4.5
4 5 4.5
3.5 5 4.5
3 5 4.5
2.5 5 4.5
2 5 4.5
1.5 5 4.5
1 5 4.5
0.5 5 4.5
4.5 5 4
4 5 4
3.5 5 4
3 5 4
2.5 5 4
2 5 4
1.5 5 4
1 5 4
0.5 5 4
4.5 5 3.5
4 5 3.5
3.5 5 3.5
3 5 3.5
2.5 5 3.5
2 5 3.5
1.5 5 3.5
1 5 3.5
0.5 5 3.5
4.5 5 3
4 5 3
3.5 5 3
3 5 3
2.5 5 3
2 5 3
1.5 5 3
1 5 3
0.5 5 3
4.5 5 2.5
4 5 2.5
3.5 5 2.5
3 5 2.5
2.5 5 2.5
2 5 2.5
1.5 5 2.5
1 5 2.5
0.5 5 2.5
4.5 5 2
4 5 2
3.5 5 2
3 5 2
2.5 5 2
2 5 2
1.5 5 2
1 5 2
0.5 5 2
4.5 5 1.5
4 5 1.5
3.5 5 1.5
3 5 1.5
2.5 5 1.5
2 5 1.5
1.5 5 1.5
1 5 1.5
0.5 5 1.5
4.5 5 1
4 5 1
3.5 5 1
3 5 1
2.5 5 1
2 5 1
1.5 5 1
1 5 1
0.5 5 1
4.5 5 0.5
4 5 0.5
3.5 5 0.5
3 5 0.5
2.5 5 0.5
2 5 0.5
1.5 5 0.5
1 5 0.5
0.5 5 0.5
5 0.5 4.5
5 0.5 4
5 0.5 3.5
5 0.5 3
5 0.5 2.5
5 0.5 2
5 0.5 1.5
5 0.5 1
5 0.5 0.5
5 1 4.5
5 1 4
5 1 3.5
5 1 3
5 1 2.5
5 1 2
5 1 1.5
5 1 1
5 1 0.5
5 1.5 4.5
5 1.5 4
5 1.5 3.5
5 1.5 3
5 1.5 2.5
5 1.5 2
5 1.5 1.5
5 1.5 1
5 1.5 0.5
5 2 4.5
5 2 4
5 2 3.5
5 2 3
5 2 2.5
5 2 2
5 2 1.5
5 2 1
5 2 0.5
5 2.5 4.5
5 2.5 4
5 2.5 3.5
5 2.5 3
5 2.5 2.5
5 2.5 2
5 2.5 1.5
5 2.5 1
5 2.5 0.5
5 3 4.5
5 3 4
5 3 3.5
5 3 3
5 3 2.5
5 3 2
5 3 1.5
5 3 1
5 3 0.5
5 3.5 4.5
5 3.5 4
5 3.5 3.5
5 3.5 3
5 3.5 2.5
5 3.5 2
5 3.5 1.5
5 3.5 1
5 3.5 0.5
5 4 4.5
5 4 4
5 4 3.5
5 4 3
5 4 2.5
5 4 2
5 4 1.5
5 4 1
5 4 0.5
5 4.5 4.5
5 4.5 4
5 4.5 3.5
5 4.5 3
5 4.5 2.5
5 4.5 2
5 4.5 1.5
5 4.5 1
5 4.5 0.5
0 0.5 4.5
0 0.5 4
0 0.5 3.5
0 0.5 3
0 0.5 2.5
0 0.5 2
0 0.5 1.5
0 0.5 1
0 0.5 0.5
0 1 4.5
0 1 4
0 1 3.5
0 1 3
0 1 2.5
0 1 2
0 1 1.5
0 1 1
0 1 0.5
0 1.5 4.5
0 1.5 4
0 1.5 3.5
0 1.5 3
0 1.5 2.5
0 1.5 2
0 1.5 1.5
0 1.5 1
0 1.5 0.5
0 2 4.5
0 2 4
0 2 3.5
0 2 3
0 2 2.5
0 2 2
0 2 1.5
0 2 1
0 2 0.5
0 2.5 4.5
0 2.5 4
0 2.5 3.5
0 2.5 3
0 2.5 2.5
0 2.5 2
0 2.5 1.5
0 2.5 1
0 2.5 0.5
0 3 4.5
0 3 4
0 3 3.5
0 3 3
0 3 2.5
0 3 2
0 3 1.5
0 3 1
0 3 0.5
0 3.5 4.5
0 3.5 4
0 3.5 3.5
0 3.5 3
0 3.5 2.5
0 3.5 2
0 3.5 1.5
0 3.5 1
0 3.5 0.5
0 4 4.5
0 4 4
0 4 3.5
0 4 3
0 4 2.5
0 4 2
0 4 1.5
0 4 1
0 4 0.5
0 4.5 4.5
0 4.5 4
0 4.5 3.5
0 4.5 3
0 4.5 2.5
0 4.5 2
0 4.5 1.5
0 4.5 1
0 4.5 0.5
4.5 0.5 0
4 0.5 0
3.5 0.5 0
3 0.5 0
2.5 0.5 0
2 0.5 0
1.5 0.5 0
1 0.5 0
0.5 0.5 0
4.5 1 0
4 1 0
3.5 1 0
3 1 0
2.5 1 0
2 1 0
1.5 1 0
1 1 0
0.5 1 0
4.5 1.5 0
4 1.5 0
3.5 1.5 0
3 1.5 0
2.5 1.5 0
2 1.5 0
1.5 1.5 0
1 1.5 0
0.5 1.5 0
4.5 2 0
4 2 0
3.5 2 0
3 2 0
2.5 2 0
2 2 0
1.5 2 0
1 2 0
0.5 2 0
4.5 2.5 0
4 2.5 0
3.5 2.5 0
3 2.5 0
2.5 2.5 0
2 2.5 0
1.5 2.5 0
1 2.5 0
0.5 2.5 0
4.5 3 0
4 3 0
3.5 3 0
3 3 0
2.5 3 0
2 3 0
1.5 3 0
1 3 0
0.5 3 0
4.5 3.5 0
4 3.5 0
3.5 3.5 0
3 3.5 0
2.5 3.5 0
2 3.5 0
1.5 3.5 0
1 3.5 0
0.5 3.5 0
4.5 4 0
4 4 0
3.5 4 0
3 4 0
2.5 4 0
2 4 0
1.5 4 0
1 4 0
0.5 4 0
4.5 4.5 0
4 4.5 0
3.5 4.5 0
3 4.5 0
2.5 4.5 0
2 4.5 0
1.5 4.5 0
1 4.5 0
0.5 4.5 0
0.5 0.5 5.5
1 0.5 5.5
1.5 0.5 5.5
2 0.5 5.5
2.5 0.5 5.5
3 0.5 5.5
3.5 0.5 5.5
4 0.5 5.5
4.5 0.5 5.5
0.5 0.5 6
1 0.5 6
1.5 0.5 6
2 0.5 6
2.5 0.5 6
3 0.5 6
3.5 0.5 6
4 0.5 6
4.5 0.5 6
0.5 0.5 6.5
1 0.5 6.5
1.5 0.5 6.5
2 0.5 6.5
2.5 0.5 6.5
3 0.5 6.5
3.5 0.5 6.5
4 0.5 6.5
4.5 0.5 6.5
0.5 0.5 7
1 0.5 7
1.5 0.5 7
2 0.5 7
2.5 0.5 7
3 0.5 7
3.5 0.5 7
4 0.5 7
4.5 0.5 7
0.5 0.5 7.5
1 0.5 7.5
1.5 0.5 7.5
2 0.5 7.5
2.5 0.5 7.5
3 0.5 7.5
3.5 0.5 7.5
4 0.5 7.5
4.5 0.5 7.5
0.5 0.5 8
1 0.5 8
1.5 0.5 8
2 0.5 8
2.5 0.5 8
3 0.5 8
3.5 0.5 8
4 0.5 8
4.5 0.5 8
0.5 0.5 8.5
1 0.5 8.5
1.5 0.5 8.5
2 0.5 8.5
2.5 0.5 8.5
3 0.5 8.5
3.5 0.5 8.5
4 0.5 8.5
4.5 0.5 8.5
0.5 0.5 9
1 0.5 9
1.5 0.5 9
2 0.5 9
2.5 0.5 9
3 0.5 9
3.5 0.5 9
4 0.5 9
4.5 0.5 9
0.5 0.5 9.5
1 0.5 9.5
1.5 0.5 9.5
2 0.5 9.5
2.5 0.5 9.5
3 0.5 9.5
3.5 0.5 9.5
4 0.5 9.5
4.5 0.5 9.5
0.5 0.5 10
1 0.5 10
1.5 0.5 10
2 0.5 10
2.5 0.5 10
3 0.5 10
3.5 0.5 10
4 0.5 10
4.5 0.5 10
0.5 0.5 10.5
1 0.5 10.5
1.5 0.5 10.5
2 0.5 10.5
2.5 0.5 10.5
3 0.5 10.5
3.5 0.5 10.5
4 0.5 10.5
4.5 0.5 10.5
0.5 0.5 11
1 0.5 11
1.5 0.5 11
2 0.5 11
2.5 0.5 11
3 0.5 11
3.5 0.5 11
4 0.5 11
4.5 0.5 11
0.5 0.5 11.5
1 0.5 11.5
1.5 0.5 11.5
2 0.5 11.5
2.5 0.5 11.5
3 0.5 11.5
3.5 0.5 11.5
4 0.5 11.5
4.5 0.5 11.5
0.5 0.5 12
1 0.5 12
1.5 0.5 12
2 0.5 12
2.5 0.5 12
3 0.5 12
3.5 0.5 12
4 0.5 12
4.5 0.5 12
0.5 0.5 12.5
1 0.5 12.5
1.5 0.5 12.5
2 0.5 12.5
2.5 0.5 12.5
3 0.5 12.5
3.5 0.5 12.5
4 0.5 12.5
4.5 0.5 12.5
0.5 0.5 13
1 0.5 13
1.5 0.5 13
2 0.5 13
2.5 0.5 13
3 0.5 13
3.5 0.5 13
4 0.5 13
4.5 0.5 13
0.5 0.5 13.5
1 0.5 13.5
1.5 0.5 13.5
2 0.5 13.5
2.5 0.5 13.5
3 0.5 13.5
3.5 0.5 13.5
4 0.5 13.5
4.5 0.5 13.5
0.5 0.5 14
1 0.5 14
1.5 0.5 14
2 0.5 14
2.5 0.5 14
3 0.5 14
3.5 0.5 14
4 0.5 14
4.5 0.5 14
0.5 0.5 14.5
1 0.5 14.5
1.5 0.5 14.5
2 0.5 14.5
2.5 0.5 14.5
3 0.5 14.5
3.5 0.5 14.5
4 0.5 14.5
4.5 0.5 14.5
0.5 0.5 15
1 0.5 15
1.5 0.5 15
2 0.5 15
2.5 0.5 15
3 0.5 15
3.5 0.5 15
4 0.5 15
4.5 0.5 15
0.5 0.5 15.5
1 0.5 15.5
1.5 0.5 15.5
2 0.5 15.5
2.5 0.5 15.5
3 0.5 15.5
3.5 0.5 15.5
4 0.5 15.5
4.5 0.5 15.5
0.5 0.5 16
1 0.5 16
1.5 0.5 16
2 0.5 16
2.5 0.5 16
3 0.5 16
3.5 0.5 16
4 0.5 16
4.5 0.5 16
0.5 0.5 16.5
1 0.5 16.5
1.5 0.5 16.5
2 0.5 16.5
2.5 0.5 16.5
3 0.5 16.5
3.5 0.5 16.5
4 0.5 16.5
4.5 0.5 16.5
0.5 0.5 17
1 0.5 17
1.5 0.5 17
2 0.5 17
2.5 0.5 17
3 0.5 17
3.5 0.5 17
4 0.5 17
4.5 0.5 17
0.5 0.5 17.5
1 0.5 17.5
1.5 0.5 17.5
2 0.5 17.5
2.5 0.5 17.5
3 0.5 17.5
3.5 0.5 17.5
4 0.5 17.5
4.5 0.5 17.5
0.5 0.5 18
1 0.5 18
1.5 0.5 18
2 0.5 18
2.5 0.5 18
3 0.5 18
3.5 0.5 18
4 0.5 18
4.5 0.5 18
0.5 0.5 18.5
1 0.5 18.5
1.5 0.5 18.5
2 0.5 18.5
2.5 0.5 18.5
3 0.5 18.5
3.5 0.5 18.5
4 0.5 18.5
4.5 0.5 18.5
0.5 0.5 19
1 0.5 19
1.5 0.5 19
2 0.5 19
2.5 0.5 19
3 0.5 19
3.5 0.5 19
4 0.5 19
4.5 0.5 19
0.5 0.5 19.5
1 0.5 19.5
1.5 0.5 19.5
2 0.5 19.5
2.5 0.5 19.5
3 0.5 19.5
3.5 0.5 19.5
4 0.5 19.5
4.5 0.5 19.5
0.5 1 5.5
1 1 5.5
1.5 1 5.5
2 1 5.5
2.5 1 5.5
3 1 5.5
3.5 1 5.5
4 1 5.5
4.5 1 5.5
0.5 1 6
1 1 6
1.5 1 6
2 1 6
2.5 1 6
3 1 6
3.5 1 6
4 1 6
4.5 1 6
0.5 1 6.5
1 1 6.5
1.5 1 6.5
2 1 6.5
2.5 1 6.5
3 1 6.5
3.5 1 6.5
4 1 6.5
4.5 1 6.5
0.5 1 7
1 1 7
1.5 1 7
2 1 7
2.5 1 7
3 1 7
3.5 1 7
4 1 7
4.5 1 7
0.5 1 7.5
1 1 7.5
1.5 1 7.5
2 1 7.5
2.5 1 7.5
3 1 7.5
3.5 1 7.5
4 1 7.5
4.5 1 7.5
0.5 1 8
1 1 8
1.5 1 8
2 1 8
2.5 1 8
3 1 8
3.5 1 8
4 1 8
4.5 1 8
0.5 1 8.5
1 1 8.5
1.5 1 8.5
2 1 8.5
2.5 1 8.5
3 1 8.5
3.5 1 8.5
4 1 8.5
4.5 1 8.5
0.5 1 9
1 1 9
1.5 1 9
2 1 9
2.5 1 9
3 1 9
3.5 1 9
4 1 9
4.5 1 9
0.5 1 9.5
1 1 9.5
1.5 1 9.5
2 1 9.5
2.5 1 9.5
3 1 9.5
3.5 1 9.5
4 1 9.5
4.5 1 9.5
0.5 1 10
1 1 10
1.5 1 10
2 1 10
2.5 1 10
3 1 10
3.5 1 10
4 1 10
4.5 1 10
0.5 1 10.5
1 1 10.5
1.5 1 10.5
2 1 10.5
2.5 1 10.5
3 1 10.5
3.5 1 10.5
4 1 10.5
4.5 1 10.5
0.5 1 11
1 1 11
1.5 1 11
2 1 11
2.5 1 11
3 1 11
3.5 1 11
4 1 11
4.5 1 11
0.5 1 11.5
1 1 11.5
1.5 1 11.5
2 1 11.5
2.5 1 11.5
3 1 11.5
3.5 1 11.5
4 1 11.5
4.5 1 11.5
0.5 1 12
1 1 12
1.5 1 12
2 1 12
2.5 1 12
3 1 12
3.5 1 12
4 1 12
4.5 1 12
0.5 1 12.5
1 1 12.5
1.5 1 12.5
2 1 12.5
2.5 1 12.5
3 1 12.5
3.5 1 12.5
4 1 12.5
4.5 1 12.5
0.5 1 13
1 1 13
1.5 1 13
2 1 13
2.5 1 13
3 1 13
3.5 1 13
4 1 13
4.5 1 13
0.5 1 13.5
1 1 13.5
1.5 1 13.5
2 1 13.5
2.5 1 13.5
3 1 13.5
3.5 1 13.5
4 1 13.5
4.5 1 13.5
0.5 1 14
1 1 14
1.5 1 14
2 1 14
2.5 1 14
3 1 14
3.5 1 14
4 1 14
4.5 1 14
0.5 1 14.5
1 1 14.5
1.5 1 14.5
2 1 14.5
2.5 1 14.5
3 1 14.5
3.5 1 14.5
4 1 14.5
4.5 1 14.5
0.5 1 15
1 1 15
1.5 1 15
2 1 15
2.5 1 15
3 1 15
3.5 1 15
4 1 15
4.5 1 15
0.5 1 15.5
1 1 15.5
1.5 1 15.5
2 1 15.5
2.5 1 15.5
3 1 15.5
3.5 1 15.5
4 1 15.5
4.5 1 15.5
0.5 1 16
1 1 16
1.5 1 16
2 1 16
2.5 1 16
3 1 16
3.5 1 16
4 1 16
4.5 1 16
0.5 1 16.5
1 1 16.5
1.5 1 16.5
2 1 16.5
2.5 1 16.5
3 1 16.5
3.5 1 16.5
4 1 16.5
4.5 1 16.5
0.5 1 17
1 1 17
1.5 1 17
2 1 17
2.5 1 17
3 1 17
3.5 1 17
4 1 17
4.5 1 17
0.5 1 17.5
1 1 17.5
1.5 1 17.5
2 1 17.5
2.5 1 17.5
3 1 17.5
3.5 1 17.5
4 1 17.5
4.5 1 17.5
0.5 1 18
1 1 18
1.5 1 18
2 1 18
2.5 1 18
3 1 18
3.5 1 18
4 1 18
4.5 1 18
0.5 1 18.5
1 1 18.5
1.5 1 18.5
2 1 18.5
2.5 1 18.5
3 1 18.5
3.5 1 18.5
4 1 18.5
4.5 1 18.5
0.5 1 19
1 1 19
1.5 1 19
2 1 19
2.5 1 19
3 1 19
3.5 1 19
4 1 19
4.5 1 19
0.5 1 19.5
1 1 19.5
1.5 1 19.5
2 1 19.5
2.5 1 19.5
3 1 19.5
3.5 1 19.5
4 1 19.5
4.5 1 19.5
0.5 1.5 5.5
1 1.5 5.5
1.5 1.5 5.5
2 1.5 5.5
2.5 1.5 5.5
3 1.5 5.5
3.5 1.5 5.5
4 1.5 5.5
4.5 1.5 5.5
0.5 1.5 6
1 1.5 6
1.5 1.5 6
2 1.5 6
2.5 1.5 6
3 1.5 6
3.5 1.5 6
4 1.5 6
4.5 1.5 6
0.5 1.5 6.5
1 1.5 6.5
1.5 1.5 6.5
2 1.5 6.5
2.5 1.5 6.5
3 1.5 6.5
3.5 1.5 6.5
4 1.5 6.5
4.5 1.5 6.5
0.5 1.5 7
1 1.5 7
1.5 1.5 7
2 1.5 7
2.5 1.5 7
3 1.5 7
3.5 1.5 7
4 1.5 7
4.5 1.5 7
0.5 1.5 7.5
1 1.5 7.5
1.5 1.5 7.5
2 1.5 7.5
2.5 1.5 7.5
3 1.5 7.5
3.5 1.5 7.5
4 1.5 7.5
4.5 1.5 7.5
0.5 1.5 8
1 1.5 8
1.5 1.5 8
2 1.5 8
2.5 1.5 8
3 1.5 8
3.5 1.5 8
4 1.5 8
4.5 1.5 8
0.5 1.5 8.5
1 1.5 8.5
1.5 1.5 8.5
2 1.5 8.5
2.5 1.5 8.5
3 1.5 8.5
3.5 1.5 8.5
4 1.5 8.5
4.5 1.5 8.5
0.5 1.5 9
1 1.5 9
1.5 1.5 9
2 1.5 9
2.5 1.5 9
3 1.5 9
3.5 1.5 9
4 1.5 9
4.5 1.5 9
0.5 1.5 9.5
1 1.5 9.5
1.5 1.5 9.5
2 1.5 9.5
2.5 1.5 9.5
3 1.5 9.5
3.5 1.5 9.5
4 1.5 9.5
4.5 1.5 9.5
0.5 1.5 10
1 1.5 10
1.5 1.5 10
2 1.5 10
2.5 1.5 10
3 1.5 10
3.5 1.5 10
4 1.5 10
4.5 1.5 10
0.5 1.5 10.5
1 1.5 10.5
1.5 1.5 10.5
2 1.5 10.5
2.5 1.5 10.5
3 1.5 10.5
3.5 1.5 10.5
4 1.5 10.5
4.5 1.5 10.5
0.5 1.5 11
1 1.5 11
1.5 1.5 11
2 1.5 11
2.5 1.5 11
3 1.5 11
3.5 1.5 11
4 1.5 11
4.5 1.5 11
0.5 1.5 11.5
1 1.5 11.5
1.5 1.5 11.5
2 1.5 11.5
2.5 1.5 11.5
3 1.5 11.5
3.5 1.5 11.5
4 1.5 11.5
4.5 1.5 11.5
0.5 1.5 12
1 1.5 12
1.5 1.5 12
2 1.5 12
2.5 1.5 12
3 1.5 12
3.5 1.5 12
4 1.5 12
4.5 1.5 12
0.5 1.5 12.5
1 1.5 12.5
1.5 1.5 12.5
2 1.5 12.5
2.5 1.5 12.5
3 1.5 12.5
3.5 1.5 12.5
4 1.5 12.5
4.5 1.5 12.5
0.5 1.5 13
1 1.5 13
1.5 1.5 13
2 1.5 13
2.5 1.5 13
3 1.5 13
3.5 1.5 13
4 1.5 13
4.5 1.5 13
0.5 1.5 13.5
1 1.5 13.5
1.5 1.5 13.5
2 1.5 13.5
2.5 1.5 13.5
3 1.5 13.5
3.5 1.5 13.5
4 1.5 13.5
4.5 1.5 13.5
0.5 1.5 14
1 1.5 14
1.5 1.5 14
2 1.5 14
2.5 1.5 14
3 1.5 14
3.5 1.5 14
4 1.5 14
4.5 1.5 14
0.5 1.5 14.5
1 1.5 14.5
1.5 1.5 14.5
2 1.5 14.5
2.5 1.5 14.5
3 1.5 14.5
3.5 1.5 14.5
4 1.5 14.5
4.5 1.5 14.5
0.5 1.5 15
1 1.5 15
1.5 1.5 15
2 1.5 15
2.5 1.5 15
3 1.5 15
3.5 1.5 15
4 1.5 15
4.5 1.5 15
0.5 1.5 15.5
1 1.5 15.5
1.5 1.5 15.5
2 1.5 15.5
2.5 1.5 15.5
3 1.5 15.5
3.5 1.5 15.5
4 1.5 15.5
4.5 1.5 15.5
0.5 1.5 16
1 1.5 16
1.5 1.5 16
2 1.5 16
2.5 1.5 16
3 1.5 16
3.5 1.5 16
4 1.5 16
4.5 1.5 16
0.5 1.5 16.5
1 1.5 16.5
1.5 1.5 16.5
2 1.5 16.5
2.5 1.5 16.5
3 1.5 16.5
3.5 1.5 16.5
4 1.5 16.5
4.5 1.5 16.5
0.5 1.5 17
1 1.5 17
1.5 1.5 17
2 1.5 17
2.5 1.5 17
3 1.5 17
3.5 1.5 17
4 1.5 17
4.5 1.5 17
0.5 1.5 17.5
1 1.5 17.5
1.5 1.5 17.5
2 1.5 17.5
2.5 1.5 17.5
3 1.5 17.5
3.5 1.5 17.5
4 1.5 17.5
4.5 1.5 17.5
0.5 1.5 18
1 1.5 18
1.5 1.5 18
2 1.5 18
2.5 1.5 18
3 1.5 18
3.5 1.5 18
4 1.5 18
4.5 1.5 18
0.5 1.5 18.5
1 1.5 18.5
1.5 1.5 18.5
2 1.5 18.5
2.5 1.5 18.5
3 1.5 18.5
3.5 1.5 18.5
4 1.5 18.5
4.5 1.5 18.5
0.5 1.5 19
1 1.5 19
1.5 1.5 19
2 1.5 19
2.5 1.5 19
3 1.5 19
3.5 1.5 19
4 1.5 19
4.5 1.5 19
0.5 1.5 19.5
1 1.5 19.5
1.5 1.5 19.5
2 1.5 19.5
2.5 1.5 19.5
3 1.5 19.5
3.5 1.5 19.5
4 1.5 19.5
4.5 1.5 19.5
0.5 2 5.5
1 2 5.5
1.5 2 5.5
2 2 5.5
2.5 2 5.5
3 2 5.5
3.5 2 5.5
4 2 5.5
4.5 2 5.5
0.5 2 6
1 2 6
1.5 2 6
2 2 6
2.5 2 6
3 2 6
3.5 2 6
4 2 6
4.5 2 6
0.5 2 6.5
1 2 6.5
1.5 2 6.5
2 2 6.5
2.5 2 6.5
3 2 6.5
3.5 2 6.5
4 2 6.5
4.5 2 6.5
0.5 2 7
1 2 7
1.5 2 7
2 2 7
2.5 2 7
3 2 7
3.5 2 7
4 2 7
4.5 2 7
0.5 2 7.5
1 2 7.5
1.5 2 7.5
2 2 7.5
2.5 2 7.5
3 2 7.5
3.5 2 7.5
4 2 7.5
4.5 2 7.5
0.5 2 8
1 2 8
1.5 2 8
2 2 8
2.5 2 8
3 2 8
3.5 2 8
4 2 8
4.5 2 8
0.5 2 8.5
1 2 8.5
1.5 2 8.5
2 2 8.5
2.5 2 8.5
3 2 8.5
3.5 2 8.5
4 2 8.5
4.5 2 8.5
0.5 2 9
1 2 9
1.5 2 9
2 2 9
2.5 2 9
3 2 9
3.5 2 9
4 2 9
4.5 2 9
0.5 2 9.5
1 2 9.5
1.5 2 9.5
2 2 9.5
2.5 2 9.5
3 2 9.5
3.5 2 9.5
4 2 9.5
4.5 2 9.5
0.5 2 10
1 2 10
1.5 2 10
2 2 10
2.5 2 10
3 2 10
3.5 2 10
4 2 10
4.5 2 10
0.5 2 10.5
1 2 10.5
1.5 2 10.5
2 2 10.5
2.5 2 10.5
3 2 10.5
3.5 2 10.5
4 2 10.5
4.5 2 10.5
0.5 2 11
1 2 11
1.5 2 11
2 2 11
2.5 2 11
3 2 11
3.5 2 11
4 2 11
4.5 2 11
0.5 2 11.5
1 2 11.5
1.5 2 11.5
2 2 11.5
2.5 2 11.5
3 2 11.5
3.5 2 11.5
4 2 11.5
4.5 2 11.5
0.5 2 12
1 2 12
1.5 2 12
2 2 12
2.5 2 12
3 2 12
3.5 2 12
4 2 12
4.5 2 12
0.5 2 12.5
1 2 12.5
1.5 2 12.5
2 2 12.5
2.5 2 12.5
3 2 12.5
3.5 2 12.5
4 2 12.5
4.5 2 12.5
0.5 2 13
1 2 13
1.5 2 13
2 2 13
2.5 2 13
3 2 13
3.5 2 13
4 2 13
4.5 2 13
0.5 2 13.5
1 2 13.5
1.5 2 13.5
2 2 13.5
2.5 2 13.5
3 2 13.5
3.5 2 13.5
4 2 13.5
4.5 2 13.5
0.5 2 14
1 2 14
1.5 2 14
2 2 14
2.5 2 14
3 2 14
3.5 2 14
4 2 14
4.5 2 14
0.5 2 14.5
1 2 14.5
1.5 2 14.5
2 2 14.5
2.5 2 14.5
3 2 14.5
3.5 2 14.5
4 2 14.5
4.5 2 14.5
0.5 2 15
1 2 15
1.5 2 15
2 2 15
2.5 2 15
3 2 15
3.5 2 15
4 2 15
4.5 2 15
0.5 2 15.5
1 2 15.5
1.5 2 15.5
2 2 15.5
2.5 2 15.5
3 2 15.5
3.5 2 15.5
4 2 15.5
4.5 2 15.5
0.5 2 16
1 2 16
1.5 2 16
2 2 16
2.5 2 16
3 2 16
3.5 2 16
4 2 16
4.5 2 16
0.5 2 16.5
1 2 16.5
1.5 2 16.5
2 2 16.5
2.5 2 16.5
3 2 16.5
3.5 2 16.5
4 2 16.5
4.5 2 16.5
0.5 2 17
1 2 17
1.5 2 17
2 2 17
2.5 2 17
3 2 17
3.5 2 17
4 2 17
4.5 2 17
0.5 2 17.5
1 2 17.5
1.5 2 17.5
2 2 17.5
2.5 2 17.5
3 2 17.5
3.5 2 17.5
4 2 17.5
4.5 2 17.5
0.5 2 18
1 2 18
1.5 2 18
2 2 18
2.5 2 18
3 2 18
3.5 2 18
4 2 18
4.5 2 18
0.5 2 18.5
1 2 18.5
1.5 2 18.5
2 2 18.5
2.5 2 18.5
3 2 18.5
3.5 2 18.5
4 2 18.5
4.5 2 18.5
0.5 2 19
1 2 19
1.5 2 19
2 2 19
2.5 2 19
3 2 19
3.5 2 19
4 2 19
4.5 2 19
0.5 2 19.5
1 2 19.5
1.5 2 19.5
2 2 19.5
2.5 2 19.5
3 2 19.5
3.5 2 19.5
4 2 19.5
4.5 2 19.5
0.5 2.5 5.5
1 2.5 5.5
1.5 2.5 5.5
2 2.5 5.5
2.5 2.5 5.5
3 2.5 5.5
3.5 2.5 5.5
4 2.5 5.5
4.5 2.5 5.5
0.5 2.5 6
1 2.5 6
1.5 2.5 6
2 2.5 6
2.5 2.5 6
3 2.5 6
3.5 2.5 6
4 2.5 6
4.5 2.5 6
0.5 2.5 6.5
1 2.5 6.5
1.5 2.5 6.5
2 2.5 6.5
2.5 2.5 6.5
3 2.5 6.5
3.5 2.5 6.5
4 2.5 6.5
4.5 2.5 6.5
0.5 2.5 7
1 2.5 7
1.5 2.5 7
2 2.5 7
2.5 2.5 7
3 2.5 7
3.5 2.5 7
4 2.5 7
4.5 2.5 7
0.5 2.5 7.5
1 2.5 7.5
1.5 2.5 7.5
2 2.5 7.5
2.5 2.5 7.5
3 2.5 7.5
3.5 2.5 7.5
4 2.5 7.5
4.5 2.5 7.5
0.5 2.5 8
1 2.5 8
1.5 2.5 8
2 2.5 8
2.5 2.5 8
3 2.5 8
3.5 2.5 8
4 2.5 8
4.5 2.5 8
0.5 2.5 8.5
1 2.5 8.5
1.5 2.5 8.5
2 2.5 8.5
2.5 2.5 8.5
3 2.5 8.5
3.5 2.5 8.5
4 2.5 8.5
4.5 2.5 8.5
0.5 2.5 9
1 2.5 9
1.5 2.5 9
2 2.5 9
2.5 2.5 9
3 2.5 9
3.5 2.5 9
4 2.5 9
4.5 2.5 9
0.5 2.5 9.5
1 2.5 9.5
1.5 2.5 9.5
2 2.5 9.5
2.5 2.5 9.5
3 2.5 9.5
3.5 2.5 9.5
4 2.5 9.5
4.5 2.5 9.5
0.5 2.5 10
1 2.5 10
1.5 2.5 10
2 2.5 10
2.5 2.5 10
3 2.5 10
3.5 2.5 10
4 2.5 10
4.5 2.5 10
0.5 2.5 10.5
1 2.5 10.5
1.5 2.5 10.5
2 2.5 10.5
2.5 2.5 10.5
3 2.5 10.5
3.5 2.5 10.5
4 2.5 10.5
4.5 2.5 10.5
0.5 2.5 11
1 2.5 11
1.5 2.5 11
2 2.5 11
2.5 2.5 11
3 2.5 11
3.5 2.5 11
4 2.5 11
4.5 2.5 11
0.5 2.5 11.5
1 2.5 11.5
1.5 2.5 11.5
2 2.5 11.5
2.5 2.5 11.5
3 2.5 11.5
3.5 2.5 11.5
4 2.5 11.5
4.5 2.5 11.5
0.5 2.5 12
1 2.5 12
1.5 2.5 12
2 2.5 12
2.5 2.5 12
3 2.5 12
3.5 2.5 12
4 2.5 12
4.5 2.5 12
0.5 2.5 12.5
1 2.5 12.5
1.5 2.5 12.5
2 2.5 12.5
2.5 2.5 12.5
3 2.5 12.5
3.5 2.5 12.5
4 2.5 12.5
4.5 2.5 12.5
0.5 2.5 13
1 2.5 13
1.5 2.5 13
2 2.5 13
2.5 2.5 13
3 2.5 13
3.5 2.5 13
4 2.5 13
4.5 2.5 13
0.5 2.5 13.5
1 2.5 13.5
1.5 2.5 13.5
2 2.5 13.5
2.5 2.5 13.5
3 2.5 13.5
3.5 2.5 13.5
4 2.5 13.5
4.5 2.5 13.5
0.5 2.5 14
1 2.5 14
1.5 2.5 14
2 2.5 14
2.5 2.5 14
3 2.5 14
3.5 2.5 14
4 2.5 14
4.5 2.5 14
0.5 2.5 14.5
1 2.5 14.5
1.5 2.5 14.5
2 2.5 14.5
2.5 2.5 14.5
3 2.5 14.5
3.5 2.5 14.5
4 2.5 14.5
4.5 2.5 14.5
0.5 2.5 15
1 2.5 15
1.5 2.5 15
2 2.5 15
2.5 2.5 15
3 2.5 15
3.5 2.5 15
4 2.5 15
4.5 2.5 15
0.5 2.5 15.5
1 2.5 15.5
1.5 2.5 15.5
2 2.5 15.5
2.5 2.5 15.5
3 2.5 15.5
3.5 2.5 15.5
4 2.5 15.5
4.5 2.5 15.5
0.5 2.5 16
1 2.5 16
1.5 2.5 16
2 2.5 16
2.5 2.5 16
3 2.5 16
3.5 2.5 16
4 2.5 16
4.5 2.5 16
0.5 2.5 16.5
1 2.5 16.5
1.5 2.5 16.5
2 2.5 16.5
2.5 2.5 16.5
3 2.5 16.5
3.5 2.5 16.5
4 2.5 16.5
4.5 2.5 16.5
0.5 2.5 17
1 2.5 17
1.5 2.5 17
2 2.5 17
2.5 2.5 17
3 2.5 17
3.5 2.5 17
4 2.5 17
4.5 2.5 17
0.5 2.5 17.5
1 2.5 17.5
1.5 2.5 17.5
2 2.5 17.5
2.5 2.5 17.5
3 2.5 17.5
3.5 2.5 17.5
4 2.5 17.5
4.5 2.5 17.5
0.5 2.5 18
1 2.5 18
1.5 2.5 18
2 2.5 18
2.5 2.5 18
3 2.5 18
3.5 2.5 18
4 2.5 18
4.5 2.5 18
0.5 2.5 18.5
1 2.5 18.5
1.5 2.5 18.5
2 2.5 18.5
2.5 2.5 18.5
3 2.5 18.5
3.5 2.5 18.5
4 2.5 18.5
4.5 2.5 18.5
0.5 2.5 19
1 2.5 19
1.5 2.5 19
2 2.5 19
2.5 2.5 19
3 2.5 19
3.5 2.5 19
4 2.5 19
4.5 2.5 19
0.5 2.5 19.5
1 2.5 19.5
1.5 2.5 19.5
2 2.5 19.5
2.5 2.5 19.5
3 2.5 19.5
3.5 2.5 19.5
4 2.5 19.5
4.5 2.5 19.5
0.5 3 5.5
1 3 5.5
1.5 3 5.5
2 3 5.5
2.5 3 5.5
3 3 5.5
3.5 3 5.5
4 3 5.5
4.5 3 5.5
0.5 3 6
1 3 6
1.5 3 6
2 3 6
2.5 3 6
3 3 6
3.5 3 6
4 3 6
4.5 3 6
0.5 3 6.5
1 3 6.5
1.5 3 6.5
2 3 6.5
2.5 3 6.5
3 3 6.5
3.5 3 6.5
4 3 6.5
4.5 3 6.5
0.5 3 7
1 3 7
1.5 3 7
2 3 7
2.5 3 7
3 3 7
3.5 3 7
4 3 7
4.5 3 7
0.5 3 7.5
1 3 7.5
1.5 3 7.5
2 3 7.5
2.5 3 7.5
3 3 7.5
3.5 3 7.5
4 3 7.5
4.5 3 7.5
0.5 3 8
1 3 8
1.5 3 8
2 3 8
2.5 3 8
3 3 8
3.5 3 8
4 3 8
4.5 3 8
0.5 3 8.5
1 3 8.5
1.5 3 8.5
2 3 8.5
2.5 3 8.5
3 3 8.5
3.5 3 8.5
4 3 8.5
4.5 3 8.5
0.5 3 9
1 3 9
1.5 3 9
2 3 9
2.5 3 9
3 3 9
3.5 3 9
4 3 9
4.5 3 9
0.5 3 9.5
1 3 9.5
1.5 3 9.5
2 3 9.5
2.5 3 9.5
3 3 9.5
3.5 3 9.5
4 3 9.5
4.5 3 9.5
0.5 3 10
1 3 10
1.5 3 10
2 3 10
2.5 3 10
3 3 10
3.5 3 10
4 3 10
4.5 3 10
0.5 3 10.5
1 3 10.5
1.5 3 10.5
2 3 10.5
2.5 3 10.5
3 3 10.5
3.5 3 10.5
4 3 10.5
4.5 3 10.5
0.5 3 11
1 3 11
1.5 3 11
2 3 11
2.5 3 11
3 3 11
3.5 3 11
4 3 11
4.5 3 11
0.5 3 11.5
1 3 11.5
1.5 3 11.5
2 3 11.5
2.5 3 11.5
3 3 11.5
3.5 3 11.5
4 3 11.5
4.5 3 11.5
0.5 3 12
1 3 12
1.5 3 12
2 3 12
2.5 3 12
3 3 12
3.5 3 12
4 3 12
4.5 3 12
0.5 3 12.5
1 3 12.5
1.5 3 12.5
2 3 12.5
2.5 3 12.5
3 3 12.5
3.5 3 12.5
4 3 12.5
4.5 3 12.5
0.5 3 13
1 3 13
1.5 3 13
2 3 13
2.5 3 13
3 3 13
3.5 3 13
4 3 13
4.5 3 13
0.5 3 13.5
1 3 13.5
1.5 3 13.5
2 3 13.5
2.5 3 13.5
3 3 13.5
3.5 3 13.5
4 3 13.5
4.5 3 13.5
0.5 3 14
1 3 14
1.5 3 14
2 3 14
2.5 3 14
3 3 14
3.5 3 14
4 3 14
4.5 3 14
0.5 3 14.5
1 3 14.5
1.5 3 14.5
2 3 14.5
2.5 3 14.5
3 3 14.5
3.5 3 14.5
4 3 14.5
4.5 3 14.5
0.5 3 15
1 3 15
1.5 3 15
2 3 15
2.5 3 15
3 3 15
3.5 3 15
4 3 15
4.5 3 15
0.5 3 15.5
1 3 15.5
1.5 3 15.5
2 3 15.5
2.5 3 15.5
3 3 15.5
3.5 3 15.5
4 3 15.5
4.5 3 15.5
0.5 3 16
1 3 16
1.5 3 16
2 3 16
2.5 3 16
3 3 16
3.5 3 16
4 3 16
4.5 3 16
0.5 3 16.5
1 3 16.5
1.5 3 16.5
2 3 16.5
2.5 3 16.5
3 3 16.5
3.5 3 16.5
4 3 16.5
4.5 3 16.5
0.5 3 17
1 3 17
1.5 3 17
2 3 17
2.5 3 17
3 3 17
3.5 3 17
4 3 17
4.5 3 17
0.5 3 17.5
1 3 17.5
1.5 3 17.5
2 3 17.5
2.5 3 17.5
3 3 17.5
3.5 3 17.5
4 3 17.5
4.5 3 17.5
0.5 3 18
1 3 18
1.5 3 18
2 3 18
2.5 3 18
3 3 18
3.5 3 18
4 3 18
4.5 3 18
0.5 3 18.5
1 3 18.5
1.5 3 18.5
2 3 18.5
2.5 3 18.5
3 3 18.5
3.5 3 18.5
4 3 18.5
4.5 3 18.5
0.5 3 19
1 3 19
1.5 3 19
2 3 19
2.5 3 19
3 3 19
3.5 3 19
4 3 19
4.5 3 19
0.5 3 19.5
1 3 19.5
1.5 3 19.5
2 3 19.5
2.5 3 19.5
3 3 19.5
3.5 3 19.5
4 3 19.5
4.5 3 19.5
0.5 3.5 5.5
1 3.5 5.5
1.5 3.5 5.5
2 3.5 5.5
2.5 3.5 5.5
3 3.5 5.5
3.5 3.5 5.5
4 3.5 5.5
4.5 3.5 5.5
0.5 3.5 6
1 3.5 6
1.5 3.5 6
2 3.5 6
2.5 3.5 6
3 3.5 6
3.5 3.5 6
4 3.5 6
4.5 3.5 6
0.5 3.5 6.5
1 3.5 6.5
1.5 3.5 6.5
2 3.5 6.5
2.5 3.5 6.5
3 3.5 6.5
3.5 3.5 6.5
4 3.5 6.5
4.5 3.5 6.5
0.5 3.5 7
1 3.5 7
1.5 3.5 7
2 3.5 7
2.5 3.5 7
3 3.5 7
3.5 3.5 7
4 3.5 7
4.5 3.5 7
0.5 3.5 7.5
1 3.5 7.5
1.5 3.5 7.5
2 3.5 7.5
2.5 3.5 7.5
3 3.5 7.5
3.5 3.5 7.5
4 3.5 7.5
4.5 3.5 7.5
0.5 3.5 8
1 3.5 8
1.5 3.5 8
2 3.5 8
2.5 3.5 8
3 3.5 8
3.5 3.5 8
4 3.5 8
4.5 3.5 8
0.5 3.5 8.5
1 3.5 8.5
1.5 3.5 8.5
2 3.5 8.5
2.5 3.5 8.5
3 3.5 8.5
3.5 3.5 8.5
4 3.5 8.5
4.5 3.5 8.5
0.5 3.5 9
1 3.5 9
1.5 3.5 9
2 3.5 9
2.5 3.5 9
3 3.5 9
3.5 3.5 9
4 3.5 9
4.5 3.5 9
0.5 3.5 9.5
1 3.5 9.5
1.5 3.5 9.5
2 3.5 9.5
2.5 3.5 9.5
3 3.5 9.5
3.5 3.5 9.5
4 3.5 9.5
4.5 3.5 9.5
0.5 3.5 10
1 3.5 10
1.5 3.5 10
2 3.5 10
2.5 3.5 10
3 3.5 10
3.5 3.5 10
4 3.5 10
4.5 3.5 10
0.5 3.5 10.5
1 3.5 10.5
1.5 3.5 10.5
2 3.5 10.5
2.5 3.5 10.5
3 3.5 10.5
3.5 3.5 10.5
4 3.5 10.5
4.5 3.5 10.5
0.5 3.5 11
1 3.5 11
1.5 3.5 11
2 3.5 11
2.5 3.5 11
3 3.5 11
3.5 3.5 11
4 3.5 11
4.5 3.5 11
0.5 3.5 11.5
1 3.5 11.5
1.5 3.5 11.5
2 3.5 11.5
2.5 3.5 11.5
3 3.5 11.5
3.5 3.5 11.5
4 3.5 11.5
4.5 3.5 11.5
0.5 3.5 12
1 3.5 12
1.5 3.5 12
2 3.5 12
2.5 3.5 12
3 3.5 12
3.5 3.5 12
4 3.5 12
4.5 3.5 12
0.5 3.5 12.5
1 3.5 12.5
1.5 3.5 12.5
2 3.5 12.5
2.5 3.5 12.5
3 3.5 12.5
3.5 3.5 12.5
4 3.5 12.5
4.5 3.5 12.5
0.5 3.5 13
1 3.5 13
1.5 3.5 13
2 3.5 13
2.5 3.5 13
3 3.5 13
3.5 3.5 13
4 3.5 13
4.5 3.5 13
0.5 3.5 13.5
1 3.5 13.5
1.5 3.5 13.5
2 3.5 13.5
2.5 3.5 13.5
3 3.5 13.5
3.5 3.5 13.5
4 3.5 13.5
4.5 3.5 13.5
0.5 3.5 14
1 3.5 14
1.5 3.5 14
2 3.5 14
2.5 3.5 14
3 3.5 14
3.5 3.5 14
4 3.5 14
4.5 3.5 14
0.5 3.5 14.5
1 3.5 14.5
1.5 3.5 14.5
2 3.5 14.5
2.5 3.5 14.5
3 3.5 14.5
3.5 3.5 14.5
4 3.5 14.5
4.5 3.5 14.5
0.5 3.5 15
1 3.5 15
1.5 3.5 15
2 3.5 15
2.5 3.5 15
3 3.5 15
3.5 3.5 15
4 3.5 15
4.5 3.5 15
0.5 3.5 15.5
1 3.5 15.5
1.5 3.5 15.5
2 3.5 15.5
2.5 3.5 15.5
3 3.5 15.5
3.5 3.5 15.5
4 3.5 15.5
4.5 3.5 15.5
0.5 3.5 16
1 3.5 16
1.5 3.5 16
2 3.5 16
2.5 3.5 16
3 3.5 16
3.5 3.5 16
4 3.5 16
4.5 3.5 16
0.5 3.5 16.5
1 3.5 16.5
1.5 3.5 16.5
2 3.5 16.5
2.5 3.5 16.5
3 3.5 16.5
3.5 3.5 16.5
4 3.5 16.5
4.5 3.5 16.5
0.5 3.5 17
1 3.5 17
1.5 3.5 17
2 3.5 17
2.5 3.5 17
3 3.5 17
3.5 3.5 17
4 3.5 17
4.5 3.5 17
0.5 3.5 17.5
1 3.5 17.5
1.5 3.5 17.5
2 3.5 17.5
2.5 3.5 17.5
3 3.5 17.5
3.5 3.5 17.5
4 3.5 17.5
4.5 3.5 17.5
0.5 3.5 18
1 3.5 18
1.5 3.5 18
2 3.5 18
2.5 3.5 18
3 3.5 18
3.5 3.5 18
4 3.5 18
4.5 3.5 18
0.5 3.5 18.5
1 3.5 18.5
1.5 3.5 18.5
2 3.5 18.5
2.5 3.5 18.5
3 3.5 18.5
3.5 3.5 18.5
4 3.5 18.5
4.5 3.5 18.5
0.5 3.5 19
1 3.5 19
1.5 3.5 19
2 3.5 19
2.5 3.5 19
3 3.5 19
3.5 3.5 19
4 3.5 19
4.5 3.5 19
0.5 3.5 19.5
1 3.5 19.5
1.5 3.5 19.5
2 3.5 19.5
2.5 3.5 19.5
3 3.5 19.5
3.5 3.5 19.5
4 3.5 19.5
4.5 3.5 19.5
0.5 4 5.5
1 4 5.5
1.5 4 5.5
2 4 5.5
2.5 4 5.5
3 4 5.5
3.5 4 5.5
4 4 5.5
4.5 4 5.5
0.5 4 6
1 4 6
1.5 4 6
2 4 6
2.5 4 6
3 4 6
3.5 4 6
4 4 6
4.5 4 6
0.5 4 6.5
1 4 6.5
1.5 4 6.5
2 4 6.5
2.5 4 6.5
3 4 6.5
3.5 4 6.5
4 4 6.5
4.5 4 6.5
0.5 4 7
1 4 7
1.5 4 7
2 4 7
2.5 4 7
3 4 7
3.5 4 7
4 4 7
4.5 4 7
0.5 4 7.5
1 4 7.5
1.5 4 7.5
2 4 7.5
2.5 4 7.5
3 4 7.5
3.5 4 7.5
4 4 7.5
4.5 4 7.5
0.5 4 8
1 4 8
1.5 4 8
2 4 8
2.5 4 8
3 4 8
3.5 4 8
4 4 8
4.5 4 8
0.5 4 8.5
1 4 8.5
1.5 4 8.5
2 4 8.5
2.5 4 8.5
3 4 8.5
3.5 4 8.5
4 4 8.5
4.5 4 8.5
0.5 4 9
1 4 9
1.5 4 9
2 4 9
2.5 4 9
3 4 9
3.5 4 9
4 4 9
4.5 4 9
0.5 4 9.5
1 4 9.5
1.5 4 9.5
2 4 9.5
2.5 4 9.5
3 4 9.5
3.5 4 9.5
4 4 9.5
4.5 4 9.5
0.5 4 10
1 4 10
1.5 4 10
2 4 10
2.5 4 10
3 4 10
3.5 4 10
4 4 10
4.5 4 10
0.5 4 10.5
1 4 10.5
1.5 4 10.5
2 4 10.5
2.5 4 10.5
3 4 10.5
3.5 4 10.5
4 4 10.5
4.5 4 10.5
0.5 4 11
1 4 11
1.5 4 11
2 4 11
2.5 4 11
3 4 11
3.5 4 11
4 4 11
4.5 4 11
0.5 4 11.5
1 4 11.5
1.5 4 11.5
2 4 11.5
2.5 4 11.5
3 4 11.5
3.5 4 11.5
4 4 11.5
4.5 4 11.5
0.5 4 12
1 4 12
1.5 4 12
2 4 12
2.5 4 12
3 4 12
3.5 4 12
4 4 12
4.5 4 12
0.5 4 12.5
1 4 12.5
1.5 4 12.5
2 4 12.5
2.5 4 12.5
3 4 12.5
3.5 4 12.5
4 4 12.5
4.5 4 12.5
0.5 4 13
1 4 13
1.5 4 13
2 4 13
2.5 4 13
3 4 13
3.5 4 13
4 4 13
4.5 4 13
0.5 4 13.5
1 4 13.5
1.5 4 13.5
2 4 13.5
2.5 4 13.5
3 4 13.5
3.5 4 13.5
4 4 13.5
4.5 4 13.5
0.5 4 14
1 4 14
1.5 4 14
2 4 14
2.5 4 14
3 4 14
3.5 4 14
4 4 14
4.5 4 14
0.5 4 14.5
1 4 14.5
1.5 4 14.5
2 4 14.5
2.5 4 14.5
3 4 14.5
3.5 4 14.5
4 4 14.5
4.5 4 14.5
0.5 4 15
1 4 15
1.5 4 15
2 4 15
2.5 4 15
3 4 15
3.5 4 15
4 4 15
4.5 4 15
0.5 4 15.5
1 4 15.5
1.5 4 15.5
2 4 15.5
2.5 4 15.5
3 4 15.5
3.5 4 15.5
4 4 15.5
4.5 4 15.5
0.5 4 16
1 4 16
1.5 4 16
2 4 16
2.5 4 16
3 4 16
3.5 4 16
4 4 16
4.5 4 16
0.5 4 16.5
1 4 16.5
1.5 4 16.5
2 4 16.5
2.5 4 16.5
3 4 16.5
3.5 4 16.5
4 4 16.5
4.5 4 16.5
0.5 4 17
1 4 17
1.5 4 17
2 4 17
2.5 4 17
3 4 17
3.5 4 17
4 4 17
4.5 4 17
0.5 4 17.5
1 4 17.5
1.5 4 17.5
2 4 17.5
2.5 4 17.5
3 4 17.5
3.5 4 17.5
4 4 17.5
4.5 4 17.5
0.5 4 18
1 4 18
1.5 4 18
2 4 18
2.5 4 18
3 4 18
3.5 4 18
4 4 18
4.5 4 18
0.5 4 18.5
1 4 18.5
1.5 4 18.5
2 4 18.5
2.5 4 18.5
3 4 18.5
3.5 4 18.5
4 4 18.5
4.5 4 18.5
0.5 4 19
1 4 19
1.5 4 19
2 4 19
2.5 4 19
3 4 19
3.5 4 19
4 4 19
4.5 4 19
0.5 4 19.5
1 4 19.5
1.5 4 19.5
2 4 19.5
2.5 4 19.5
3 4 19.5
3.5 4 19.5
4 4 19.5
4.5 4 19.5
0.5 4.5 5.5
1 4.5 5.5
1.5 4.5 5.5
2 4.5 5.5
2.5 4.5 5.5
3 4.5 5.5
3.5 4.5 5.5
4 4.5 5.5
4.5 4.5 5.5
0.5 4.5 6
1 4.5 6
1.5 4.5 6
2 4.5 6
2.5 4.5 6
3 4.5 6
3.5 4.5 6
4 4.5 6
4.5 4.5 6
0.5 4.5 6.5
1 4.5 6.5
1.5 4.5 6.5
2 4.5 6.5
2.5 4.5 6.5
3 4.5 6.5
3.5 4.5 6.5
4 4.5 6.5
4.5 4.5 6.5
0.5 4.5 7
1 4.5 7
1.5 4.5 7
2 4.5 7
2.5 4.5 7
3 4.5 7
3.5 4.5 7
4 4.5 7
4.5 4.5 7
0.5 4.5 7.5
1 4.5 7.5
1.5 4.5 7.5
2 4.5 7.5
2.5 4.5 7.5
3 4.5 7.5
3.5 4.5 7.5
4 4.5 7.5
4.5 4.5 7.5
0.5 4.5 8
1 4.5 8
1.5 4.5 8
2 4.5 8
2.5 4.5 8
3 4.5 8
3.5 4.5 8
4 4.5 8
4.5 4.5 8
0.5 4.5 8.5
1 4.5 8.5
1.5 4.5 8.5
2 4.5 8.5
2.5 4.5 8.5
3 4.5 8.5
3.5 4.5 8.5
4 4.5 8.5
4.5 4.5 8.5
0.5 4.5 9
1 4.5 9
1.5 4.5 9
2 4.5 9
2.5 4.5 9
3 4.5 9
3.5 4.5 9
4 4.5 9
4.5 4.5 9
0.5 4.5 9.5
1 4.5 9.5
1.5 4.5 9.5
2 4.5 9.5
2.5 4.5 9.5
3 4.5 9.5
3.5 4.5 9.5
4 4.5 9.5
4.5 4.5 9.5
0.5 4.5 10
1 4.5 10
1.5 4.5 10
2 4.5 10
2.5 4.5 10
3 4.5 10
3.5 4.5 10
4 4.5 10
4.5 4.5 10
0.5 4.5 10.5
1 4.5 10.5
1.5 4.5 10.5
2 4.5 10.5
2.5 4.5 10.5
3 4.5 10.5
3.5 4.5 10.5
4 4.5 10.5
4.5 4.5 10.5
0.5 4.5 11
1 4.5 11
1.5 4.5 11
2 4.5 11
2.5 4.5 11
3 4.5 11
3.5 4.5 11
4 4.5 11
4.5 4.5 11
0.5 4.5 11.5
1 4.5 11.5
1.5 4.5 11.5
2 4.5 11.5
2.5 4.5 11.5
3 4.5 11.5
3.5 4.5 11.5
4 4.5 11.5
4.5 4.5 11.5
0.5 4.5 12
1 4.5 12
1.5 4.5 12
2 4.5 12
2.5 4.5 12
3 4.5 12
3.5 4.5 12
4 4.5 12
4.5 4.5 12
0.5 4.5 12.5
1 4.5 12.5
1.5 4.5 12.5
2 4.5 12.5
2.5 4.5 12.5
3 4.5 12.5
3.5 4.5 12.5
4 4.5 12.5
4.5 4.5 12.5
0.5 4.5 13
1 4.5 13
1.5 4.5 13
2 4.5 13
2.5 4.5 13
3 4.5 13
3.5 4.5 13
4 4.5 13
4.5 4.5 13
0.5 4.5 13.5
1 4.5 13.5
1.5 4.5 13.5
2 4.5 13.5
2.5 4.5 13.5
3 4.5 13.5
3.5 4.5 13.5
4 4.5 13.5
4.5 4.5 13.5
0.5 4.5 14
1 4.5 14
1.5 4.5 14
2 4.5 14
2.5 4.5 14
3 4.5 14
3.5 4.5 14
4 4.5 14
4.5 4.5 14
0.5 4.5 14.5
1 4.5 14.5
1.5 4.5 14.5
2 4.5 14.5
2.5 4.5 14.5
3 4.5 14.5
3.5 4.5 14.5
4 4.5 14.5
4.5 4.5 14.5
0.5 4.5 15
1 4.5 15
1.5 4.5 15
2 4.5 15
2.5 4.5 15
3 4.5 15
3.5 4.5 15
4 4.5 15
4.5 4.5 15
0.5 4.5 15.5
1 4.5 15.5
1.5 4.5 15.5
2 4.5 15.5
2.5 4.5 15.5
3 4.5 15.5
3.5 4.5 15.5
4 4.5 15.5
4.5 4.5 15.5
0.5 4.5 16
1 4.5 16
1.5 4.5 16
2 4.5 16
2.5 4.5 16
3 4.5 16
3.5 4.5 16
4 4.5 16
4.5 4.5 16
0.5 4.5 16.5
1 4.5 16.5
1.5 4.5 16.5
2 4.5 16.5
2.5 4.5 16.5
3 4.5 16.5
3.5 4.5 16.5
4 4.5 16.5
4.5 4.5 16.5
0.5 4.5 17
1 4.5 17
1.5 4.5 17
2 4.5 17
2.5 4.5 17
3 4.5 17
3.5 4.5 17
4 4.5 17
4.5 4.5 17
0.5 4.5 17.5
1 4.5 17.5
1.5 4.5 17.5
2 4.5 17.5
2.5 4.5 17.5
3 4.5 17.5
3.5 4.5 17.5
4 4.5 17.5
4.5 4.5 17.5
0.5 4.5 18
1 4.5 18
1.5 4.5 18
2 4.5 18
2.5 4.5 18
3 4.5 18
3.5 4.5 18
4 4.5 18
4.5 4.5 18
0.5 4.5 18.5
1 4.5 18.5
1.5 4.5 18.5
2 4.5 18.5
2.5 4.5 18.5
3 4.5 18.5
3.5 4.5 18.5
4 4.5 18.5
4.5 4.5 18.5
0.5 4.5 19
1 4.5 19
1.5 4.5 19
2 4.5 19
2.5 4.5 19
3 4.5 19
3.5 4.5 19
4 4.5 19
4.5 4.5 19
0.5 4.5 19.5
1 4.5 19.5
1.5 4.5 19.5
2 4.5 19.5
2.5 4.5 19.5
3 4.5 19.5
3.5 4.5 19.5
4 4.5 19.5
4.5 4.5 19.5
4.5 0.5 4.5
4 0.5 4.5
3.5 0.5 4.5
3 0.5 4.5
2.5 0.5 4.5
2 0.5 4.5
1.5 0.5 4.5
1 0.5 4.5
0.5 0.5 4.5
4.5 0.5 4
4 0.5 4
3.5 0.5 4
3 0.5 4
2.5 0.5 4
2 0.5 4
1.5 0.5 4
1 0.5 4
0.5 0.5 4
4.5 0.5 3.5
4 0.5 3.5
3.5 0.5 3.5
3 0.5 3.5
2.5 0.5 3.5
2 0.5 3.5
1.5 0.5 3.5
1 0.5 3.5
0.5 0.5 3.5
4.5 0.5 3
4 0.5 3
3.5 0.5 3
3 0.5 3
2.5 0.5 3
2 0.5 3
1.5 0.5 3
1 0.5 3
0.5 0.5 3
4.5 0.5 2.5
4 0.5 2.5
3.5 0.5 2.5
3 0.5 2.5
2.5 0.5 2.5
2 0.5 2.5
1.5 0.5 2.5
1 0.5 2.5
0.5 0.5 2.5
4.5 0.5 2
4 0.5 2
3.5 0.5 2
3 0.5 2
2.5 0.5 2
2 0.5 2
1.5 0.5 2
1 0.5 2
0.5 0.5 2
4.5 0.5 1.5
4 0.5 1.5
3.5 0.5 1.5
3 0.5 1.5
2.5 0.5 1.5
2 0.5 1.5
1.5 0.5 1.5
1 0.5 1.5
0.5 0.5 1.5
4.5 0.5 1
4 0.5 1
3.5 0.5 1
3 0.5 1
2.5 0.5 1
2 0.5 1
1.5 0.5 1
1 0.5 1
0.5 0.5 1
4.5 0.5 0.5
4 0.5 0.5
3.5 0.5 0.5
3 0.5 0.5
2.5 0.5 0.5
2 0.5 0.5
1.5 0.5 0.5
1 0.5 0.5
0.5 0.5 0.5
4.5 1 4.5
4 1 4.5
3.5 1 4.5
3 1 4.5
2.5 1 4.5
2 1 4.5
1.5 1 4.5
1 1 4.5
0.5 1 4.5
4.5 1 4
4 1 4
3.5 1 4
3 1 4
2.5 1 4
2 1 4
1.5 1 4
1 1 4
0.5 1 4
4.5 1 3.5
4 1 3.5
3.5 1 3.5
3 1 3.5
2.5 1 3.5
2 1 3.5
1.5 1 3.5
1 1 3.5
0.5 1 3.5
4.5 1 3
4 1 3
3.5 1 3
3 1 3
2.5 1 3
2 1 3
1.5 1 3
1 1 3
0.5 1 3
4.5 1 2.5
4 1 2.5
3.5 1 2.5
3 1 2.5
2.5 1 2.5
2 1 2.5
1.5 1 2.5
1 1 2.5
0.5 1 2.5
4.5 1 2
4 1 2
3.5 1 2
3 1 2
2.5 1 2
2 1 2
1.5 1 2
1 1 2
0.5 1 2
4.5 1 1.5
4 1 1.5
3.5 1 1.5
3 1 1.5
2.5 1 1.5
2 1 1.5
1.5 1 1.5
1 1 1.5
0.5 1 1.5
4.5 1 1
4 1 1
3.5 1 1
3 1 1
2.5 1 1
2 1 1
1.5 1 1
1 1 1
0.5 1 1
4.5 1 0.5
4 1 0.5
3.5 1 0.5
3 1 0.5
2.5 1 0.5
2 1 0.5
1.5 1 0.5
1 1 0.5
0.5 1 0.5
4.5 1.5 4.5
4 1.5 4.5
3.5 1.5 4.5
3 1.5 4.5
2.5 1.5 4.5
2 1.5 4.5
1.5 1.5 4.5
1 1.5 4.5
0.5 1.5 4.5
4.5 1.5 4
4 1.5 4
3.5 1.5 4
3 1.5 4
2.5 1.5 4
2 1.5 4
1.5 1.5 4
1 1.5 4
0.5 1.5 4
4.5 1.5 3.5
4 1.5 3.5
3.5 1.5 3.5
3 1.5 3.5
2.5 1.5 3.5
2 1.5 3.5
1.5 1.5 3.5
1 1.5 3.5
0.5 1.5 3.5
4.5 1.5 3
4 1.5 3
3.5 1.5 3
3 1.5 3
2.5 1.5 3
2 1.5 3
1.5 1.5 3
1 1.5 3
0.5 1.5 3
4.5 1.5 2.5
4 1.5 2.5
3.5 1.5 2.5
3 1.5 2.5
2.5 1.5 2.5
2 1.5 2.5
1.5 1.5 2.5
1 1.5 2.5
0.5 1.5 2.5
4.5 1.5 2
4 1.5 2
3.5 1.5 2
3 1.5 2
2.5 1.5 2
2 1.5 2
1.5 1.5 2
1 1.5 2
0.5 1.5 2
4.5 1.5 1.5
4 1.5 1.5
3.5 1.5 1.5
3 1.5 1.5
2.5 1.5 1.5
2 1.5 1.5
1.5 1.5 1.5
1 1.5 1.5
0.5 1.5 1.5
4.5 1.5 1
4 1.5 1
3.5 1.5 1
3 1.5 1
2.5 1.5 1
2 1.5 1
1.5 1.5 1
1 1.5 1
0.5 1.5 1
4.5 1.5 0.5
4 1.5 0.5
3.5 1.5 0.5
3 1.5 0.5
2.5 1.5 0.5
2 1.5 0.5
1.5 1.5 0.5
1 1.5 0.5
0.5 1.5 0.5
4.5 2 4.5
4 2 4.5
3.5 2 4.5
3 2 4.5
2.5 2 4.5
2 2 4.5
1.5 2 4.5
1 2 4.5
0.5 2 4.5
4.5 2 4
4 2 4
3.5 2 4
3 2 4
2.5 2 4
2 2 4
1.5 2 4
1 2 4
0.5 2 4
4.5 2 3.5
4 2 3.5
3.5 2 3.5
3 2 3.5
2.5 2 3.5
2 2 3.5
1.5 2 3.5
1 2 3.5
0.5 2 3.5
4.5 2 3
4 2 3
3.5 2 3
3 2 3
2.5 2 3
2 2 3
1.5 2 3
1 2 3
0.5 2 3
4.5 2 2.5
4 2 2.5
3.5 2 2.5
3 2 2.5
2.5 2 2.5
2 2 2.5
1.5 2 2.5
1 2 2.5
0.5 2 2.5
4.5 2 2
4 2 2
3.5 2 2
3 2 2
2.5 2 2
2 2 2
1.5 2 2
1 2 2
0.5 2 2
4.5 2 1.5
4 2 1.5
3.5 2 1.5
3 2 1.5
2.5 2 1.5
2 2 1.5
1.5 2 1.5
1 2 1.5
0.5 2 1.5
4.5 2 1
4 2 1
3.5 2 1
3 2 1
2.5 2 1
2 2 1
1.5 2 1
1 2 1
0.5 2 1
4.5 2 0.5
4 2 0.5
3.5 2 0.5
3 2 0.5
2.5 2 0.5
2 2 0.5
1.5 2 0.5
1 2 0.5
0.5 2 0.5
4.5 2.5 4.5
4 2.5 4.5
3.5 2.5 4.5
3 2.5 4.5
2.5 2.5 4.5
2 2.5 4.5
1.5 2.5 4.5
1 2.5 4.5
0.5 2.5 4.5
4.5 2.5 4
4 2.5 4
3.5 2.5 4
3 2.5 4
2.5 2.5 4
2 2.5 4
1.5 2.5 4
1 2.5 4
0.5 2.5 4
4.5 2.5 3.5
4 2.5 3.5
3.5 2.5 3.5
3 2.5 3.5
2.5 2.5 3.5
2 2.5 3.5
1.5 2.5 3.5
1 2.5 3.5
0.5 2.5 3.5
4.5 2.5 3
4 2.5 3
3.5 2.5 3
3 2.5 3
2.5 2.5 3
2 2.5 3
1.5 2.5 3
1 2.5 3
0.5 2.5 3
4.5 2.5 2.5
4 2.5 2.5
3.5 2.5 2.5
3 2.5 2.5
2.5 2.5 2.5
2 2.5 2.5
1.5 2.5 2.5
1 2.5 2.5
0.5 2.5 2.5
4.5 2.5 2
4 2.5 2
3.5 2.5 2
3 2.5 2
2.5 2.5 2
2 2.5 2
1.5 2.5 2
1 2.5 2
0.5 2.5 2
4.5 2.5 1.5
4 2.5 1.5
3.5 2.5 1.5
3 2.5 1.5
2.5 2.5 1.5
2 2.5 1.5
1.5 2.5 1.5
1 2.5 1.5
0.5 2.5 1.5
4.5 2.5 1
4 2.5 1
3.5 2.5 1
3 2.5 1
2.5 2.5 1
2 2.5 1
1.5 2.5 1
1 2.5 1
0.5 2.5 1
4.5 2.5 0.5
4 2.5 0.5
3.5 2.5 0.5
3 2.5 0.5
2.5 2.5 0.5
2 2.5 0.5
1.5 2.5 0.5
1 2.5 0.5
0.5 2.5 0.5
4.5 3 4.5
4 3 4.5
3.5 3 4.5
3 3 4.5
2.5 3 4.5
2 3 4.5
1.5 3 4.5
1 3 4.5
0.5 3 4.5
4.5 3 4
4 3 4
3.5 3 4
3 3 4
2.5 3 4
2 3 4
1.5 3 4
1 3 4
0.5 3 4
4.5 3 3.5
4 3 3.5
3.5 3 3.5
3 3 3.5
2.5 3 3.5
2 3 3.5
1.5 3 3.5
1 3 3.5
0.5 3 3.5
4.5 3 3
4 3 3
3.5 3 3
3 3 3
2.5 3 3
2 3 3
1.5 3 3
1 3 3
0.5 3 3
4.5 3 2.5
4 3 2.5
3.5 3 2.5
3 3 2.5
2.5 3 2.5
2 3 2.5
1.5 3 2.5
1 3 2.5
0.5 3 2.5
4.5 3 2
4 3 2
3.5 3 2
3 3 2
2.5 3 2
2 3 2
1.5 3 2
1 3 2
0.5 3 2
4.5 3 1.5
4 3 1.5
3.5 3 1.5
3 3 1.5
2.5 3 1.5
2 3 1.5
1.5 3 1.5
1 3 1.5
0.5 3 1.5
4.5 3 1
4 3 1
3.5 3 1
3 3 1
2.5 3 1
2 3 1
1.5 3 1
1 3 1
0.5 3 1
4.5 3 0.5
4 3 0.5
3.5 3 0.5
3 3 0.5
2.5 3 0.5
2 3 0.5
1.5 3 0.5
1 3 0.5
0.5 3 0.5
4.5 3.5 4.5
4 3.5 4.5
3.5 3.5 4.5
3 3.5 4.5
2.5 3.5 4.5
2 3.5 4.5
1.5 3.5 4.5
1 3.5 4.5
0.5 3.5 4.5
4.5 3.5 4
4 3.5 4
3.5 3.5 4
3 3.5 4
2.5 3.5 4
2 3.5 4
1.5 3.5 4
1 3.5 4
0.5 3.5 4
4.5 3.5 3.5
4 3.5 3.5
3.5 3.5 3.5
3 3.5 3.5
2.5 3.5 3.5
2 3.5 3.5
1.5 3.5 3.5
1 3.5 3.5
0.5 3.5 3.5
4.5 3.5 3
4 3.5 3
3.5 3.5 3
3 3.5 3
2.5 3.5 3
2 3.5 3
1.5 3.5 3
1 3.5 3
0.5 3.5 3
4.5 3.5 2.5
4 3.5 2.5
3.5 3.5 2.5
3 3.5 2.5
2.5 3.5 2.5
2 3.5 2.5
1.5 3.5 2.5
1 3.5 2.5
0.5 3.5 2.5
4.5 3.5 2
4 3.5 2
3.5 3.5 2
3 3.5 2
2.5 3.5 2
2 3.5 2
1.5 3.5 2
1 3.5 2
0.5 3.5 2
4.5 3.5 1.5
4 3.5 1.5
3.5 3.5 1.5
3 3.5 1.5
2.5 3.5 1.5
2 3.5 1.5
1.5 3.5 1.5
1 3.5 1.5
0.5 3.5 1.5
4.5 3.5 1
4 3.5 1
3.5 3.5 1
3 3.5 1
2.5 3.5 1
2 3.5 1
1.5 3.5 1
1 3.5 1
0.5 3.5 1
4.5 3.5 0.5
4 3.5 0.5
3.5 3.5 0.5
3 3.5 0.5
2.5 3.5 0.5
2 3.5 0.5
1.5 3.5 0.5
1 3.5 0.5
0.5 3.5 0.5
4.5 4 4.5
4 4 4.5
3.5 4 4.5
3 4 4.5
2.5 4 4.5
2 4 4.5
1.5 4 4.5
1 4 4.5
0.5 4 4.5
4.5 4 4
4 4 4
3.5 4 4
3 4 4
2.5 4 4
2 4 4
1.5 4 4
1 4 4
0.5 4 4
4.5 4 3.5
4 4 3.5
3.5 4 3.5
3 4 3.5
2.5 4 3.5
2 4 3.5
1.5 4 3.5
1 4 3.5
0.5 4 3.5
4.5 4 3
4 4 3
3.5 4 3
3 4 3
2.5 4 3
2 4 3
1.5 4 3
1 4 3
0.5 4 3
4.5 4 2.5
4 4 2.5
3.5 4 2.5
3 4 2.5
2.5 4 2.5
2 4 2.5
1.5 4 2.5
1 4 2.5
0.5 4 2.5
4.5 4 2
4 4 2
3.5 4 2
3 4 2
2.5 4 2
2 4 2
1.5 4 2
1 4 2
0.5 4 2
4.5 4 1.5
4 4 1.5
3.5 4 1.5
3 4 1.5
2.5 4 1.5
2 4 1.5
1.5 4 1.5
1 4 1.5
0.5 4 1.5
4.5 4 1
4 4 1
3.5 4 1
3 4 1
2.5 4 1
2 4 1
1.5 4 1
1 4 1
0.5 4 1
4.5 4 0.5
4 4 0.5
3.5 4 0.5
3 4 0.5
2.5 4 0.5
2 4 0.5
1.5 4 0.5
1 4 0.5
0.5 4 0.5
4.5 4.5 4.5
4 4.5 4.5
3.5 4.5 4.5
3 4.5 4.5
2.5 4.5 4.5
2 4.5 4.5
1.5 4.5 4.5
1 4.5 4.5
0.5 4.5 4.5
4.5 4.5 4
4 4.5 4
3.5 4.5 4
3 4.5 4
2.5 4.5 4
2 4.5 4
1.5 4.5 4
1 4.5 4
0.5 4.5 4
4.5 4.5 3.5
4 4.5 3.5
3.5 4.5 3.5
3 4.5 3.5
2.5 4.5 3.5
2 4.5 3.5
1.5 4.5 3.5
1 4.5 3.5
0.5 4.5 3.5
4.5 4.5 3
4 4.5 3
3.5 4.5 3
3 4.5 3
2.5 4.5 3
2 4.5 3
1.5 4.5 3
1 4.5 3
0.5 4.5 3
4.5 4.5 2.5
4 4.5 2.5
3.5 4.5 2.5
3 4.5 2.5
2.5 4.5 2.5
2 4.5 2.5
1.5 4.5 2.5
1 4.5 2.5
0.5 4.5 2.5
4.5 4.5 2
4 4.5 2
3.5 4.5 2
3 4.5 2
2.5 4.5 2
2 4.5 2
1.5 4.5 2
1 4.5 2
0.5 4.5 2
4.5 4.5 1.5
4 4.5 1.5
3.5 4.5 1.5
3 4.5 1.5
2.5 4.5 1.5
2 4.5 1.5
1.5 4.5 1.5
1 4.5 1.5
0.5 4.5 1.5
4.5 4.5 1
4 4.5 1
3.5 4.5 1
3 4.5 1
2.5 4.5 1
2 4.5 1
1.5 4.5 1
1 4.5 1
0.5 4.5 1
4.5 4.5 0.5
4 4.5 0.5
3.5 4.5 0.5
3 4.5 0.5
2.5 4.5 0.5
2 4.5 0.5
1.5 4.5 0.5
1 4.5 0.5
0.5 4.5 0.5
</DataArray>
</Points>
</Piece>
</UnstructuredGrid>
</VTKFile>
