
   THE FOLLOWING TABLE IS PRINTED FOR ALL ELEMENTS WITH TYPE C3D8 AVERAGED AT THE NODES

       NODE  FOOT-   S11         S22         S33         S12         S13         S23     
             NOTE 

           1       -370.6      -943.6      -48.59       186.2       16.62       7.742
           2        185.3      -945.4       144.9       17.93      -1.576       128.3
           3        198.2      -664.3       1311.       177.7      -9.449       142.8
           4        1179.      -477.6       287.4       125.7      -12.87       143.0
           5       -93.49      -418.2      -244.8       233.2      -10.29      -1.240
           6       -184.7      -190.5       301.3       41.50       35.21       273.3
           7        428.6       325.3       1153.      -66.50       36.67       94.64
           8        351.8       169.0       333.5       137.9       10.04      -34.98
           9        3111.       2965.      -4584.      -1511.       18.92       74.94
          10        1422.      1.0133E+04  -3189.      -1104.      -9.931      -201.3
          11       -2471.      1.0331E+04   1274.       249.3      -78.67      -677.5
          12       -3995.       3523.       3370.       145.7       75.34      -1406.
          13       -387.8      -5639.      -6379.      -722.4      -141.1       27.83
          14       -6863.      -4389.      -516.3       102.7      -13.67      -543.8
          15       -5982.      -5982.      -990.9       42.74       48.18       10.13
          16       -627.0      -7239.      -6075.       48.00       15.51       112.1
          17       -4189.       4262.       691.7       34.84       11.98      -925.8
          18        201.6       3462.      -4614.      -915.2       3.044       51.99
          19       -926.4       589.3      -1311.       371.6       59.04       206.7
          20       -1693.       296.0      -579.0       146.5       66.59       342.9
          21       -900.4      -1643.      -1933.       537.7       26.34       139.8
          22       -1926.      -857.3      -800.9       165.1       32.61       407.8
          23       -195.9      -210.7       1967.       5.440       14.94       277.2
          24        354.4       62.71       2433.       14.15      -32.57       99.55
          25        2339.       207.1       365.1       183.3      -23.90      -3.323
          26        1700.      -297.7      -213.5       221.9      -19.37      -13.04
          27       -112.3      -208.8       2678.       51.83      -23.96       142.8
          28       -70.20       179.6       3338.       63.85      -14.76       88.73
          29        2783.       87.89       51.72       181.8      -28.58       87.47
          30        2061.      -100.9      -96.92       144.8     -0.5500       67.49
          31        190.5      -242.1      -8034.      -41.93       21.27       406.0
          32       -127.3     -1.0429E+04  -311.4      -13.93       14.92       928.0
          33        248.8      -331.8      -8080.       32.33       4.892      -327.4
          34        55.04      -6009.      -2848.       17.23      -11.68      -156.3
          35        45.87      -2791.      -6600.       23.08      -31.70      -441.7
          36        37.82      -2804.      -6503.      -30.94      -12.06       350.7
          37        1118.      -889.1      -4580.       642.0      -324.3       389.7
          38        787.4      -323.7      -3527.      -572.4      -196.1      -216.3
          39       -159.6       1025.       1500.      -5.142       653.6       402.1
          40       -453.7      -852.7       1284.      -102.4       642.9       84.62
          41       -206.2       3230.      -433.6      -718.6      -157.1      -242.0
          42       -640.7       2885.      -2981.       216.0      -300.8       21.66
          43      -1.5400E+04  -1307.     -1.5955E+04   201.9     -0.2351       242.1
          44        132.7      -800.1      -6709.      -530.6      -60.80       162.3
          45       -6259.      -639.8      -91.89       210.5      -20.08      -611.4
          46        3522.       1269.      -5704.      -1705.       56.02      -31.78
          47       -4968.       1150.       3335.       109.0       53.21      -1573.
          48        3352.      -1342.       2658.       202.7      0.4168       128.8
          49       1.7382E+04  -398.2      1.7495E+04   434.1      0.1131       409.6
          50       -363.3       2852.      -314.1       339.6      -3.799     -0.2272
          51        1082.       3764.      -191.7      0.1269       179.3       48.57
          52        62.34      1.0015E+04   241.4       247.2      -35.19       33.70
          53       -747.8      -831.9      -698.5       256.3      -254.3       302.7
          54       -256.1      -398.9       1786.      -256.2      -171.9      -312.7
          55        122.5       33.90       808.6       68.92      -145.6      -8.636
          56        222.4       26.89      -96.06       273.4      -52.99       3.396
          57       -375.5       618.1      -795.1      -147.4      -345.9      -87.13
          58       -440.5       3498.       81.36      0.1422       183.3       75.01
          59       -355.0      -914.1      -25.89      -119.9      -14.29      0.7852
          60       -385.6      -818.4      -54.07      -212.9      -5.216       16.89
          61       -453.7      -769.8      -107.8      -293.8       11.14       34.80
          62       -243.9      -696.6      -44.80      -409.0       22.13      -2.589
          63       -131.7      -613.6      -59.73      -509.0       18.45      -10.12
          64       -186.9      -613.8      -90.86      -595.3       25.87       9.065
          65       -177.2      -485.7      -81.13      -657.4       15.43      -2.391
          66       -619.8      -442.5      -279.5      -738.2       18.77       2.163
          67        5.825      -10.47       10.03      -790.8       35.96      -6.539
          68       -136.1       167.0      -38.86      -814.9       64.41      -31.61
          69       -140.5       290.0      -41.59      -808.3       38.62      -21.60
          70       -398.6       337.0      -187.3      -830.5       17.96      -28.23
          71       -461.4       524.5      -260.0      -832.0       27.49      -32.55
          72       -302.0       693.2      -166.8      -818.0       64.11      -65.60
          73       -174.0       810.5      -66.57      -788.7       81.97      -109.3
          74       -422.5       872.1      -129.3      -752.0       60.08      -160.3
          75       -327.0       1153.      -174.0      -698.9       48.71      -200.0
          76       -150.8       1327.      -78.70      -642.6       80.34      -254.9
          77       -34.91       1395.      -28.61      -570.4       101.1      -302.4
          78       -181.8       1322.      -231.4      -515.4       77.07      -366.3
          79        125.1       1482.       59.02      -441.6       63.93      -433.1
          80       -138.5       1282.      -291.5      -372.5       64.46      -507.6
          81       -146.1       1274.      -286.6      -303.4       69.65      -574.7
          82       -146.8       1137.      -299.4      -245.7       77.85      -648.3
          83       -75.06       1103.      -255.1      -187.9       67.52      -724.8
          84       -135.2       932.6      -308.1      -107.8       47.90      -746.4
          85       -191.8       813.4      -294.4      -45.66       40.91      -781.7
          86       -216.4       782.6      -325.9      -33.39       49.16      -845.9
          87        15.19       553.9      -17.85       1.394       80.20      -893.8
          88       -53.04       511.9      -351.8       35.99       39.13      -926.2
          89       -104.8       287.4      -320.6       41.60       28.43      -960.0
          90       -97.88      -31.21      -683.0       45.02      0.6838      -942.4
          91        108.9      -167.3       53.19       79.46       10.60      -897.4
          92       -20.91      -471.9      -346.4       108.9      -8.019      -843.3
          93       -101.7      -618.6      -474.6       38.57      -51.25      -800.7
          94       -61.15      -979.3      -600.1       46.87      -45.68      -719.5
          95        17.50      -830.5      -146.4       61.01      -29.17      -593.5
          96        8.217      -1141.       32.33       32.17      -7.277      -467.2
          97        9.340      -1130.      -239.8       19.25      0.5745      -355.4
          98       -220.2      -1256.      -777.3       26.33      -10.03      -211.5
          99        201.6      -724.2       672.0       170.1      -11.43      -149.6
         100        65.34      -679.4       808.0       174.7       9.940      -274.6
         101        330.9      -409.9       688.4       210.5       18.82      -367.2
         102        96.07      -404.7       851.2       192.2       9.263      -448.8
         103        128.6      -463.9       543.8       189.9      -5.363      -530.7
         104        90.23      -246.3       615.6       174.9      -36.87      -618.3
         105        186.9      -105.8       691.2       141.3      -3.876      -666.0
         106        284.3       12.65       1174.       146.8      -7.049      -738.0
         107        69.42      0.5298       346.2       100.9      -41.03      -764.8
         108        83.85       39.81       676.9       69.89      -71.45      -761.8
         109        102.9       121.2       575.9       3.933      -72.32      -733.6
         110        207.0       192.4       754.1      -26.65      -75.89      -750.8
         111        270.2       394.3       591.2      -58.28      -114.7      -747.5
         112        225.7       413.6       471.8      -112.3      -144.9      -716.5
         113        193.2       459.6       416.2      -121.7      -158.6      -668.8
         114        225.6       523.4       555.7      -181.3      -170.3      -647.5
         115        402.0       673.0       506.9      -242.8      -182.2      -596.9
         116        470.0       755.7       577.7      -303.0      -199.5      -527.0
         117        285.5       648.0       283.4      -369.9      -219.8      -467.5
         118        276.3       555.4       227.1      -437.2      -213.6      -427.2
         119        771.0       646.8       552.2      -472.2      -199.3      -382.6
         120        475.6       561.9       426.7      -511.6      -192.6      -336.2
         121        457.5       580.9       380.5      -585.1      -202.6      -275.2
         122        380.6       499.7       271.5      -636.6      -210.0      -214.5
         123        649.0       547.8       273.2      -661.5      -189.3      -160.2
         124        611.6       495.3       200.8      -670.1      -142.6      -121.5
         125        548.2       427.1       208.1      -697.1      -154.1      -89.89
         126        460.5       372.9       180.9      -708.6      -144.4      -63.69
         127        791.1       325.5       260.5      -693.9      -130.0      -24.21
         128        764.7       132.3       211.3      -631.1      -117.6       21.05
         129        629.2       18.57       154.1      -626.8      -92.52       26.83
         130        1152.       13.24       247.2      -616.0      -39.99       22.79
         131        356.0      -128.4      -3.431      -555.3      -60.04       84.33
         132        485.7      -202.1       85.38      -495.9      -46.27       127.1
         133        521.2      -146.5       174.8      -451.9      -45.23       118.2
         134        897.4      -207.2       185.0      -382.2      -47.55       125.0
         135        828.5      -204.4       223.6      -305.9      -8.031       132.0
         136        641.8      -487.4       170.6      -260.4      -6.735       151.6
         137        644.2      -546.5       115.2      -188.7      -26.82       167.4
         138        530.1      -567.5       227.6      -110.5      -14.81       141.8
         139       -34.81      -381.0      -215.6       46.33       59.27       39.00
         140        560.2      -106.0      -136.3       44.65       49.34       40.36
         141       -112.7      -163.6      -180.1       108.4      -45.71       27.71
         142       -729.6      -283.3      -340.9       7.881       114.4       75.40
         143        178.2      -110.4      -166.6       38.32       142.8      -14.50
         144       -6.136      -227.1      -439.7       104.1       85.24      -17.04
         145       -195.0      -260.7      -319.5       117.4       73.08       17.29
         146       -315.5      -153.3      -316.9       126.7       81.79       13.95
         147       -205.8      -157.4      -398.0       13.45       116.5      -39.14
         148        146.3      -5.717      -340.6       7.499       153.6      -88.86
         149        162.9      -125.2      -319.7       124.1       79.89      -96.19
         150       -60.81      -105.8      -469.3       86.43       76.90      -82.63
         151       -269.3      -383.2      -460.4       40.96       56.54      -66.08
         152        169.4      -173.4      -330.5       3.782       58.75      -84.66
         153       -281.4      -106.4      -436.0       2.297       83.59      -120.9
         154        55.39      -16.91      -345.9      -17.84       51.37      -155.5
         155       -221.6      -347.2      -405.9     -0.8236      -3.872      -118.4
         156       -343.4      -164.6      -403.5      -29.44       5.700      -74.23
         157       -305.3      -262.7      -545.8      -50.78      -1.004      -88.58
         158       -279.9      -215.7      -367.9      -45.57      -16.35      -72.35
         159       -283.9      -98.85      -288.7      -64.54      -10.37      -49.23
         160       -322.0      -21.27      -209.9      -92.48     -0.8453      -1.999
         161       -302.2      -17.94      -75.98      -177.4       34.92      -67.44
         162       -306.6       21.50      -128.1      -132.8       51.08      -68.38
         163       -221.1      -20.13      -6.746      -105.6       64.89      -56.56
         164       -430.5      -17.10      -279.4      -77.93       31.22       7.760
         165       -424.3      -5.946      -59.40      -141.7       43.81       49.22
         166       -371.4      -166.1       26.90      -133.2       107.2       38.41
         167       -360.7       3.139      -2.966      -88.21       94.24       47.33
         168       -447.7      -312.6      -284.8      -83.10       108.4       68.65
         169       -325.4      -172.2      -228.8      -23.21       89.29       87.14
         170       -455.7      -442.4      -168.1      -34.04       121.4       62.41
         171       -387.3      -424.5      -106.6       2.053       71.91       112.7
         172       -189.2      -155.1       346.1      -41.07       86.20       80.59
         173       -504.1      -432.7      -315.0       37.36       109.3       100.3
         174       -281.9      -310.8      -197.6       43.02       54.98       63.37
         175       -255.0      -264.3      -132.9       24.54       87.13       60.67
         176       -215.8      -204.2      -29.92       73.49       55.66       26.55
         177       -226.6      -210.2       6.384       81.60       43.62      -3.316
         178       -290.5      -191.4      -341.7       111.2      -1.447       47.74
         179        349.3       284.5       565.2      -113.0      -56.08      -25.57
         180        309.9       211.6       585.2      -96.29      -99.56       43.82
         181        376.3       206.0       424.2      -83.60      -140.4       50.87
         182        348.5       226.8       559.5      -71.82      -125.8       61.43
         183        329.6       325.7       533.8      -84.54      -231.4       46.37
         184        467.4       198.5       293.2      -109.6      -165.8       56.96
         185        387.9       342.8       449.4      -40.18      -218.5       58.66
         186        462.7       443.5       347.5      -48.26      -195.9       97.73
         187        423.4       443.0       440.4      -28.98      -220.2       83.82
         188        413.0       190.7       118.1      -71.67      -239.9       84.35
         189        481.5       224.3       296.6      -25.21      -224.3       101.4
         190        375.7       27.27       12.32      -72.42      -193.6       104.3
         191        522.6       221.7       385.3      -2.302      -130.4       94.40
         192        249.9       27.60       3.543      -3.989      -148.3       58.29
         193        384.5      -3.009       185.3      -72.57      -155.8       75.94
         194        403.0       129.4       112.6      -27.98      -120.4       100.3
         195        365.7      -4.420       113.2       3.543      -76.70       113.9
         196        707.7       202.6       773.4       86.50      -76.79       65.35
         197        245.6       152.2       54.58       60.50      -82.88      -9.935
         198        262.6       66.18       240.3       32.89      -89.29       51.04
         199        408.4       308.1       469.9       16.07      -93.93       23.28
         200        418.2       275.3       546.7       57.03      -115.5       7.882
         201        239.0       231.6       407.7       40.44      -127.5      -4.819
         202        290.8       302.1       399.2       32.56      -150.9       19.64
         203        358.9       125.9       487.4       62.34      -154.8       8.265
         204        338.9       86.86       492.9       123.6      -135.8      -16.22
         205        46.57       250.7       400.0       96.53      -188.0      -29.13
         206        352.9       329.9       433.2       94.33      -205.9      -42.22
         207        2.902       10.48       272.0       50.60      -226.4      -62.53
         208        235.5       123.1       341.3       60.90      -225.5      -1.745
         209        583.4       156.9       516.5       87.25      -215.2      -19.09
         210        340.3       145.8       434.0       136.5      -215.3      -84.78
         211        319.3       142.0       399.2       91.31      -221.1      -98.53
         212       -102.2      -14.73       162.5       42.81      -233.2      -84.30
         213        654.5       370.6       463.1       46.19      -201.6      -43.74
         214        564.3       157.4       423.1       79.33      -126.2      -41.61
         215        109.3       183.5       337.5       60.10      -151.7      -111.1
         216        580.4       133.0       285.6       54.13      -164.2      -78.07
         217        208.9       219.1       254.1      -7.191      -49.59      -61.02
         218        386.0       287.2       290.5      -17.17      -31.61      -19.80
         219        169.9       442.1       255.7       132.7      -14.08       72.37
         220        411.7      -282.7      -304.0       200.2       9.064      -39.53
         221        112.5      -103.4       198.0       96.36      -7.865       138.1
         222       -273.1       79.51      -290.5      -54.97       29.11       194.6
         223        3031.       6505.      -3522.      -1910.      -76.34       230.4
         224        1973.       8826.      -3502.      -1585.       16.60       124.4
         225        1778.      1.1428E+04  -3006.      -1253.      -221.2       160.3
         226        506.4      1.0095E+04  -3398.      -982.3       186.6      -183.6
         227        384.8       9644.      -3490.      -736.6       337.0      -45.71
         228        408.7      1.0467E+04  -3020.      -731.4       523.9       239.5
         229        664.8      1.0574E+04  -2904.      -784.2       727.5       441.6
         230        756.2      1.1114E+04  -2842.      -846.0       885.3       523.7
         231        984.9      1.1489E+04  -2445.      -884.8       922.0       577.2
         232        1410.      1.2123E+04  -1984.      -940.0       940.9       658.1
         233        190.9      1.1784E+04  -1914.      -1012.       1096.       684.7
         234        481.5      1.3116E+04  -2176.      -1072.       1323.       583.4
         235        562.9      1.2771E+04  -1670.      -1064.       1288.       453.5
         236        749.5      1.3467E+04  -1385.      -1169.       1436.       379.0
         237        730.0      1.0882E+04  -1526.      -1139.       1434.       354.1
         238        12.05      1.2614E+04  -1320.      -1136.       1560.       288.4
         239       -143.4      1.2785E+04  -1454.      -1039.       1702.       179.9
         240       -339.6      1.2900E+04  -1533.      -1009.       1769.       52.02
         241       -558.3      1.3112E+04  -1522.      -979.4       1859.      -188.9
         242       -467.4      1.3285E+04  -1385.      -867.1       1904.      -424.5
         243       -550.8      1.3522E+04  -832.0      -778.1       1863.      -565.8
         244       -618.6      1.3674E+04  -670.2      -701.2       1969.      -543.6
         245       -765.5      1.3204E+04  -812.2      -742.2       2047.      -687.9
         246       -766.1      1.3429E+04  -655.3      -620.0       2058.      -830.5
         247       -711.1      1.4366E+04  -869.4      -470.8       2047.      -802.0
         248       -896.1      1.3906E+04  -668.1      -463.2       1838.      -1044.
         249       -1002.      1.3405E+04   19.09      -248.6       1882.      -1036.
         250       -1372.      1.4492E+04   263.7      -74.42       1836.      -867.3
         251       -1367.      1.3046E+04   83.05      -36.37       1856.      -1034.
         252       -1673.      1.2404E+04  -18.36       21.61       1837.      -1102.
         253       -1945.      1.2124E+04  -110.4       80.58       1733.      -1120.
         254       -1977.      1.2095E+04  -72.46       138.2       1585.      -1019.
         255       -1810.      1.2224E+04   719.8       186.4       1509.      -937.7
         256       -1951.      1.1597E+04   675.2       186.5       1471.      -919.5
         257       -2256.      1.1269E+04   675.5       178.8       1357.      -903.6
         258       -2163.      1.1031E+04   719.2       202.3       1200.      -840.7
         259       -2434.      1.1009E+04   451.5       254.5       1077.      -810.0
         260       -2658.      1.0267E+04   543.3       258.7       923.0      -909.5
         261       -2971.       9184.       554.2       202.1       757.1      -953.8
         262       -2649.      1.0081E+04   627.5       192.7       585.3      -913.4
         263       -2495.      1.0371E+04   904.3       216.8       376.3      -831.1
         264       -2745.      1.0006E+04   535.2       207.3       295.3      -757.3
         265       -2892.      1.0402E+04   370.4       206.6       204.1      -738.3
         266       -3600.       9512.       732.9       155.1      -26.50      -1388.
         267       -3231.       9056.       2018.      -4.626       23.95      -1906.
         268       -2610.       9018.       3538.       73.29       11.19      -1775.
         269       -4009.       3517.       4263.       103.4       167.3      -1441.
         270       -3826.       4301.       4078.       73.18       295.5      -1464.
         271       -3922.       3748.       4280.      -60.80       366.9      -1460.
         272       -3784.       3472.       3540.      -13.35       477.4      -1519.
         273       -3923.       2879.       3259.       6.288       597.5      -1538.
         274       -3829.       2738.       3099.       108.7       767.1      -1544.
         275       -3117.       4542.       2818.       24.55       901.4      -1535.
         276       -3255.       3085.       3873.      -48.93       1048.      -1495.
         277       -2967.       4299.       3580.      -34.98       1096.      -1548.
         278       -3216.       3068.       2393.      -92.39       1219.      -1516.
         279       -2259.       4196.       3213.      -145.1       1386.      -1426.
         280       -1922.       4021.       2862.      -257.0       1482.      -1488.
         281       -1507.       4485.       2908.      -341.4       1566.      -1427.
         282       -1645.       3753.       1845.      -410.8       1643.      -1363.
         283       -1246.       4206.       2377.      -571.7       1734.      -1339.
         284       -1261.       3523.       1913.      -634.5       1764.      -1338.
         285       -748.0       3253.       1431.      -603.9       1816.      -1306.
         286       -95.50       3980.       1342.      -685.1       1880.      -1251.
         287        381.0       4397.       1354.      -787.2       1874.      -1154.
         288        709.2       5132.       1280.      -932.6       1906.      -1044.
         289        1185.       4223.       997.3      -1015.       1908.      -964.5
         290        1183.       4458.       440.3      -1108.       1840.      -847.4
         291        1521.       4369.       145.6      -1166.       1783.      -756.2
         292        1753.       3834.      -429.7      -1257.       1807.      -671.3
         293        1662.       3007.      -1210.      -1331.       1732.      -589.2
         294        2115.       3666.      -1202.      -1321.       1580.      -419.7
         295        2973.       3918.      -958.4      -1351.       1495.      -377.1
         296        2917.       4491.      -1904.      -1432.       1418.      -317.3
         297        3293.       5637.      -1544.      -1501.       1294.      -150.4
         298        4096.       6368.      -1666.      -1534.       1301.      -38.58
         299        3238.       4179.      -2466.      -1553.       1225.       19.77
         300        3263.       4106.      -2694.      -1582.       1035.       55.02
         301        3121.       4083.      -3255.      -1607.       834.1       62.62
         302        3700.       5202.      -3231.      -1656.       725.3       185.3
         303        3462.       2863.      -4068.      -1624.       660.1       241.7
         304        3877.       3101.      -4220.      -1571.       584.0       144.1
         305        4451.       3937.      -4006.      -1537.       463.3       160.8
         306        3029.       3865.      -4699.      -1521.       303.6       235.5
         307        3878.       4063.      -4412.      -1508.       183.1       216.6
         308        4095.       3804.      -4551.      -1506.       150.9       94.88
         309       -624.2      -5679.      -6749.      -95.83      -82.86      -124.6
         310        37.67      -6016.      -6222.      -8.595      -112.7      -1.867
         311       -347.7      -6809.      -5888.      -23.99      -58.32       6.918
         312       -6821.      -4424.      -707.7       192.5       132.3      -607.0
         313       -6509.      -3495.      -407.9       347.1       331.4      -485.7
         314       -6489.      -3820.      -365.6       368.8       562.6      -561.9
         315       -6305.      -3514.      -553.1       433.5       825.9      -657.6
         316       -6252.      -3587.      -583.8       555.1       1030.      -646.6
         317       -6179.      -3567.      -673.0       681.0       1217.      -733.4
         318       -6063.      -3420.      -856.6       764.5       1323.      -748.3
         319       -5875.      -3217.      -885.7       772.1       1425.      -825.1
         320       -5474.      -2611.      -922.6       782.2       1589.      -890.7
         321       -5450.      -2576.      -1075.       726.2       1745.      -937.5
         322       -5474.      -2972.      -1460.       605.6       1857.      -948.9
         323       -5052.      -2245.      -1730.       537.7       1971.      -893.2
         324       -4689.      -1791.      -1690.       496.2       2033.      -894.1
         325       -4445.      -1464.      -1786.       429.5       2112.      -890.3
         326       -4162.      -1152.      -1994.       320.8       2205.      -840.9
         327       -4099.      -1399.      -2575.       122.5       2216.      -633.6
         328       -4191.      -2212.      -2119.      -108.5       2266.      -616.6
         329       -3432.      -1673.      -2530.      -295.8       2428.      -681.3
         330       -3509.      -1892.      -2894.      -398.5       2288.      -534.4
         331       -3330.      -998.1      -3036.      -519.6       2430.      -320.1
         332       -2990.      -1277.      -3327.      -592.8       2383.      -192.1
         333       -2623.      -616.9      -3191.      -643.7       2375.      -85.85
         334       -2638.      -883.5      -3671.      -723.3       2387.       32.07
         335       -2446.      -958.5      -3953.      -852.5       2388.       210.1
         336       -2137.      -838.6      -4098.      -876.8       2322.       388.1
         337       -1988.      -898.1      -4425.      -842.7       2255.       516.2
         338       -1942.      -1401.      -4768.      -854.1       2226.       593.4
         339       -1765.      -2307.      -5212.      -920.1       2167.       633.2
         340       -1458.      -2128.      -5299.      -950.9       2056.       658.3
         341       -1336.      -1865.      -5319.      -836.4       1906.       723.0
         342       -897.0      -2456.      -5547.      -871.6       1834.       694.3
         343       -925.0      -2217.      -5848.      -847.9       1732.       626.7
         344       -1026.      -2063.      -6021.      -660.8       1560.       573.4
         345       -839.7      -2695.      -6234.      -526.3       1410.       504.6
         346       -852.9      -2949.      -6447.      -565.5       1274.       378.6
         347       -502.5      -3272.      -6462.      -575.1       1054.       195.7
         348       -492.7      -3954.      -6530.      -638.1       789.4     -0.9717
         349       -515.4      -4702.      -6599.      -587.4       535.2      -134.1
         350       -452.2      -5273.      -6640.      -561.0       311.4      -69.58
         351       -460.9      -5649.      -6539.      -702.7       108.3       13.88
         352       -6251.      -5744.      -243.6      -3.724       32.12       23.25
         353       -6934.      -5604.      -320.6       102.0       48.31      -6.469
         354       -7515.      -5656.      -697.3       251.4       28.66      -97.70
         355       -369.5      -7114.      -5994.       126.2       179.9      -97.53
         356       -303.2      -6954.      -6266.       211.4       365.5      -286.7
         357       -976.8      -5648.      -5710.       126.5       485.9      -495.1
         358       -985.0      -6632.      -6167.       61.98       583.8      -527.4
         359       -505.6      -6762.      -6392.       75.79       750.1      -408.8
         360       -710.0      -5674.      -5850.       61.57       941.1      -421.9
         361       -1036.      -4127.      -5708.      -68.60       1057.      -442.9
         362       -1202.      -3616.      -5671.      -140.3       1233.      -301.3
         363       -1230.      -3654.      -5406.      -246.5       1435.      -109.9
         364       -1604.      -4329.      -5402.      -244.4       1533.      -96.79
         365       -1842.      -2894.      -4942.      -260.8       1577.      -168.0
         366       -1701.      -2420.      -4816.      -344.7       1644.      -202.4
         367       -1977.      -2145.      -4831.      -425.8       1737.      -147.0
         368       -1889.      -2672.      -4850.      -387.5       1884.      -54.16
         369       -1797.      -2618.      -4414.      -230.1       1916.      -52.96
         370       -2466.      -2006.      -4249.      -282.8       1993.      -236.3
         371       -2653.      -1925.      -3927.      -474.2       2063.      -223.3
         372       -3136.      -2622.      -3902.      -406.6       2017.      -147.2
         373       -2930.      -1820.      -3362.      -379.6       1987.      -289.6
         374       -2932.      -1215.      -3149.      -419.7       2076.      -189.2
         375       -3609.      -3375.      -3401.      -336.8       2114.      -152.0
         376       -3835.      -2546.      -3121.      -291.8       2077.      -247.6
         377       -3837.      -2699.      -2965.      -288.6       2062.      -295.1
         378       -3720.      -2808.      -2792.      -281.7       2040.      -404.8
         379       -3782.      -1178.      -1867.      -235.3       1971.      -434.0
         380       -4441.      -1251.      -2256.      -306.2       1901.      -430.2
         381       -4557.      -2720.      -1840.      -335.7       1854.      -348.6
         382       -4783.      -2719.      -1691.      -247.2       1764.      -259.3
         383       -4799.      -3272.      -1711.      -207.8       1616.      -273.3
         384       -4948.      -3204.      -1417.      -134.3       1540.      -267.5
         385       -5386.      -4039.      -1483.      -75.25       1464.      -267.9
         386       -5651.      -5241.      -1208.      -80.33       1377.      -196.4
         387       -5731.      -4580.      -1416.      -87.07       1240.      -132.4
         388       -5600.      -4722.      -1021.      -83.93       1095.      -123.8
         389       -5612.      -5816.      -745.5      -103.5       938.3       26.02
         390       -5853.      -6517.      -569.9       4.411       820.1       133.8
         391       -6118.      -5530.      -993.5       128.7       626.6       28.77
         392       -6421.      -7086.      -903.1       63.89       525.4      -119.8
         393       -6111.      -6163.      -596.9      -74.28       293.2      -110.2
         394       -6103.      -6510.      -499.4      -115.2       120.0       10.67
         395       -4197.       4495.       439.5      -56.59       168.3      -962.8
         396       -4778.       2355.       11.55      -45.56       317.4      -1012.
         397       -4076.       4847.       521.8       27.94       437.9      -1015.
         398       -3987.       4666.       791.9      -19.46       586.6      -963.6
         399       -4193.       5079.       81.01      -48.13       743.3      -960.7
         400       -4103.       4683.       213.9      -42.56       870.7      -1019.
         401       -4125.       4317.       376.8      -79.61       967.3      -1051.
         402       -3670.       5254.       477.5      -107.2       1110.      -1035.
         403       -3694.       4436.       113.0      -137.6       1251.      -1031.
         404       -3186.       5417.      -69.46      -110.3       1391.      -1068.
         405       -3604.       5028.      -413.6      -193.7       1514.      -1100.
         406       -3293.       5039.      -244.7      -260.0       1593.      -1099.
         407       -3165.       4988.      -676.3      -351.3       1660.      -1109.
         408       -3119.       5232.      -713.3      -433.9       1735.      -1046.
         409       -2872.       4981.      -844.3      -516.1       1820.      -982.8
         410       -2593.       5759.      -1026.      -539.6       1882.      -970.2
         411       -2143.       6583.      -828.6      -598.7       1915.      -919.3
         412       -1679.       7224.      -836.1      -669.6       1920.      -925.7
         413       -1639.       7005.      -1217.      -709.5       1978.      -907.3
         414       -1860.       6097.      -1733.      -775.1       1977.      -832.5
         415       -1907.       5925.      -1983.      -893.6       1970.      -795.2
         416       -1052.       6348.      -1666.      -961.9       1958.      -687.1
         417       -791.1       6776.      -1814.      -989.3       1909.      -578.7
         418       -1211.       5373.      -2539.      -1070.       1852.      -497.2
         419       -690.4       6899.      -2119.      -1076.       1835.      -475.7
         420       -919.6       5427.      -2764.      -1044.       1802.      -476.5
         421       -462.2       6681.      -2514.      -1077.       1681.      -414.2
         422       -28.20       6120.      -2825.      -1116.       1622.      -312.6
         423       -519.9       4113.      -3913.      -1080.       1546.      -183.8
         424        146.8       5120.      -3537.      -1110.       1432.      -158.1
         425       -371.7       5329.      -3906.      -1117.       1298.      -83.73
         426       -583.3       4216.      -4372.      -1142.       1202.      -101.8
         427        290.2       4666.      -3748.      -1071.       1077.      -137.7
         428        597.5       4470.      -4125.      -1021.       932.9      -127.1
         429        79.37       4773.      -4437.      -985.7       803.1      -48.49
         430        42.44       4941.      -4330.      -1001.       679.6      -92.14
         431        150.7       4295.      -4315.      -1010.       584.3      -173.3
         432        486.8       4043.      -4258.      -976.7       433.4      -189.2
         433        255.2       3583.      -4550.      -958.6       284.6      -92.33
         434        243.9       3482.      -4504.      -953.2       145.0      -38.30
         435       -4719.       2291.       189.6       178.8       86.80      -703.5
         436        345.7       2400.      -4648.      -886.4      -116.3      -7.219
         437       -118.5      -5013.      -4645.       287.0       48.48       133.6
         438       -243.2      -3812.      -3695.       396.9       33.54       16.09
         439       -67.98      -2266.      -2517.       547.8       24.83       88.44
         440       -332.0      -868.8      -1807.       377.3       41.41       77.48
         441       -918.0       433.4      -898.4       418.5       123.2      -10.86
         442       -931.4       27.15      -1485.       426.4       325.0      -3.865
         443       -883.3       296.4      -1076.       389.0       564.7      -71.41
         444       -901.1       113.0      -1382.       361.7       648.7      -85.53
         445       -682.5       308.2      -1098.       292.6       765.7      -111.0
         446       -583.5       48.78      -1344.       237.8       917.0      -99.36
         447       -512.7       323.3      -1033.       189.9       1017.      -82.66
         448       -489.5       21.18      -1113.       121.6       1075.      -87.85
         449       -485.8      -217.2      -1106.       53.51       1135.      -124.2
         450       -255.6      -85.31      -916.5       12.95       1289.      -112.3
         451       -158.8      -149.6      -774.8      -27.68       1390.      -130.8
         452        11.03      -57.23      -641.8      -88.56       1443.      -151.9
         453       -87.46      -432.0      -808.3      -147.6       1465.      -158.2
         454       -85.42      -448.1      -539.9      -172.5       1505.      -154.4
         455        53.24      -470.6      -392.6      -215.2       1512.      -197.3
         456        114.1      -450.8      -237.6      -241.2       1574.      -248.6
         457        11.73      -417.6      -224.5      -286.9       1633.      -268.7
         458       -13.76      -649.6      -114.3      -303.6       1650.      -271.6
         459        30.83      -657.4      -93.14      -313.8       1647.      -280.3
         460        114.5      -612.2      -64.35      -323.3       1639.      -280.2
         461        132.6      -637.4      -44.08      -295.1       1634.      -284.8
         462       -9.598      -626.4      -155.0      -277.5       1636.      -275.2
         463        158.9      -448.4       69.80      -289.9       1611.      -277.4
         464       -28.37      -260.6       190.8      -287.7       1565.      -266.6
         465       -216.7      -489.8       58.59      -231.3       1499.      -225.4
         466       -344.4      -548.6      -125.1      -191.5       1446.      -186.9
         467       -355.6      -335.8       71.99      -165.5       1409.      -172.5
         468       -455.2      -344.0      -140.2      -135.9       1359.      -144.2
         469       -694.8      -46.85       18.03      -115.7       1295.      -97.14
         470       -822.5      -163.2      -147.9      -120.7       1191.      -27.83
         471       -912.6      -251.9      -318.9      -81.33       1076.       25.00
         472       -997.8      -141.6      -303.3      -55.06       976.2       64.93
         473       -1108.      -49.41      -420.4       12.64       901.3       113.9
         474       -1368.       6.296      -426.5      -21.04       811.2       152.2
         475       -1365.       11.16      -465.3      -46.38       691.7       188.0
         476       -1357.      -33.00      -568.2      -41.59       575.5       239.6
         477       -1408.       114.2      -605.8       2.226       480.2       280.3
         478       -1511.       100.5      -665.4       20.33       374.9       309.8
         479       -1620.       168.7      -667.7      -11.20       274.2       335.7
         480       -1549.       282.6      -602.7      -11.14       128.9       376.2
         481       -2125.      -887.6      -144.3       109.0       21.21       300.9
         482       -2592.      -2159.      -100.6       128.4       10.94       484.1
         483       -3562.      -3192.      -145.0       305.0       31.94       302.4
         484       -4791.      -3479.      -89.78       162.6       41.55       216.7
         485        558.0       2320.      -4252.      -449.0       2.743       10.45
         486        359.3       741.1      -3853.      -46.65       27.18       100.8
         487        364.1       69.45      -2865.       163.6       32.00       62.48
         488       -141.4      -1035.      -2304.       289.7       28.28       129.9
         489       -984.1      -1645.      -1609.       531.3       133.4      -141.7
         490       -893.7      -1299.      -1449.       496.9       273.0      -281.4
         491       -1038.      -1121.      -1294.       439.3       365.7      -472.9
         492       -883.2      -810.4      -1509.       410.0       476.3      -588.7
         493       -1083.      -902.5      -1424.       317.5       587.3      -666.9
         494       -1063.      -519.2      -1593.       230.2       658.3      -771.2
         495       -979.3      -368.6      -1447.       141.5       738.7      -863.9
         496       -832.1       213.0      -1628.       47.44       829.7      -906.5
         497       -913.0       198.8      -1059.      -33.24       898.7      -957.6
         498       -918.3       537.4      -1323.      -143.7       944.4      -1031.
         499       -952.2       813.0      -1491.      -256.0       979.1      -1071.
         500       -901.9       1313.      -1400.      -373.4       1044.      -1074.
         501       -1032.       1320.      -1165.      -472.7       1090.      -1094.
         502       -986.0       1684.      -1266.      -580.1       1117.      -1131.
         503       -934.7       1834.      -1350.      -671.1       1125.      -1102.
         504       -840.7       1761.      -1213.      -785.2       1163.      -1122.
         505       -635.0       2090.      -988.5      -875.3       1187.      -1117.
         506       -792.6       2219.      -1019.      -941.5       1192.      -1092.
         507       -867.9       2400.      -1011.      -990.8       1198.      -1049.
         508       -955.7       2350.      -1020.      -1036.       1199.      -1018.
         509       -969.8       2431.      -841.9      -1096.       1197.      -979.0
         510       -983.9       2195.      -873.2      -1148.       1186.      -921.5
         511       -1015.       2065.      -880.9      -1150.       1164.      -833.9
         512       -1093.       1759.      -984.2      -1137.       1148.      -769.0
         513       -934.0       2033.      -887.7      -1117.       1140.      -709.8
         514       -1149.       1801.      -860.6      -1116.       1111.      -626.8
         515       -1319.       1545.      -906.6      -1111.       1059.      -518.9
         516       -1262.       1254.      -882.8      -1082.       1029.      -415.0
         517       -1343.       961.1      -825.2      -1029.       973.7      -333.0
         518       -1248.       681.0      -958.1      -967.0       922.4      -251.9
         519       -1457.       452.6      -924.5      -881.6       876.5      -154.3
         520       -1499.       216.5      -825.9      -797.1       782.1      -47.31
         521       -1449.       166.2      -720.7      -742.0       706.0       37.74
         522       -1494.      -140.7      -767.1      -660.0       628.1       110.1
         523       -1567.      -310.6      -764.0      -554.0       550.5       177.4
         524       -1620.      -505.4      -791.8      -454.4       463.3       245.3
         525       -1752.      -647.7      -794.7      -388.0       374.4       301.0
         526       -1460.      -904.5      -793.8      -291.8       278.3       351.9
         527       -1540.      -920.2      -875.5      -180.3       201.5       375.4
         528       -1254.      -1032.      -868.4      -52.67       114.0       388.2
         529       -2011.      -549.4      -108.0       110.1       46.36       195.4
         530       -2805.       464.8       236.6       121.3       39.18       43.37
         531       -3524.       1180.       346.6       136.0       33.46      -181.3
         532       -4022.       2330.       382.1       147.1       48.11      -478.5
         533        311.4       238.2       2558.      -47.74      -90.39      -21.71
         534        267.2       170.4       2504.      -32.77      -255.4       27.37
         535        298.5       225.7       2101.      -77.48      -351.8       40.17
         536        344.2       231.7       2101.      -37.76      -429.6       27.42
         537        471.1       337.9       2151.      -24.59      -524.2       33.08
         538        523.6       341.1       2033.      -19.39      -615.1       57.84
         539        554.8       310.8       2225.      -6.359      -669.9       71.13
         540        534.9       208.9       2106.      -46.54      -775.7       60.89
         541        574.2       213.3       2108.      -68.43      -865.7       60.54
         542        596.4       177.4       1954.      -78.44      -907.1       63.50
         543        733.1       193.5       1919.      -55.80      -956.3       65.85
         544        779.0       121.1       1883.      -47.80      -1015.       88.88
         545        782.0       11.97       1915.      -12.78      -1079.       59.00
         546        888.0       27.73       1725.      -88.38      -1158.      -26.56
         547        1089.       32.94       1641.      -81.59      -1159.      -5.192
         548        1144.       101.8       1531.      -73.71      -1169.       41.94
         549        1178.       36.91       1357.      -96.39      -1142.       52.17
         550        1535.       156.0       1966.      -5.152      -1179.      -7.720
         551        1242.       29.36       1433.      -23.22      -1221.      -96.40
         552        1334.      0.3355       1386.      -48.49      -1256.      -39.63
         553        1471.       116.5       1276.      -39.75      -1230.       11.40
         554        1695.       196.2       1305.      -13.39      -1206.      -20.46
         555        1302.       3.373       1043.      -22.34      -1187.      -34.56
         556        1699.       108.9       1110.      -15.39      -1172.      -30.75
         557        1756.       222.7       1098.       19.19      -1143.      -28.27
         558        1741.       90.15       1019.       32.35      -1102.      -26.14
         559        1704.       97.53       882.7       13.99      -1108.      -67.62
         560        1883.       117.5       806.7       53.67      -1083.      -48.71
         561        1895.       183.8       803.3       58.89      -1028.      -34.93
         562        1800.       46.39       561.1       21.99      -982.2      -26.54
         563        2335.       182.6       820.8       73.63      -921.1       2.889
         564        2105.       165.4       561.5       116.2      -798.8      -74.18
         565        1936.       112.4       560.6       67.97      -778.5      -40.01
         566        1943.       213.6       447.9       16.33      -672.2      -12.16
         567        1933.       128.0       352.5       8.092      -627.1      -18.77
         568        2774.       276.6       492.3       72.85      -501.7       23.90
         569        1901.       91.87       282.3       83.59      -364.8      -68.20
         570        2155.       166.2       227.0       14.19      -359.9      -22.09
         571        2328.       196.5       205.1      -13.31      -202.0      -29.01
         572        2193.       182.8       103.1      -19.08      -81.88       24.73
         573        2194.      -220.4      -144.4       27.16      -55.90      -27.47
         574        1801.      -127.6      -181.9       58.55      -127.0       20.22
         575        1812.      -187.4      -158.8       55.18      -237.8       9.001
         576        1351.      -182.2      -276.4       7.800      -248.7       47.50
         577        1885.      -161.1      -185.4       17.90      -344.1      -54.56
         578        1649.      -303.4      -133.2       71.80      -413.6     -0.8250
         579        1721.      -257.1      -117.7       94.60      -459.4      -12.74
         580        1451.      -175.5      -130.5       92.19      -564.0       2.381
         581        1539.      -186.6      -97.16       5.608      -560.7      -9.808
         582        1656.      -141.6      -59.82       45.22      -698.7      -52.96
         583        1314.      -289.7      -22.82       95.07      -758.3      -18.37
         584        1319.      -260.4       61.66       59.75      -828.2      -4.424
         585        1308.      -198.5       179.8       53.36      -885.2      -1.832
         586        1233.      -191.7       182.8       63.26      -937.0       4.257
         587        1093.      -212.9       167.5       43.70      -977.1      -20.52
         588        1233.      -171.8       430.7       34.19      -1030.      -15.43
         589        1181.      -61.39       516.2       33.05      -1052.      -15.31
         590        1071.      -219.8       470.0       19.23      -1071.       8.417
         591        720.6      -286.8       580.9       28.24      -1103.       7.525
         592        688.0      -250.7       692.6       22.73      -1105.      -3.409
         593        760.4      -13.60       889.5       33.93      -1103.       2.711
         594        465.3      -43.28       620.9      -21.71      -1106.       76.13
         595        666.7      -86.56       1096.      -73.05      -1077.       11.73
         596        261.2      -280.2       938.8       2.444      -1064.       24.05
         597        296.1      -151.9       1192.      -10.98      -1041.       33.64
         598        88.93      -155.1       1172.      -14.59      -975.4       55.31
         599        127.1      -75.04       1171.      -18.42      -976.9       135.7
         600        279.4      -104.7       1606.      -40.62      -904.1       67.36
         601        53.57      -182.0       1503.      -24.26      -854.9       34.43
         602       -50.45      -222.7       1699.      -21.60      -792.9       62.94
         603       -48.23      -259.4       1740.      -24.81      -747.3       82.96
         604       -61.13      -241.8       1775.      -25.41      -661.0       67.08
         605       -130.0      -187.6       1842.      -37.89      -552.8       71.92
         606       -65.32      -422.6       1593.      -15.89      -478.0       67.08
         607       -154.5      -406.2       1650.      -7.337      -426.0       60.47
         608       -235.5      -353.5       1690.       4.179      -360.6       59.39
         609       -283.6      -396.1       1646.       11.27      -297.4       44.78
         610       -314.0      -244.4       1616.       72.26      -233.4       20.67
         611       -220.4      -152.4       1761.       2.811      -117.5      -26.28
         612       -246.4      -19.08       1639.       29.56      -64.49       54.97
         613       -42.31      -27.06       3063.       81.88      -135.0      -45.50
         614       -5.306       65.15       3092.       87.56      -213.8      -66.40
         615       -64.34       58.31       3241.       109.7      -317.6      -20.20
         616        59.05       129.8       3487.       66.36      -432.2      -102.0
         617        98.13       16.85       3289.       50.66      -529.9      -181.9
         618        80.68       133.7       2662.       57.48      -639.7      -180.5
         619        268.5       158.9       2776.       54.52      -715.7      -173.5
         620        268.1       104.2       2419.       37.58      -777.1      -161.0
         621        293.6       101.3       2621.       37.60      -854.7      -118.3
         622        328.2      -44.83       2663.       32.74      -903.1      -156.6
         623        463.8       26.43       2798.       21.89      -936.9      -249.8
         624        277.0       43.53       1853.       11.81      -991.6      -166.0
         625        819.2       66.02       2392.      -12.37      -1020.      -148.7
         626        584.7       64.80       1787.      -2.024      -1051.      -192.2
         627        742.4       127.4       1808.      -25.29      -1077.      -182.7
         628        938.7       150.8       1679.      -38.77      -1079.      -154.8
         629        1051.       92.60       1803.      -54.96      -1091.      -109.1
         630        1071.      -115.3       1800.      -52.71      -1113.      -131.4
         631        1025.       136.4       1306.      -73.82      -1151.      -156.6
         632        1190.       74.74       1271.      -111.3      -1158.      -117.7
         633        1254.       59.87       1197.      -136.3      -1165.      -97.14
         634        1276.      -29.78       887.1      -159.2      -1145.      -49.54
         635        1874.      -110.4       1235.      -128.9      -1134.      -69.58
         636        1399.      -169.0       901.2      -106.3      -1124.      -75.75
         637        1759.       158.3       1028.      -148.4      -1117.      -35.95
         638        1814.       138.2       798.2      -180.2      -1121.      -15.92
         639        1899.       101.7       638.5      -185.1      -1090.       11.20
         640        2386.       104.0       796.6      -152.8      -1036.      -24.34
         641        2114.       73.65       429.5      -129.7      -1018.      -18.58
         642        2343.       126.3       423.6      -173.5      -989.9       7.856
         643        2506.      -9.908       376.8      -170.2      -939.0       42.48
         644        2715.       95.10       324.8      -146.5      -858.2       36.92
         645        2848.       100.1       203.5      -124.3      -791.8       11.16
         646        2552.       100.9       102.6      -115.0      -718.8       41.34
         647        2782.       105.2       204.2      -103.5      -614.6       40.56
         648        2901.       72.79       107.4      -69.72      -526.0       57.83
         649        2972.       211.8       164.0      -67.27      -422.5       67.92
         650        2789.       134.6      -2.582      -43.57      -319.4       58.38
         651        2653.       114.1       22.16      -58.97      -212.9       70.87
         652        3301.       23.61      -51.31      -25.25      -103.6       57.67
         653        2005.      -302.9      -164.0      -45.65      -54.87       67.43
         654        2095.      -215.2      -159.0      -78.49      -127.3       54.22
         655        2213.      -110.9      -34.87      -111.8      -210.3       89.71
         656        1994.      -222.7      -88.50      -160.8      -268.5       65.59
         657        2038.      -196.3      -99.16      -180.1      -350.9       44.79
         658        2070.      -179.9      -94.69      -207.3      -405.6       25.95
         659        1941.      -151.1      -78.48      -246.1      -477.4       28.69
         660        1772.      -255.1      -185.9      -271.8      -529.5       46.39
         661        1725.      -84.21       110.7      -294.7      -583.9       35.96
         662        1538.      -51.81       143.6      -322.8      -649.1       14.39
         663        1474.      -95.02       82.62      -348.7      -684.8     -5.7695E-02
         664        1776.       7.940       80.25      -354.8      -706.8       12.28
         665        1767.      -157.2       133.9      -344.0      -732.2      -19.58
         666        1657.      -94.31       224.1      -334.4      -801.6      -60.68
         667        1502.      -65.36       336.1      -322.8      -846.3      -57.17
         668        1020.      -29.22       188.4      -309.0      -862.6      -70.04
         669        857.4       67.05       300.3      -302.8      -877.1      -86.64
         670        968.6       100.9       624.4      -266.5      -856.2      -109.7
         671        935.6       105.1       835.0      -242.0      -847.0      -137.4
         672        767.5       13.62       708.1      -208.4      -851.6      -156.7
         673        803.1       53.13       858.7      -189.8      -853.4      -184.1
         674        671.3      -6.607       757.9      -156.7      -870.1      -220.8
         675        575.4       48.98       769.2      -130.0      -859.7      -264.0
         676        460.9       29.26       980.5      -84.77      -832.9      -293.0
         677        370.9      -69.32       1071.      -65.63      -829.6      -316.8
         678        321.8      -30.85       1343.      -48.06      -826.0      -319.0
         679        262.9      -41.67       1375.      -52.55      -779.1      -345.8
         680        230.5      -140.6       1320.      -8.298      -736.4      -368.6
         681        191.2       37.50       1671.       27.01      -701.5      -371.5
         682        114.7      -94.42       1253.       15.70      -674.7      -375.7
         683        111.0      -140.0       1322.       31.76      -654.9      -350.4
         684        98.28      -196.1       1368.       69.91      -619.8      -360.5
         685       -36.41      -70.98       2156.       68.79      -566.3      -366.5
         686       -100.9      -139.0       2128.       71.03      -512.4      -359.3
         687       -123.5      -153.9       2326.       84.45      -435.3      -321.8
         688       -175.7      -120.1       2202.       63.87      -369.0      -291.6
         689       -138.2      -227.1       1766.       62.49      -309.9      -246.6
         690       -133.8      -146.6       2281.       52.05      -245.6      -166.1
         691       -192.3      -193.8       2374.       101.5      -158.0      -118.6
         692       -173.3      -279.3       2215.       83.76      -67.76      -40.74
         693        2635.      -64.47      -143.8       225.0      -24.60      -36.15
         694       -324.6      -11.86       1654.      -20.23      -16.48       205.7
         695        2477.       132.9       100.5       143.3      -35.49       51.44
         696        159.6       18.93       3146.       31.91      -50.72       114.7
         697        163.8      -695.5      -7682.      -33.27       23.47       1466.
         698        128.8      -1743.      -6955.      -59.19       44.23       2769.
         699        76.50      -3165.      -5833.      -84.65       46.95       3669.
         700        45.93      -5365.      -4242.      -91.15       32.12       3994.
         701       -26.18      -7675.      -2486.      -78.50      -6.720       3591.
         702       -59.72      -9490.      -1131.      -23.57      -7.868       2485.
         703       -10.19      -9963.      -340.0       22.21       7.420      -679.6
         704        95.35      -9631.      -735.4       40.05      -23.81      -2052.
         705        138.8      -7585.      -2168.       97.66      -19.33      -3113.
         706        56.92      -6006.      -3506.       76.63      -17.35      -3845.
         707        72.58      -4292.      -4910.       87.36      -5.215      -3946.
         708        68.70      -2791.      -6253.       83.96       16.96      -3435.
         709        112.4      -1373.      -7338.       63.58       32.08      -2506.
         710        153.4      -810.8      -7882.       44.93       13.22      -1318.
         711        9.422      -1437.      -7178.       23.13      -21.02      -377.8
         712        18.41      -2408.      -6740.       25.32      -27.03      -378.0
         713       -10.40      -5999.      -3021.      -12.14      -2.714       473.2
         714       -6.946      -5609.      -3268.      -23.30      -20.71       939.8
         715       -22.45      -5390.      -3505.      -13.89      -3.367       1297.
         716       -81.28      -4932.      -4022.      -13.50      -7.369       1544.
         717       -45.92      -4384.      -4648.      -40.92       11.12       1672.
         718       -74.13      -3889.      -5458.      -41.29       5.095       1608.
         719        6.915      -3250.      -5996.      -35.61       1.415       1279.
         720       -34.65      -2963.      -6528.      -20.89       2.955       704.0
         721       -2.070      -2979.      -6439.       39.60       5.079      -810.6
         722       -33.86      -3429.      -5819.       32.84      -5.371      -1406.
         723       -58.90      -4122.      -5052.       19.31       11.59      -1684.
         724       -63.21      -4744.      -4244.       24.62       22.81      -1649.
         725       -49.39      -5358.      -3711.       26.69       19.31      -1381.
         726       -22.98      -5886.      -3132.       9.411       7.025      -828.0
         727       -7.267      -2263.      -6688.      -25.63      -1.376       360.6
         728       -49.41      -1458.      -7144.      -24.01       5.272       388.3
         729        1007.      -826.3      -3907.       640.5      -41.05       472.3
         730        1286.      -1151.      -3091.       780.5      -118.9       883.4
         731        1084.      -1574.      -2069.       949.1      -173.6       1049.
         732        1305.      -1098.      -705.2       1062.      -187.0       1101.
         733        1505.       222.8       260.0       1055.      -129.4       828.7
         734        1385.       1208.       618.1       887.3       16.85       516.5
         735        1325.       3477.       516.9       583.0       114.0       147.1
         736        1357.       2683.       392.8       155.1       172.8       60.18
         737        1246.       2787.       412.7      -190.3       143.5       113.9
         738        1419.       2252.       359.6      -485.6       120.6      -222.8
         739        1137.       260.9      -99.89      -677.6       59.62      -494.4
         740        1077.      -653.3      -791.9      -784.1       4.777      -741.0
         741        785.8      -678.9      -1639.      -766.8      -58.60      -768.8
         742        737.5      -909.7      -2387.      -682.6      -74.31      -629.3
         743        696.9      -658.7      -2411.      -616.1      -31.33      -262.0
         744        286.4      -209.4      -2783.      -794.8      -215.7      -343.9
         745       -929.8      -182.4      -1948.      -854.9      -185.8      -247.5
         746       -390.9      -58.74       917.6       167.5       718.8       915.1
         747       -274.3      -108.8      -393.3       333.0       720.7       1368.
         748       -708.6       747.5      -1369.       284.9       591.6       1590.
         749       -935.4       1519.      -3181.       292.2       530.3       1328.
         750       -1202.       619.9      -3382.       250.4       427.4       835.2
         751       -1071.       1155.      -3028.       113.8       328.5       651.2
         752       -1219.       353.0      -3122.       194.3       137.3       369.4
         753       -1244.       205.9      -1582.      -720.5       132.2      -349.3
         754       -902.7       2591.      -1232.      -657.1       179.4      -560.2
         755       -854.5       2869.      -1166.      -522.8       182.7      -780.9
         756       -1138.       1645.      -819.6      -495.5       257.6      -1057.
         757       -721.7       1499.       198.1      -432.4       372.8      -891.5
         758       -500.0       1227.       1530.      -276.4       403.1      -460.8
         759       -922.3      -1167.      -3552.       760.0      -277.0       137.2
         760        495.3      -809.2      -3580.       770.4      -336.4       291.9
         761        17.99      -2809.      -6732.      -7.421      -20.07       368.4
         762       -55.13      -2899.      -6750.      -25.63      -15.20       392.9
         763       -83.23      -2846.      -6816.      -47.82      -4.227       401.6
         764       -187.6      -2818.      -6794.      -73.53       1.343       411.8
         765       -351.2      -2790.      -6606.      -108.2      -8.752       418.3
         766       -683.8      -2757.      -6642.      -164.0      -25.81       431.6
         767       -941.7      -2806.      -6468.      -174.5      -56.10       467.5
         768       -1294.      -2814.      -6385.      -199.4      -75.46       506.5
         769       -1799.      -2664.      -6482.      -226.0      -101.4       538.0
         770       -2401.      -2751.      -6363.      -222.1      -113.1       549.9
         771       -3015.      -2606.      -5731.      -180.5      -119.6       538.7
         772       -3356.      -2656.      -5259.      -64.89      -166.2       464.7
         773       -3724.      -2543.      -4724.       3.670      -238.6       336.7
         774       -2987.      -3158.      -4624.       228.3      -265.4       196.4
         775        2162.      -1205.      -6255.       530.0      -351.0       398.7
         776        2922.      -1297.      -7438.       227.8      -325.6       420.9
         777        3035.      -836.7      -7582.      -20.74      -194.2       438.0
         778        2671.      -798.2      -8228.      -126.8      -123.8       501.4
         779        2195.      -746.5      -8750.      -184.1      -78.09       493.9
         780        1581.      -741.7      -9252.      -204.3      -27.18       483.6
         781        1042.      -476.5      -9086.      -194.6      -11.92       455.2
         782        790.8      -231.9      -9108.      -167.4       22.79       427.4
         783        478.0      -443.9      -9027.      -120.9       27.39       451.1
         784        244.5      -453.8      -9071.      -91.36       30.60       469.3
         785        125.7      -484.4      -8884.      -72.14       41.07       477.2
         786        98.21      -483.4      -8784.      -46.85       44.79       450.7
         787        78.66      -539.0      -8576.      -30.14       26.51       441.4
         788        199.4      -394.3      -8187.      -8.366       21.68       433.0
         789       -2635.      -3363.      -3713.      -480.2      -168.3      -132.2
         790       -3708.      -2641.      -4866.      -56.22      -90.10      -352.6
         791       -3442.      -2719.      -5458.       9.137      -32.98      -482.4
         792       -3119.      -2643.      -5920.       152.5      -52.87      -559.0
         793       -2351.      -2688.      -6417.       226.0      -95.10      -569.2
         794       -1776.      -2758.      -6472.       226.0      -56.54      -558.5
         795       -1332.      -2817.      -6554.       184.2      -23.74      -547.4
         796       -951.9      -2857.      -6574.       155.7      -10.13      -533.7
         797       -568.3      -2889.      -6614.       136.1      -15.42      -515.0
         798       -303.5      -2810.      -6685.       106.5      -23.18      -489.9
         799       -148.6      -2909.      -6655.       78.48      -27.32      -467.9
         800       -62.33      -2881.      -6749.       44.03      -28.89      -432.0
         801        28.57      -2868.      -6698.       9.120      -28.95      -442.1
         802        25.24      -2807.      -6686.       10.53      -27.63      -429.6
         803        141.3      -543.5      -8393.       14.24       9.106      -350.4
         804        173.8      -524.2      -8521.       24.25       14.28      -372.8
         805        232.0      -504.7      -8644.       34.84       15.60      -368.9
         806        242.1      -517.2      -9030.       62.84       25.19      -383.8
         807        283.8      -564.4      -9246.       103.3       28.01      -396.3
         808        506.3      -654.0      -9254.       154.5       26.11      -399.5
         809        790.8      -562.6      -9367.       198.8       27.72      -412.1
         810        1279.      -668.8      -9306.       233.3       17.70      -446.3
         811        1880.      -649.8      -9298.       222.7      -38.02      -449.8
         812        2357.      -501.8      -9348.       215.3      -93.15      -401.7
         813        2821.      -489.9      -9190.       130.8      -50.23      -369.2
         814        3207.      -851.3      -7773.       48.53      -63.48      -410.6
         815        2723.      -1164.      -6533.      -343.2      -152.9      -408.5
         816        1802.      -604.9      -5110.      -590.5      -289.2      -320.2
         817      -1.7437E+04  -1816.     -1.7459E+04   131.0       80.52       213.5
         818      -1.6669E+04  -1593.     -1.7093E+04  -38.97      -33.58       13.78
         819      -1.6510E+04  -1491.     -1.6905E+04  -171.7      -11.73      -53.36
         820      -1.5574E+04  -1636.     -1.5959E+04  -127.8      -17.04       137.9
         821      -1.5531E+04  -1679.     -1.6406E+04  -70.79      -8.850       79.75
         822      -1.5202E+04  -1760.     -1.6198E+04  -177.1      -8.925       139.7
         823      -1.4507E+04  -1824.     -1.5787E+04  -206.0      -31.05       39.07
         824      -1.3460E+04  -1715.     -1.5158E+04  -256.1       20.00      -50.69
         825      -1.2847E+04  -1885.     -1.4614E+04  -263.3       30.22       153.2
         826      -1.1583E+04  -1723.     -1.3568E+04  -267.0      -19.00       115.3
         827      -1.0322E+04  -1802.     -1.2807E+04  -365.2      -46.86       31.94
         828       -9175.      -2007.     -1.2218E+04  -364.6      -11.98       114.4
         829       -7110.      -1616.     -1.0803E+04  -379.5      -37.39       172.2
         830       -5939.      -1690.     -1.0183E+04  -375.3      -5.249       123.9
         831       -4289.      -1523.      -9452.      -386.0      -20.68       121.2
         832       -2450.      -1804.      -8881.      -482.8      -22.47       171.6
         833        729.2      -487.6      -6756.      -440.9      -93.60       15.48
         834        128.5      -699.7      -6532.      -415.7      -159.4       3.767
         835        89.27      -793.1      -6297.      -347.1      -182.4      -25.36
         836        326.6      -517.1      -5934.      -291.0      -180.4      -19.99
         837        124.6      -655.0      -5828.      -399.6      -289.2      -58.39
         838       -633.7      -1068.      -6420.      -258.4      -331.6      -20.71
         839       -830.5      -882.6      -5727.      -286.5      -384.1      -77.99
         840       -912.0      -584.2      -5089.      -234.4      -477.1      -75.14
         841       -933.7      -489.6      -4552.      -228.4      -439.1      -73.32
         842       -1503.      -273.7      -3634.      -210.7      -471.3      -83.58
         843       -2491.      -880.7      -4239.      -185.4      -460.3      -115.0
         844       -2479.      -536.6      -3361.      -130.3      -425.7      -127.4
         845       -3088.      -643.5      -2996.      -153.4      -401.5      -145.5
         846       -3716.      -691.4      -2759.      -116.7      -406.9      -167.3
         847       -3675.      -637.7      -2219.      -101.4      -400.8      -176.0
         848       -4171.      -560.8      -1829.      -68.94      -422.9      -217.4
         849       -4753.      -721.0      -1466.      -69.42      -406.6      -224.8
         850       -5636.      -1024.      -1748.      -85.68      -352.4      -196.7
         851       -5898.      -992.8      -1612.      -33.84      -325.9      -244.6
         852       -5318.      -483.5      -510.9      -50.27      -324.5      -317.8
         853       -5507.      -498.7       227.6      -53.51      -247.6      -336.0
         854       -6258.      -647.7      -1.151      -56.52      -212.8      -332.3
         855       -6262.      -659.2      -25.69      -6.797      -181.7      -348.9
         856       -6322.      -625.9       13.02       6.037      -148.7      -392.3
         857       -6996.      -957.4      -14.80      -35.67      -61.53      -390.3
         858       -8612.      -1672.      -2626.       201.0       38.39      -471.5
         859       -9217.      -1449.      -4385.       131.4      -30.40      -397.0
         860       -9880.      -1618.      -5992.       169.0      -13.76      -374.8
         861      -1.0283E+04  -1479.      -7110.       220.0       2.222      -381.8
         862      -1.2266E+04  -1877.      -9416.       43.58       20.33      -413.7
         863      -1.2948E+04  -1744.     -1.0479E+04   37.71      -41.57      -321.5
         864      -1.3806E+04  -1699.     -1.1774E+04   75.15      -63.33      -245.9
         865      -1.4289E+04  -1800.     -1.2869E+04   220.1      -34.83      -281.9
         866      -1.4776E+04  -1691.     -1.3873E+04   172.0      -2.079      -226.9
         867      -1.5111E+04  -1826.     -1.4497E+04   118.8       25.91      -188.4
         868      -1.5389E+04  -1725.     -1.4999E+04   85.05       8.140      -208.8
         869      -1.5723E+04  -1367.     -1.5410E+04   225.3      -4.054      -135.9
         870      -1.6291E+04  -1667.     -1.6167E+04   17.82      -20.09      -168.1
         871      -1.8222E+04  -1930.     -1.7506E+04  -133.6      -1.814      -67.71
         872      -1.7658E+04  -1683.     -1.7250E+04   11.95      -20.28      -31.47
         873      -1.6557E+04  -1590.     -1.6809E+04   172.2      -17.29       115.6
         874        2919.       529.1      -5495.      -849.4      -30.68      -15.42
         875        4087.       1115.      -4895.      -1466.       30.51      -21.10
         876        3855.       1409.      -5162.      -1735.       214.6       43.30
         877        4163.       1492.      -5398.      -1807.       231.7       176.2
         878        3710.       1436.      -5188.      -1763.       190.8       303.3
         879        3358.       926.1      -4633.      -1694.       213.7       330.6
         880        3070.       1064.      -3884.      -1555.       366.0       364.0
         881        2960.       1093.      -3943.      -1503.       486.7       359.8
         882        2456.       971.0      -3559.      -1530.       477.1       373.8
         883        3203.       1084.      -2625.      -1371.       496.5       331.3
         884        2659.       887.3      -2082.      -1324.       443.9       243.1
         885        2182.       835.8      -1567.      -1180.       498.7       209.6
         886        1720.       720.9      -1185.      -978.5       421.2       84.18
         887        1534.       534.0      -656.3      -777.1       425.0      -34.55
         888        1182.       573.0      -241.9      -659.7       417.9      -161.7
         889        817.5       622.6       241.4      -555.7       487.1      -290.2
         890        492.9       552.7       284.5      -440.2       506.5      -410.3
         891        198.8       603.6       1002.      -298.6       454.5      -583.5
         892       -271.5       458.5       1290.      -134.3       408.2      -717.9
         893       -732.1       468.8       1669.      -50.45       478.4      -929.9
         894       -1244.       722.9       2117.       52.89       522.2      -1034.
         895       -1525.       835.1       2201.       113.8       530.9      -1063.
         896       -2827.       870.4       2476.       211.0       573.0      -1300.
         897       -2842.       851.4       2542.       323.0       611.4      -1394.
         898       -3014.       944.0       2909.       288.9       585.4      -1470.
         899       -3813.       758.9       2637.       289.1       559.2      -1517.
         900       -3938.       1030.       2941.       275.6       457.8      -1520.
         901       -4536.       1083.       3267.       250.7       345.3      -1614.
         902       -4820.       1276.       3500.       240.3       276.1      -1697.
         903       -5064.       1333.       3598.       144.0       232.8      -1736.
         904       -5139.       1340.       3553.       82.43       169.0      -1706.
         905       -5034.       694.8       3584.       116.7       59.80      -1336.
         906       -5344.       455.7       2840.       158.4      -27.96      -848.8
         907        2399.       1169.      -6002.      -1602.       50.95      -6.057
         908        2375.       1173.      -6463.      -1432.       41.86       65.60
         909        2755.       1671.      -6234.      -1284.      -3.100       115.2
         910       -5491.       1765.       2645.       62.24       82.95      -1128.
         911       -5694.       1144.       2210.       126.6       13.47      -1171.
         912       -5765.       1083.       2327.       168.9       55.63      -1354.
         913       -5504.       1029.       2592.       172.0       53.59      -1515.
         914        876.2       59.28      -18.22       87.99       23.78      -76.17
         915        1325.       387.2       205.7       112.5      -3.752      -267.0
         916        1307.       490.1       390.5       127.3      -8.960      -563.3
         917        2075.       373.8       483.2       116.6      -23.72      -906.0
         918        2460.       472.0       673.5       112.3      -1.240      -1247.
         919        3035.       355.9       978.7       100.1       9.334      -1592.
         920        2855.       319.4       1050.       92.43       42.10      -1906.
         921        2429.       59.81       1366.       68.68       31.58      -2181.
         922        2568.      -362.5       1504.       49.24       13.76      -2336.
         923        3191.      -463.3       1900.       33.62       9.207      -2350.
         924        3019.      -517.5       2128.       29.11       1.220      -2248.
         925        3860.      -662.5       2761.       106.7      -7.473      -2155.
         926        4009.      -581.0       3148.       138.2      -5.763      -2083.
         927        4088.      -406.3       3299.       95.20      0.7436      -2000.
         928        4366.      -423.8       3568.       72.25       7.517      -1811.
         929        4225.      -325.8       3564.       66.63       21.94      -1669.
         930        4416.      -566.4       4159.       96.44       14.11      -1459.
         931        4806.      -558.0       4509.       139.4       8.792      -1248.
         932        4799.      -799.5       4423.       139.3       2.778      -1099.
         933        5222.      -553.0       4789.       225.6       4.941      -997.6
         934        5520.      -662.9       5145.       254.7      -24.46      -919.4
         935        3404.      -812.1       3670.       94.34      -21.13      -700.1
         936        4479.      -484.5       4505.       131.3      -4.882      -474.2
         937        5055.      -595.0       4818.       199.7       11.87      -368.9
         938        5692.      -82.95       5941.       166.5      -61.31      -206.6
         939        618.0      -1016.       290.1       201.2      0.8743       118.1
         940       -2850.      -915.8      -2661.       150.7       2.413       108.4
         941       -5782.      -1109.      -5712.       168.8       4.155       141.1
         942       -9708.      -1609.     -1.0158E+04   129.8       5.171       111.6
         943      -1.3379E+04  -1743.     -1.3957E+04   32.02       3.404       18.17
         944      -1.3514E+04  -1380.     -1.4094E+04  -56.42       1.414       24.74
         945        4381.      -522.2       4631.      -189.0      -36.38       90.95
         946        5500.      -484.9       5743.      -328.7      -79.23       134.5
         947        5229.      -438.8       5369.      -511.5       10.71       122.9
         948        4139.      -740.4       4031.      -697.7       22.71       84.79
         949        4463.      -711.9       4748.      -849.0       20.78       121.1
         950        4326.      -770.3       4641.      -961.0      -35.13       261.4
         951        5073.      -544.1       5722.      -1200.       25.70       153.4
         952        4037.      -962.3       4636.      -1334.       1.042       179.1
         953        4132.      -734.6       4447.      -1507.      -12.04       143.6
         954        3730.      -479.5       4403.      -1673.       15.04       145.2
         955        3625.      -448.6       4476.      -1753.       25.08       121.5
         956        2867.      -624.0       3468.      -1910.       8.048       101.0
         957        3145.      -616.5       4244.      -2045.      -1.407       134.7
         958        2739.      -648.7       4133.      -2143.       1.999       100.7
         959        2263.      -567.4       3456.      -2267.      6.7601E-02   53.22
         960        1918.      -493.1       3130.      -2366.     -0.5846       25.04
         961        1507.      -152.2       2780.      -2279.      -2.774       81.28
         962        1402.       149.5       2768.      -2114.       17.14       71.60
         963        1001.       436.5       2740.      -1854.       19.66       95.72
         964        928.5       438.0       2828.      -1551.       1.508       70.85
         965        457.7       458.6       2081.      -1153.      -10.91       57.31
         966        465.8       648.4       1958.      -731.8       40.31       102.3
         967        182.8       344.8       1682.      -310.1       23.73       145.3
         968        163.2       133.5       1268.      -26.08       2.144       111.1
         969        3997.      -15.43      -633.3       128.9      -9.324       55.78
         970        4263.      -24.16      -624.5       157.6       7.868      -21.97
         971        4787.       258.9      -615.3       98.89      -48.81      -110.7
         972        5334.       155.0      -456.7       57.15      -67.06      -257.6
         973        6275.       145.5      -344.6       21.06      -28.01      -406.3
         974        7049.       201.0       863.2       37.82       28.80      -516.2
         975        7597.       190.8       1473.       89.01       56.91      -658.1
         976        8667.       86.01       2803.       63.29       23.43      -763.7
         977        9337.       85.13       4272.       72.15       34.77      -816.9
         978       1.0366E+04   204.9       5811.       99.55       23.53      -867.6
         979       1.1601E+04  -105.1       7462.       89.63       30.01      -789.9
         980       1.2845E+04   255.2       9151.       95.49       5.905      -710.4
         981       1.3821E+04   458.2      1.0824E+04   91.60       21.55      -645.5
         982       1.4666E+04   655.5      1.2100E+04   129.8       12.15      -584.1
         983       1.5587E+04   947.1      1.3352E+04   10.42       15.90      -501.0
         984       1.5883E+04   269.4      1.3827E+04   203.8      -4.686      -481.8
         985       1.6455E+04   639.7      1.4920E+04   140.7       14.11      -492.4
         986       1.7192E+04   300.1      1.6108E+04   90.50       12.27      -480.4
         987       1.7719E+04   413.5      1.7023E+04   142.0       11.13      -372.1
         988       1.8114E+04   719.3      1.7789E+04   145.7       33.10      -307.3
         989       1.8657E+04   371.5      1.8510E+04   90.57      -5.381      -226.0
         990       1.9549E+04   1262.      1.9590E+04   248.0      3.6368E-02  -156.8
         991       1.9104E+04   761.0      1.9287E+04   75.98      -67.98      -94.16
         992       1.9627E+04   656.3      1.9643E+04   88.27       49.98      -201.7
         993       2.0261E+04   748.0      2.1239E+04   52.34      -12.25       59.11
         994       1.3984E+04  -238.9      1.4060E+04   47.22       5.711       123.0
         995        9861.      -348.6       9848.       110.4       3.532       156.1
         996        1454.      -438.3       90.09       125.1     -0.8536       211.2
         997        112.3      -493.1       1770.       220.7      -22.16       149.4
         998       2.1506E+04   915.7      2.0486E+04   115.3      -20.80       30.04
         999       2.0580E+04   772.2      2.1385E+04  -176.2       52.01      -103.4
        1000       1.9925E+04   941.5      2.0770E+04  -232.4       27.97      -104.5
        1001       1.8211E+04   188.1      1.8294E+04  -204.2      -58.71       169.2
        1002       1.8766E+04   1153.      1.9331E+04  -211.9      -37.13       175.5
        1003       1.7826E+04   551.1      1.8415E+04  -274.4       9.738       130.6
        1004       1.7052E+04   618.0      1.7916E+04  -350.5       12.04       136.1
        1005       1.6204E+04   559.3      1.7357E+04  -417.7       43.92       126.6
        1006       1.4955E+04   141.8      1.6861E+04  -441.0       48.70       53.39
        1007       1.4018E+04   215.3      1.6433E+04  -509.8       10.16       39.63
        1008       1.3069E+04   530.0      1.5648E+04  -556.1      -8.216       77.15
        1009       1.1868E+04   571.4      1.4814E+04  -624.5       19.47       117.4
        1010       1.0562E+04   592.1      1.3837E+04  -655.7       28.00       109.6
        1011        8985.       277.9      1.2734E+04  -749.6       24.98       110.5
        1012        6964.       59.81      1.1239E+04  -781.9       46.75       86.87
        1013        5688.       135.9      1.0809E+04  -779.3       41.01       8.513
        1014        4078.       116.2       9832.      -836.1       16.64      -25.92
        1015        2656.       226.5       8982.      -778.7      -21.13       29.44
        1016        1318.      -117.4       7989.      -653.6       24.15       39.32
        1017        649.1       8.835       7305.      -509.7       13.11       73.21
        1018       -322.7       96.75       6211.      -360.2       18.12       52.28
        1019       -797.1       307.9       5709.      -179.3      -10.31       47.49
        1020       -862.0       414.6       5002.       16.14       5.675       91.50
        1021       -531.9       101.2       3893.       72.85      -32.97       80.67
        1022       -121.9       3632.      -297.0       85.97      -125.2      -83.77
        1023       -108.8       3419.      -183.8     -0.5321      -53.97      -2.367
        1024       -113.3       3300.      -104.6       325.8       71.33      -59.30
        1025       -144.4       3845.      -267.6       159.8       94.73      -37.40
        1026       -153.7       4248.      -150.0       122.3       53.87      -20.30
        1027       -165.7       4800.      -98.63       119.2       5.709      -16.67
        1028       -150.6       5043.       50.68       111.2      -35.12      -20.31
        1029       -111.4       5211.       215.8       98.19      -87.19      -2.210
        1030       -86.37       5140.       319.1       85.22      -147.4       12.85
        1031       -81.60       4789.       396.4       56.95      -185.8       18.32
        1032       -29.54       4474.       487.3       32.39      -223.7       23.53
        1033       -16.15       4289.       484.4       7.208      -235.6       29.28
        1034       -24.21       4082.       400.9       10.21      -224.3       27.81
        1035       -22.88       3942.       305.2       9.643      -174.3       28.10
        1036       -26.68       3794.       179.2       15.36      -109.3       24.46
        1037       -38.58       3701.       29.72       15.60      -19.28       35.69
        1038       -74.92       3767.      -36.04       24.37       64.89       61.22
        1039       -158.8       3740.      -162.2       40.64       156.8       46.22
        1040       -195.7       3716.      -245.0       34.41       250.5       34.39
        1041       -250.9       3721.      -321.8       36.92       331.2       37.59
        1042       -310.0       3669.      -375.3       45.93       388.1       41.97
        1043       -346.9       3699.      -338.3       51.32       433.0       43.94
        1044       -438.0       3664.      -363.9       49.38       462.7       40.37
        1045       -436.7       3619.      -344.6       44.05       469.8       44.16
        1046       -446.8       3650.      -321.9       44.66       458.9       50.95
        1047       -494.1       3652.      -276.7       53.62       428.3       51.71
        1048       -448.2       3599.      -240.9       50.57       387.2       49.26
        1049       -430.7       3644.      -187.9       38.94       332.8       46.18
        1050       -370.3       3634.      -161.9       39.47       275.7       54.31
        1051       -301.4       3645.      -112.0       47.83       204.7       56.49
        1052       -208.0       3589.      -71.65       52.86       133.0       55.24
        1053       -90.83       3654.      -75.86       45.51       67.51       62.77
        1054        35.56       3688.      -52.84       41.40       1.813       68.56
        1055        187.2       3715.      -69.46       43.24      -56.23       58.45
        1056        293.0       3567.      -72.32       40.04      -100.4       56.13
        1057        477.3       3678.      -71.33       43.98      -124.5       70.71
        1058        621.6       3727.      -71.12       30.67      -143.8       64.22
        1059        745.7       3761.      -120.7       23.41      -154.3       59.28
        1060        863.0       3774.      -134.1       17.49      -142.7       47.56
        1061        966.1       3828.      -146.8       11.77      -116.8       50.08
        1062        1021.       3793.      -169.8       10.54      -81.84       60.12
        1063        1075.       3825.      -163.5       8.303      -41.00       49.68
        1064        1081.       3769.      -159.6      -5.870       186.3       5.714
        1065        1097.       3760.      -158.7      -6.576       186.5       17.85
        1066        1070.       3642.      -181.5      -8.668       176.4       32.23
        1067        1087.       3582.      -190.4      -11.21       168.5       34.30
        1068        990.6       3367.      -252.1      -16.52       179.8       45.05
        1069        987.6       3195.      -201.8      -12.90       174.8       44.25
        1070        976.4       3101.      -198.0      -15.81       142.0       81.78
        1071        912.9       2946.      -193.7      -40.79       143.7       61.04
        1072        833.0       2694.      -219.3      -34.27       166.6       81.36
        1073        593.1       2362.      -224.4      -23.58       168.5       96.40
        1074        381.8       1876.      -149.7      -26.72       153.0       72.83
        1075       -15.86       1758.      -196.8      -57.43       134.0       58.42
        1076       -110.1       1730.      -84.96      -44.41       141.2       36.67
        1077       -514.2       1692.      -99.33      -73.10       108.5      -8.089
        1078       -1287.       1678.      -118.3      -31.41       100.9       10.42
        1079       -1391.       1703.       57.37      -4.331       96.01      -82.01
        1080       -1668.       2193.       76.59      -36.90       91.98      -159.8
        1081       -2374.       2646.       44.05      -47.77       125.4      -244.4
        1082       -2755.       3835.       112.1      -33.94       86.64      -325.6
        1083       -2890.       5104.       296.6      -116.6       98.15      -597.0
        1084       -2772.       7932.       147.7       29.54       23.68      -614.5
        1085       -30.45       5188.      -4512.      -617.5      -103.2      -109.5
        1086        225.4       4940.      -4024.      -409.3      -107.6      -51.81
        1087        331.7       3927.      -3868.      -343.3      -133.5      -40.12
        1088        417.2       3705.      -3566.      -390.1      -294.7       118.6
        1089       -38.02      -478.7      -2029.       385.0      -323.8       314.2
        1090        43.89      1.0122E+04   186.3       206.5      -24.54       708.2
        1091        824.8       8232.       171.0      -61.47      -60.47       949.0
        1092        25.91       5349.       744.7      -318.0      -104.2       1095.
        1093        98.05       3922.       1104.      -354.3      -135.7       1071.
        1094       -185.9       1119.       894.9      -328.9      -94.24       858.7
        1095       -2.284       648.0       1217.      -290.8      -59.54       688.6
        1096       -221.8       29.96       1437.      -289.5       30.41       434.7
        1097       -421.3      -520.2       1521.      -292.7       41.06       241.4
        1098       -371.1      -523.6       11.29       249.8       79.72      -58.98
        1099       -406.3      -231.7      -319.7       198.7       156.7      -52.15
        1100        123.7       1413.       1894.       353.6       33.80      -113.8
        1101        351.1       2892.       1563.       552.3      -210.3      -553.7
        1102        495.3       6446.       1352.       351.4      -262.6      -616.1
        1103        936.2      1.0849E+04   1414.       402.9      -138.1      -538.4
        1104       -262.9      -488.5      -26.32      -307.0      -178.4      -383.6
        1105      -0.8313      -76.45       1295.      -210.6      -141.7      -200.0
        1106        18.63       351.2       1683.      -185.1      -190.3      -66.17
        1107        237.2      -139.6       142.3      -57.76      -92.90       41.24
        1108        120.3      -143.6      -22.91      -15.25      -86.78       49.69
        1109        25.73       1545.      -86.34       332.5      -31.03     -4.9221E-02
        1110       -103.2       373.6      -204.1       191.4      -315.9       54.46
        1111        39.49      -109.4       187.7       258.9      -288.5       230.4
        1112       -206.1      -4176.      -5325.      -804.5      -69.41      -17.75
        1113       -57.26      -1253.      -4197.      -518.4      -82.18      -221.1
        1114       -293.7      -1845.      -3180.      -349.6      -142.8      -275.7
        1115       -365.7      -1092.      -2115.      -241.8      -216.3      -193.2
        1116        149.9       331.8      -36.25       294.6       19.25      -26.69
        1117        140.7       932.8      -74.83       191.5       43.47      -10.92
        1118        129.9       1957.      -86.99       154.4       18.07       27.08
        1119        84.95       3097.      -184.2       132.3       53.89       26.61
        1120        77.85       3760.      -228.2       125.1       85.27       54.44
        1121        120.0       4498.      -241.6       92.42       124.8       73.22
        1122        59.65       4676.      -274.8       55.98       146.4       78.40
        1123        75.47       4936.      -179.7       30.47       157.0       70.85
        1124        38.44       4801.      -216.2       24.61       164.9       59.81
        1125       -27.48       4540.      -252.7      0.9926       163.9       54.47
        1126        12.70       4538.      -174.5       4.565       158.4       34.73
        1127       -1.941       4402.      -136.2       6.061       141.1       21.32
        1128       -32.18       4357.      -67.36       10.13       100.9       17.21
        1129        5.268       4273.      -20.06       30.27       38.87       19.68
        1130        19.22       4177.       109.4       61.44      -12.38       20.41
        1131        42.31       4016.       182.7       54.20      -85.79       31.08
        1132        82.54       3952.       226.0       40.36      -157.1       28.57
        1133        137.4       3905.       258.6       32.56      -223.2       30.28
        1134        157.7       3883.       263.5       24.68      -272.4       28.22
        1135        250.6       3824.       270.7       43.92      -315.7       25.21
        1136        295.3       3766.       261.2       58.78      -337.5       33.14
        1137        313.2       3676.       229.9       61.94      -354.1       52.24
        1138        392.0       3623.       219.1       51.41      -356.7       55.18
        1139        382.3       3688.       199.3       48.25      -342.0       54.22
        1140        424.4       3677.       155.8       58.47      -319.3       51.87
        1141        422.2       3682.       144.8       55.49      -288.3       56.58
        1142        407.6       3607.       108.8       41.38      -247.3       54.13
        1143        377.7       3673.       82.65       43.66      -192.4       49.22
        1144        339.9       3640.       51.28       52.64      -137.1       59.65
        1145        278.0       3697.       37.57       48.54      -89.24       59.24
        1146        240.3       3738.       39.31       49.03      -45.66       56.65
        1147        164.0       3774.       25.45       37.06       5.063       53.57
        1148        84.72       3811.       47.80       40.21       42.57       58.74
        1149        18.45       3946.       47.59       44.31       68.90       68.72
        1150       -128.7       3784.       70.89       33.15       74.61       63.13
        1151       -149.1       3830.       118.7       29.16       85.19       58.34
        1152       -225.2       3785.       141.9       20.63       84.28       58.56
        1153       -273.5       3804.       161.1       14.77       68.55       65.66
        1154       -312.2       3781.       140.4       14.30       50.14       76.59
        1155       -294.5       3870.       179.4       8.178       30.61       76.12
        1156        420.9       3940.       86.94      -1.639       179.9       50.44
        1157       -277.3       3979.       203.1      -6.901       196.9       12.87
        1158       -290.0       3857.       175.1     -0.8855       205.1       10.76
        1159       -260.5       3884.       173.6      -13.25       187.5       23.06
        1160       -168.4       3953.       173.3      -22.16       178.3       28.96
        1161       -46.08       4105.       185.2      -9.031       175.7       14.87
        1162       -112.3       3906.       156.9       9.494       198.7       24.45
        1163       -19.60       4144.       209.0      -31.39       168.0       52.60
        1164        101.8       4280.       238.7      -35.13       156.0       52.18
        1165        154.6       4449.       191.1      -80.03       131.9       52.84
        1166        175.3       4680.       206.3      -59.56       123.3       48.45
        1167        186.0       4919.       248.3      -32.87       124.3       46.22
        1168        48.48       4850.       183.4       10.37       148.9      -32.71
        1169       -209.6       4611.       191.6      -35.38       130.1      -8.278
        1170       -237.4       4691.       62.73      -32.20       116.6       2.355
        1171       -594.9       4562.       2.100      -50.31       114.5      -61.42
        1172       -1418.       3701.      -38.07      -3.974       134.9      -108.6
        1173       -1927.       3474.      -52.85      -28.59       84.04      -193.9
        1174       -2870.       2533.      -155.4      -39.75       86.88      -253.1
        1175       -3208.       2189.      -79.25      -70.65       37.14      -371.0
        1176       -4722.      -607.2      -165.0       82.38       70.48      -652.8
        1177       -5896.      -2993.      -674.8       61.97       29.03      -746.1
        1178       -622.2       106.8      -308.8       45.48      -7.941      -40.60
        1179       -561.4      -129.8      -325.4      -24.31      -7.183      -29.07
        1180       -38.00      -22.31      -305.8       12.90      -25.41      -17.85
        1181       -133.9      -98.95      -287.5      -5.713       49.13      -5.003
        1182       -224.3      -134.8      -301.3      -24.77       17.27      -30.45
        1183       -310.5      -122.1      -228.8      -13.58       16.46      -11.62
        1184        224.6      -42.77      -226.1       9.516       27.09      -2.583
        1185        121.6      -49.94      -142.7       70.34      -23.93       17.43
        1186       -369.6       73.13      -268.7       10.82      -5.470       27.66
        1187       -292.2       1.541      -191.9      -7.719       15.18      -2.956
        1188       -232.5      -28.69      -256.0       22.87       12.89      -1.360
        1189       -224.1      0.6140      -257.3       42.62       22.95       32.75
        1190       -381.6       64.14      -356.4       40.00       6.645       35.32
        1191       -462.5       53.38      -194.3       9.566       7.443       41.77
        1192       -39.44       41.68      -104.6       30.95       24.36       43.40
        1193       -355.5       16.93      -478.0       45.82      -2.507       28.76
        1194       -356.6       6.510      -358.9       44.74      -8.548       50.05
        1195       -230.8       4.667      -192.7       55.76       6.462       61.07
        1196       -224.0       39.77      -90.94       46.16       10.12       62.69
        1197       -196.0       2.486      -162.8       62.70       6.541       55.72
        1198       -275.4      -174.4      -204.9       75.08       9.326       68.11
        1199       -235.9      -139.4      -214.5       53.46      0.6293       67.82
        1200       -173.8       11.32      -132.7       36.06       4.908       28.61
        1201       -288.1      -24.19      -293.3       40.60      -8.319       17.75
        1202       -320.1      -46.53      -373.8       51.19       15.54       47.96
        1203       -244.3      -92.78      -108.7       79.05       15.91       32.10
        1204       -204.0      -43.56      -488.6       55.32      -12.38       31.73
        1205       -116.9      -9.303       40.77       13.29       14.69       53.58
        1206       -109.0      -11.10      -153.1       56.15       19.40       14.65
        1207       -193.6       20.47      -365.2       21.94      -16.03       35.98
        1208       -296.0      -66.40      -97.25       12.74      -14.87       8.896
        1209       -161.2      -3.648      -344.6      -10.40      -7.605       8.015
        1210       -194.4       24.85      -346.4       16.21      -36.87       39.01
        1211       -212.8      -94.29      -253.0      -4.210      -57.54       52.99
        1212       -183.1       32.90       318.2      -13.53      -65.87       25.72
        1213       -318.9      -155.3      -360.8      -13.29      -48.98      -3.018
        1214       -292.5      -88.03      -48.65      -21.22      -44.74      -6.131
        1215       -284.9      -32.46      -95.60      -27.42      -5.312      -4.607
        1216       -311.7      -2.075      -193.6      -8.942      -30.12      -9.738
        1217       -270.7       21.11      -152.0      -20.27      -33.68       17.73
        1218        816.8       72.96       177.9       22.81      0.1109       53.29
        1219        755.3       185.6       136.4      -36.83      -31.72       62.21
        1220        396.1       120.8       147.7       13.17      -73.17       38.06
        1221        881.5       179.7       290.2       34.15      -56.73       24.91
        1222        588.8       123.6       240.0      -29.61      -121.1       75.07
        1223        164.6       70.83       194.9      -4.424      -126.4       30.57
        1224        649.8       315.0       302.8       6.668      -113.9       8.493
        1225        596.2       201.3       308.9      9.7150E-02  -116.6      -1.615
        1226        271.2       2.229       333.5       17.72      -123.6      -27.27
        1227        344.1      -88.96       322.2       16.02      -148.3       9.207
        1228        452.5       34.37       389.6      -34.86      -144.0      -3.077
        1229        456.5       44.24       454.1      -30.09      -122.9      -33.83
        1230        655.6      -52.95       545.1      -13.89      -107.7      -38.57
        1231        683.1      -36.05       508.2      -49.40      -122.9      -51.34
        1232        189.6      -118.8       240.2      -27.79      -110.5      -51.07
        1233        719.8      -19.36       666.6      -30.49      -120.6      -49.38
        1234        560.7      -43.76       539.5      -63.02      -112.9      -63.94
        1235        537.5      -24.32       473.5      -63.06      -92.60      -87.51
        1236        442.1      -71.36       339.4      -64.69      -88.33      -76.33
        1237        116.9      -254.5       361.3      -93.81      -90.34      -76.88
        1238        414.9       196.1       359.8      -84.85      -68.68      -81.07
        1239        393.5       12.83       553.1      -70.10      -79.96      -88.54
        1240        255.5      -156.8       195.5      -26.07      -91.34      -36.30
        1241        413.7      -84.69       514.9      -41.67      -91.30      -52.06
        1242        499.1       2.313       557.6      -52.70      -81.66      -32.50
        1243        469.8       52.71       521.2      -84.02      -87.11      -25.40
        1244        311.4       7.333       283.6      -61.51      -88.56      -52.57
        1245        376.8       34.78       492.4      -17.52      -70.03      -29.08
        1246        365.7      -8.789       279.8      -54.94      -92.83      -33.54
        1247        317.3       19.22       392.4      -31.34      -121.8      -30.32
        1248        310.6       74.57       641.5      -23.75      -97.77      -19.44
        1249        412.0       46.51       582.9      -13.38      -70.66       23.67
        1250        228.3       2.940       256.8      -19.36      -73.97       19.40
        1251        180.5       17.06       49.45       26.26      -132.1      -16.77
        1252        375.1       312.6       903.8       42.45      -87.55      -37.37
        1253        173.6       137.8       471.4       50.36      -71.14       48.19
        1254        256.9       217.6       343.3       56.88      -50.10       8.987
        1255        100.8       124.9       725.8       52.68      -27.67       7.305
        1256        168.7       157.1       569.8       33.24      -28.49       17.99
        1257        158.8       122.9       533.6       38.68      -13.49      -13.11
        1258        2909.       6291.      -3901.      -1925.       103.6       160.7
        1259        2741.       8042.      -3153.      -1632.       131.3       189.6
        1260        1595.      1.2177E+04  -2893.      -1280.       145.5       116.3
        1261        3096.       7120.      -3528.      -1881.       256.4       262.3
        1262        1997.       8569.      -3499.      -1881.       240.1       307.3
        1263        1714.      1.1498E+04  -2667.      -1264.       298.6      -28.72
        1264        3339.       5919.      -3437.      -1875.       355.8       339.2
        1265        1628.       8488.      -3466.      -1967.       363.5       380.1
        1266        1233.       8636.      -3487.      -1190.       420.9       202.4
        1267        3658.       6681.      -2988.      -1964.       582.5       264.5
        1268        2441.      1.0411E+04  -2705.      -2142.       591.7       293.2
        1269        1417.       9463.      -3255.      -1430.       638.5       428.0
        1270        3954.       6929.      -2585.      -2005.       807.0       237.7
        1271        2947.       9034.      -2614.      -2161.       807.0       170.4
        1272        1366.      1.1587E+04  -2848.      -1500.       823.2       361.1
        1273        4111.       6539.      -2717.      -2048.       837.6       285.1
        1274        3851.      1.0651E+04  -1583.      -2128.       909.5       270.4
        1275        1886.      1.1865E+04  -2387.      -1525.       919.9       336.3
        1276        2763.       7321.      -2770.      -2057.       874.7       270.6
        1277        2551.      1.0469E+04  -2392.      -2297.       992.0       183.2
        1278        1711.      1.2129E+04  -2103.      -1626.       995.8       433.4
        1279        3046.       6638.      -3287.      -2028.       992.9       130.4
        1280        2131.      1.1407E+04  -1842.      -2203.       1073.       34.22
        1281        1868.      1.2836E+04  -1844.      -1737.       1089.       357.6
        1282        3171.       8230.      -1463.      -2068.       1191.       110.8
        1283        2114.       9421.      -2248.      -2217.       1192.      -17.19
        1284        1547.      1.2675E+04  -1847.      -1560.       1219.       228.2
        1285        1972.       6638.      -2346.      -2077.       1366.       28.78
        1286        1838.       8743.      -2397.      -2227.       1253.      -81.60
        1287        1480.      1.2387E+04  -1867.      -1616.       1243.       175.0
        1288        3356.       7926.      -1164.      -2109.       1499.      -179.5
        1289        1144.       9148.      -2028.      -2087.       1472.      -126.6
        1290        668.0      1.1602E+04  -1689.      -1629.       1341.       158.8
        1291        3168.       8700.      -444.0      -2054.       1598.      -236.6
        1292        1614.       9928.      -1988.      -2173.       1717.      -346.2
        1293        374.6      1.2603E+04  -1465.      -1793.       1543.      -2.390
        1294        2751.       7833.      -1215.      -1979.       1621.      -458.4
        1295        1769.       9938.      -1840.      -2108.       1706.      -437.2
        1296        295.7      1.3148E+04  -1275.      -1668.       1698.      -99.54
        1297        2859.       7090.      -748.5      -1801.       1766.      -587.3
        1298        1205.      1.1527E+04  -732.3      -2110.       1816.      -624.6
        1299        710.2      1.2466E+04  -1302.      -1719.       1757.      -199.4
        1300        2577.       6607.      -691.7      -1784.       1892.      -770.8
        1301        1273.      1.0985E+04  -700.7      -2143.       1872.      -769.5
        1302        723.2      1.3755E+04  -760.1      -1765.       1842.      -395.1
        1303        2731.       7448.       313.9      -1705.       2006.      -819.0
        1304        1664.      1.2641E+04  -21.90      -2085.       2008.      -1013.
        1305        625.1      1.3587E+04  -815.9      -1752.       1944.      -690.1
        1306        1897.       7705.       149.2      -1764.       2012.      -958.8
        1307        1406.      1.0820E+04  -85.82      -1937.       2000.      -1166.
        1308        1044.      1.4624E+04  -381.8      -1497.       1940.      -902.9
        1309        1883.       7848.       620.5      -1625.       2083.      -1023.
        1310        930.4       9885.      -178.6      -1879.       2039.      -1240.
        1311        251.2      1.4466E+04  -863.8      -1325.       1960.      -1046.
        1312        1008.       7184.       248.5      -1495.       2131.      -1137.
        1313        524.0      1.0760E+04  -147.4      -1773.       2111.      -1423.
        1314       -325.7      1.1273E+04  -969.7      -1239.       1949.      -1038.
        1315        894.1       6719.       770.7      -1411.       2204.      -1278.
        1316        304.4      1.0003E+04   6.349      -1555.       2074.      -1465.
        1317       -512.7      1.2956E+04  -728.4      -1255.       2019.      -1084.
        1318        692.6       6948.       1080.      -1374.       2188.      -1457.
        1319       -15.05      1.1762E+04   303.0      -1547.       2078.      -1658.
        1320       -490.2      1.3816E+04  -459.0      -1142.       2022.      -1416.
        1321        837.8       8970.       1776.      -1116.       2175.      -1699.
        1322       -43.09      1.0225E+04   722.6      -1525.       2091.      -2027.
        1323       -878.8      1.2243E+04   204.6      -883.3       2057.      -1386.
        1324        262.0       7299.       1545.      -837.4       2126.      -1721.
        1325       -107.3      1.0588E+04   1291.      -1098.       2040.      -2121.
        1326       -553.8      1.5227E+04  -107.8      -843.7       2025.      -1481.
        1327        42.02       7690.       1794.      -762.0       2017.      -1827.
        1328       -381.2      1.0081E+04   1050.      -925.6       1856.      -2095.
        1329       -445.6      1.4988E+04   371.0      -682.2       1879.      -1565.
        1330       -538.4       6697.       1959.      -799.4       1985.      -1724.
        1331       -501.9       9982.       1393.      -969.6       1974.      -2035.
        1332       -150.3      1.3000E+04   1044.      -571.0       1819.      -1570.
        1333       -389.5       8037.       2204.      -913.9       1975.      -1822.
        1334       -1188.      1.0228E+04   991.0      -917.6       1946.      -1963.
        1335       -1247.      1.2805E+04   509.0      -540.7       1796.      -1584.
        1336       -763.3       7398.       2301.      -707.2       1919.      -1991.
        1337       -1233.      1.0507E+04   1122.      -750.8       1915.      -2035.
        1338       -1469.      1.2876E+04   575.0      -449.7       1843.      -1691.
        1339       -757.5       7780.       2462.      -490.8       1799.      -2024.
        1340       -1256.      1.1080E+04   1268.      -554.5       1741.      -2150.
        1341       -1426.      1.3016E+04   394.0      -256.7       1718.      -1764.
        1342       -994.7       7145.       3548.      -373.2       1679.      -2083.
        1343       -1442.      1.0675E+04   1659.      -404.9       1628.      -2176.
        1344       -1769.      1.1377E+04   690.8      -57.22       1586.      -1634.
        1345       -1449.       7506.       3044.      -185.4       1564.      -1995.
        1346       -1702.      1.0028E+04   1517.      -337.5       1537.      -2294.
        1347       -1888.      1.0974E+04   1062.      -16.90       1476.      -1525.
        1348       -1996.       7040.       2515.      -118.9       1284.      -1884.
        1349       -2022.       8639.       1745.      -237.4       1454.      -2114.
        1350       -2204.      1.1487E+04   1546.      -89.92       1435.      -1531.
        1351       -2881.       5917.       3550.      -169.8       1305.      -1845.
        1352       -1972.      1.0191E+04   1746.      -254.8       1307.      -1949.
        1353       -2440.      1.0229E+04   965.5      -14.99       1370.      -1545.
        1354       -2172.       7785.       3026.      -120.1       1209.      -1794.
        1355       -2011.      1.0284E+04   2083.      -205.1       1234.      -2088.
        1356       -2407.      1.0494E+04   1094.       41.57       1223.      -1488.
        1357       -2586.       6637.       3010.      -154.4       1020.      -1903.
        1358       -2714.       8915.       1962.      -140.9       1095.      -2002.
        1359       -2386.      1.1023E+04   1136.      -60.02       1108.      -1451.
        1360       -2015.       8487.       4015.       13.19       852.3      -1914.
        1361       -2613.      1.0039E+04   1825.      -160.2       897.1      -1945.
        1362       -2688.      1.1372E+04   875.8      -107.1       962.3      -1604.
        1363       -2085.       7214.       4691.       142.4       690.3      -1786.
        1364       -2339.      1.0693E+04   2496.      -31.63       765.2      -1978.
        1365       -2483.      1.2613E+04   1301.       113.4       741.0      -1569.
        1366       -2631.       6403.       4008.       56.87       624.6      -1838.
        1367       -2084.      1.0973E+04   3098.       199.2       660.3      -1901.
        1368       -2462.      1.1863E+04   1294.       287.0       603.8      -1458.
        1369       -3050.       6165.       3367.       128.3       501.5      -1781.
        1370       -3042.       8680.       2188.       283.0       480.1      -1828.
        1371       -2249.      1.1453E+04   1498.       330.2       379.3      -1383.
        1372       -3714.       5305.       2914.       127.0       341.3      -1772.
        1373       -3127.       8830.       2012.       155.0       259.5      -1825.
        1374       -1797.      1.2609E+04   2040.       300.1       263.7      -1310.
        1375       -3346.       6406.       2883.       15.26       103.5      -1716.
        1376       -2825.      1.0175E+04   1702.       16.01       110.0      -1832.
        1377       -2921.       9809.       1716.       180.2       146.2      -1324.
        1378       -382.7      -7655.      -6671.      -1.739       149.4      -218.6
        1379       -373.3      -6760.      -6582.      -11.07       168.4      -231.5
        1380       -788.8      -5114.      -6512.      -254.7       190.9      -170.6
        1381        1.778      -7246.      -6580.       10.91       402.1      -280.4
        1382       -745.8      -6503.      -6998.      -186.4       392.0      -393.5
        1383       -676.1      -5985.      -7021.      -290.6       417.5      -226.5
        1384       -577.5      -7593.      -6911.       52.63       595.2      -332.2
        1385       -777.9      -6270.      -7178.      -183.7       601.5      -342.0
        1386       -423.2      -5458.      -6926.      -214.4       578.4      -230.3
        1387       -1161.      -5798.      -6281.       29.78       690.4      -417.1
        1388       -194.7      -6234.      -7234.      -161.2       832.2      -247.2
        1389       -218.4      -5338.      -7028.      -241.4       857.9      -81.84
        1390       -895.6      -6643.      -6756.      -92.89       815.3      -373.7
        1391       -821.8      -4919.      -6761.      -228.9       1008.      -105.4
        1392       -424.0      -4597.      -6802.      -267.1       1046.       88.36
        1393       -766.0      -5339.      -6289.      -189.0       1027.      -141.5
        1394       -646.7      -4138.      -6575.      -230.6       1148.       90.16
        1395       -744.0      -4177.      -6710.      -280.9       1277.       241.6
        1396       -989.1      -4174.      -5979.      -138.5       1114.       42.82
        1397       -1009.      -4012.      -6542.      -201.5       1293.       239.3
        1398       -684.7      -3322.      -6457.      -330.1       1456.       400.7
        1399       -1490.      -5411.      -6054.      -1.860       1240.       37.37
        1400       -1373.      -3986.      -6461.      -224.9       1449.       321.3
        1401       -857.5      -3637.      -6255.      -414.6       1635.       527.3
        1402       -864.2      -2386.      -5355.      -68.02       1438.       63.69
        1403       -1207.      -3430.      -6191.      -185.6       1649.       366.6
        1404       -823.5      -3150.      -6128.      -381.6       1853.       578.7
        1405       -1269.      -3249.      -5325.      -242.9       1653.       211.5
        1406       -895.6      -3402.      -5887.      -251.6       1826.       464.0
        1407       -792.5      -3465.      -5805.      -451.9       1928.       560.0
        1408       -1414.      -3720.      -5222.      -181.7       1713.       242.4
        1409       -1113.      -5001.      -5937.      -332.9       1969.       541.4
        1410       -1273.      -2719.      -5626.      -629.7       2091.       627.2
        1411       -1688.      -1783.      -4731.      -266.2       1703.       159.9
        1412       -1370.      -2781.      -5402.      -219.7       2041.       581.4
        1413       -1551.      -3576.      -5851.      -556.8       2183.       729.6
        1414       -1494.       177.2      -3845.      -339.3       1710.       175.9
        1415       -1755.      -1980.      -5019.      -241.6       2021.       385.7
        1416       -1765.      -2534.      -5412.      -419.5       2295.       623.4
        1417       -2004.      -2173.      -4656.      -317.8       1887.       135.7
        1418       -2271.      -2538.      -5207.      -426.5       2126.       260.3
        1419       -1810.      -2295.      -5007.      -436.6       2309.       484.6
        1420       -2168.      -2989.      -4798.      -304.0       2044.       113.8
        1421       -2151.      -1779.      -4749.      -472.1       2226.       307.0
        1422       -1962.      -1952.      -4614.      -521.3       2375.       450.5
        1423       -2513.      -2523.      -4449.      -308.1       2069.       104.7
        1424       -2633.      -2055.      -4517.      -425.2       2272.       303.4
        1425       -2184.      -1862.      -4298.      -578.8       2462.       451.4
        1426       -2795.      -2240.      -4207.      -355.4       2084.       39.10
        1427       -2586.      -1160.      -4110.      -342.9       2299.       256.3
        1428       -2452.      -1701.      -4121.      -484.3       2499.       357.6
        1429       -3038.      -2378.      -4073.      -379.2       2073.       118.9
        1430       -3098.      -2265.      -4129.      -363.4       2336.       157.4
        1431       -2594.      -1010.      -3683.      -428.9       2488.       171.9
        1432       -3359.      -2643.      -3957.      -229.4       2107.       55.64
        1433       -3179.      -3465.      -4268.      -361.5       2434.       100.2
        1434       -2906.      -1762.      -3520.      -429.5       2572.       103.1
        1435       -3248.      -2850.      -3408.      -117.0       2157.      -125.8
        1436       -3290.      -1913.      -3359.      -267.2       2411.       15.22
        1437       -3116.      -2189.      -3566.      -357.7       2567.       25.73
        1438       -3501.      -2253.      -3271.      -243.1       2158.      -149.9
        1439       -3209.      -1143.      -2928.      -142.0       2326.      -116.2
        1440       -3655.      -1786.      -3239.      -237.3       2506.      -53.81
        1441       -3512.      -1706.      -2989.      -244.4       2075.      -90.13
        1442       -3413.      -1002.      -2869.      -102.5       2335.      -171.8
        1443       -3228.      -2531.      -2766.      -64.78       2491.      -41.78
        1444       -3799.      -2648.      -2885.      -182.1       2054.      -242.5
        1445       -3387.      -484.0      -2463.      -137.4       2306.      -217.9
        1446       -3957.      -2540.      -2473.       95.97       2530.      -104.4
        1447       -3959.      -2646.      -2770.      -131.5       2089.      -278.1
        1448       -3884.      -1792.      -2382.       34.08       2344.      -151.8
        1449       -4305.      -3061.      -2319.       193.3       2380.      -185.7
        1450       -3747.      -736.4      -1951.       40.20       2057.      -193.0
        1451       -4472.      -2729.      -2424.       144.0       2259.      -233.7
        1452       -4275.      -2324.      -2472.       233.3       2384.      -375.7
        1453       -3867.      -434.7      -1736.       102.6       1964.      -242.2
        1454       -4609.      -2123.      -2112.       295.4       2175.      -199.3
        1455       -4478.      -1981.      -1974.       364.9       2327.      -461.0
        1456       -4832.      -2559.      -2249.       29.76       1910.      -214.5
        1457       -4786.      -2178.      -1961.       350.8       2100.      -344.3
        1458       -4675.      -2411.      -1869.       479.2       2252.      -502.2
        1459       -5097.      -3756.      -2142.       49.01       1861.      -191.8
        1460       -5282.      -2967.      -2154.       269.9       2079.      -402.9
        1461       -5048.      -2807.      -1783.       483.3       2178.      -478.6
        1462       -4929.      -3229.      -1437.       105.8       1744.      -247.0
        1463       -5479.      -3691.      -1915.       300.4       2015.      -361.9
        1464       -5550.      -3617.      -1544.       481.5       2110.      -471.8
        1465       -4839.      -2717.      -1426.       190.1       1587.      -285.4
        1466       -5162.      -2393.      -1199.       431.1       1848.      -322.3
        1467       -5654.      -3615.      -1304.       665.4       2011.      -377.7
        1468       -5465.      -3904.      -1265.       173.9       1510.      -234.6
        1469       -5853.      -3932.      -1076.       473.4       1704.      -264.4
        1470       -5831.      -3580.      -892.9       744.8       1857.      -502.8
        1471       -5731.      -4603.      -1329.       137.9       1424.      -168.6
        1472       -5980.      -4562.      -893.4       433.6       1586.      -315.2
        1473       -6031.      -3923.      -906.1       700.0       1708.      -509.2
        1474       -5758.      -4044.      -1401.       193.5       1335.      -184.4
        1475       -6259.      -4400.      -871.7       460.2       1462.      -307.9
        1476       -6244.      -4285.      -758.4       654.7       1568.      -426.5
        1477       -6005.      -5063.      -964.9       208.6       1143.      -164.9
        1478       -6468.      -4540.      -780.9       426.0       1273.      -317.8
        1479       -6552.      -4538.      -704.8       651.4       1423.      -386.3
        1480       -5997.      -5477.      -782.2       177.4       973.8      -158.5
        1481       -6430.      -4996.      -807.2       351.3       1108.      -273.9
        1482       -6632.      -4844.      -709.5       618.9       1241.      -395.8
        1483       -6533.      -7175.      -583.0       161.6       845.3      -207.8
        1484       -6422.      -4646.      -316.2       275.7       945.5      -287.4
        1485       -6714.      -4733.      -693.5       440.8       1079.      -426.4
        1486       -6773.      -6598.      -1260.       89.51       688.0      -220.3
        1487       -7003.      -4829.      -1092.       245.6       804.2      -257.7
        1488       -6759.      -4527.      -369.0       358.2       872.9      -283.8
        1489       -6391.      -6376.      -881.2       121.9       524.1      -232.9
        1490       -7035.      -5547.      -983.4       190.9       636.9      -177.3
        1491       -6748.      -4378.      -193.0       265.3       643.7      -221.6
        1492       -5990.      -4859.      -445.1      -17.40       358.4      -177.3
        1493       -6811.      -5289.      -714.2       66.87       504.0      -46.05
        1494       -7097.      -5156.      -398.4       120.8       433.0      -197.2
        1495       -6420.      -6246.      -759.2      -98.18       212.6      -51.38
        1496       -6702.      -4917.      -677.5       19.52       274.6      -32.07
        1497       -7421.      -6088.      -733.1       100.8       222.7      -9.243
        1498        275.7      -89.89      -5072.      -793.3       165.1      -32.81
        1499        191.5       1018.      -4922.      -755.6       362.9      -14.17
        1500        151.9       545.5      -5201.      -768.3       509.5       145.9
        1501       -37.60       1830.      -4909.      -808.1       696.8       217.8
        1502       -133.5       2082.      -4849.      -821.0       895.7       287.1
        1503       -145.0       2816.      -4662.      -835.4       1054.       408.9
        1504        136.3       3731.      -4183.      -876.4       1218.       516.6
        1505       -411.3       2653.      -4416.      -956.9       1415.       595.7
        1506       -449.5       3420.      -4148.      -1027.       1517.       573.9
        1507       -717.0       3508.      -4014.      -1032.       1547.       545.0
        1508       -589.6       3807.      -3786.      -1050.       1660.       523.7
        1509       -731.1       3810.      -3660.      -1071.       1755.       468.6
        1510       -849.9       4010.      -3241.      -1051.       1913.       375.4
        1511       -830.5       4376.      -2993.      -993.6       1952.       301.6
        1512       -895.7       4560.      -2867.      -956.6       1972.       213.1
        1513       -1104.       4510.      -2758.      -982.2       2037.       33.37
        1514       -1348.       4669.      -2556.      -908.4       2116.      -154.1
        1515       -1371.       4629.      -2399.      -814.7       2140.      -273.3
        1516       -1826.       4889.      -2081.      -732.4       2164.      -365.5
        1517       -1853.       4763.      -2095.      -739.5       2152.      -454.2
        1518       -2062.       4719.      -1819.      -618.8       2164.      -603.9
        1519       -2251.       4683.      -1585.      -468.1       2152.      -698.9
        1520       -2450.       4692.      -1592.      -382.4       2148.      -886.9
        1521       -2287.       5548.      -1204.      -220.2       2087.      -870.8
        1522       -2690.       4889.      -1098.      -63.29       2036.      -871.2
        1523       -3175.       3657.      -1249.       62.55       1988.      -1007.
        1524       -3059.       4157.      -909.3       174.1       1938.      -1064.
        1525       -3175.       4106.      -655.8       227.8       1868.      -1058.
        1526       -3525.       3195.      -645.4       270.2       1783.      -1026.
        1527       -3854.       2695.      -729.3       341.8       1687.      -1014.
        1528       -3807.       3443.      -524.6       413.1       1600.      -1019.
        1529       -4112.       2739.      -502.9       419.1       1451.      -983.9
        1530       -4239.       2496.      -381.9       419.3       1288.      -915.9
        1531       -4194.       2842.      -166.1       463.6       1221.      -853.1
        1532       -4230.       2752.      -5.074       449.2       1134.      -847.4
        1533       -4516.       2130.      -22.03       342.8       894.2      -853.9
        1534       -4630.       1850.       148.6       284.6       638.0      -822.7
        1535       -4658.       1864.       196.1       300.7       440.6      -733.0
        1536       -4815.       1473.       198.5       289.5       288.5      -711.1
        1537       -4509.       2520.       708.3       186.9       204.0      -722.8
        1538        318.2       1393.      -5429.      -944.9       59.92       92.93
        1539        25.16       2347.      -5030.      -875.7      -18.21       20.25
        1540       -69.80      -2672.      -5978.      -831.8      -34.50       62.75
        1541       -4965.       2535.       306.4       95.65       37.22      -981.8
        1542       -5082.       2067.       45.03       93.26       17.40      -954.6
        1543       -4882.       854.6       570.7       175.7       49.44      -806.1
        1544       -5121.      -4703.      -425.3       1.836       128.8       203.7
        1545       -5185.      -4687.      -516.1      -43.20       298.8       210.9
        1546       -5158.      -4695.      -525.5      -167.4       422.0       260.2
        1547       -4717.      -3552.      -262.6      -113.0       555.3       227.1
        1548       -4854.      -3330.      -374.0      -92.85       722.7       211.8
        1549       -4983.      -3664.      -767.4      -111.4       909.6       193.6
        1550       -4448.      -3250.      -618.1      -190.2       1035.       106.0
        1551       -4420.      -2507.      -593.0      -211.6       1117.       24.59
        1552       -4244.      -1936.      -748.0      -211.3       1252.       13.62
        1553       -4166.      -1979.      -1130.      -253.6       1343.      -54.53
        1554       -4235.      -2059.      -1295.      -263.3       1432.      -92.81
        1555       -4084.      -1859.      -1300.      -245.6       1499.      -97.97
        1556       -3931.      -1649.      -1436.      -316.7       1607.      -82.95
        1557       -3858.      -1449.      -1673.      -422.0       1691.      -56.12
        1558       -3860.      -1547.      -1740.      -474.8       1749.      -189.4
        1559       -3274.      -278.7      -1904.      -379.7       1806.      -285.5
        1560       -3418.      -801.4      -2070.      -326.8       1847.      -252.4
        1561       -3193.      -643.7      -2290.      -320.4       1914.      -217.7
        1562       -2983.      -97.56      -2355.      -307.1       1932.      -230.9
        1563       -2522.       397.2      -2494.      -338.6       1912.      -208.4
        1564       -2578.      -84.20      -2847.      -337.8       1915.      -237.0
        1565       -2354.       233.7      -2923.      -331.9       1882.      -233.4
        1566       -2165.       14.99      -3093.      -336.4       1868.      -258.6
        1567       -2088.      -172.5      -3335.      -301.5       1888.      -235.0
        1568       -2341.      -1341.      -3648.      -297.5       1828.      -251.3
        1569       -2189.       64.31      -3607.      -235.2       1784.      -293.0
        1570       -1605.      -970.3      -3918.      -153.9       1733.      -260.0
        1571       -1548.      -1292.      -4210.      -170.1       1683.      -317.9
        1572       -1144.      -1431.      -4127.      -120.3       1566.      -370.0
        1573       -1084.      -1463.      -4275.      -59.57       1468.      -334.3
        1574       -1046.      -2109.      -4466.      -43.22       1376.      -299.4
        1575       -774.8      -2328.      -4558.      -51.24       1324.      -342.4
        1576       -606.8      -2963.      -5005.       53.50       1191.      -415.9
        1577       -572.1      -3166.      -5018.       160.4       974.0      -486.8
        1578       -587.7      -3078.      -4952.       236.2       838.4      -526.7
        1579       -510.1      -3923.      -5000.       276.9       701.0      -554.6
        1580       -494.5      -4152.      -4783.       269.5       551.6      -517.5
        1581       -604.1      -4930.      -5199.       199.3       419.3      -447.9
        1582       -852.3      -5270.      -5170.       285.5       260.5      -381.2
        1583       -699.9      -5352.      -5185.       345.7       147.6      -169.8
        1584       -3851.      -2522.      -58.83       34.72       125.2       354.7
        1585       -4000.      -3531.      -236.3      -105.1       229.9       414.5
        1586       -4008.      -3084.      -193.1      -204.4       338.8       377.0
        1587       -3849.      -2801.      -332.6      -188.9       531.3       305.4
        1588       -3905.      -2518.      -372.7      -167.2       631.8       242.8
        1589       -3760.      -2648.      -499.4      -207.3       760.0       277.3
        1590       -4049.      -2981.      -663.0      -303.7       870.1       269.6
        1591       -3695.      -2045.      -531.9      -340.4       974.1       188.0
        1592       -3428.      -1982.      -648.4      -363.5       1056.       94.81
        1593       -3518.      -1572.      -723.9      -371.7       1138.       54.49
        1594       -3353.      -1039.      -845.1      -346.0       1253.       49.89
        1595       -3358.      -1808.      -1122.      -372.8       1342.       22.58
        1596       -3188.      -802.0      -1078.      -457.0       1388.       3.161
        1597       -3080.      -780.6      -1289.      -504.8       1475.      -30.06
        1598       -2981.      -778.1      -1586.      -554.6       1546.      -105.8
        1599       -2988.      -177.8      -1541.      -506.4       1590.      -193.3
        1600       -2749.      -567.7      -1772.      -411.9       1635.      -242.5
        1601       -2742.      -274.1      -1900.      -422.6       1661.      -259.3
        1602       -2441.      -187.3      -2043.      -439.4       1666.      -280.8
        1603       -2164.       1.733      -2126.      -434.4       1676.      -332.3
        1604       -2170.       51.06      -2401.      -414.3       1658.      -335.1
        1605       -1873.       208.7      -2472.      -374.4       1648.      -343.5
        1606       -1901.      -356.3      -2699.      -336.8       1672.      -363.6
        1607       -1634.      -474.2      -2860.      -288.4       1634.      -367.3
        1608       -1531.      -104.4      -2700.      -229.2       1617.      -381.4
        1609       -1623.      -601.2      -3142.      -243.1       1574.      -442.1
        1610       -1383.      -522.9      -3185.      -139.6       1514.      -423.8
        1611       -1300.      -923.3      -3313.      -53.18       1447.      -420.5
        1612       -996.4      -1057.      -3247.      -32.26       1371.      -433.2
        1613       -853.2      -1281.      -3392.       19.75       1290.      -469.1
        1614       -757.2      -1458.      -3592.       99.25       1169.      -493.3
        1615       -767.7      -1785.      -3521.       169.0       1103.      -516.7
        1616       -676.2      -2338.      -4094.       243.1       1042.      -531.7
        1617       -437.0      -2207.      -3945.       324.7       893.5      -532.1
        1618       -346.8      -2148.      -3753.       344.5       760.2      -568.9
        1619       -395.6      -3353.      -4037.       382.5       619.5      -591.0
        1620        21.16      -2790.      -3616.       397.0       476.6      -503.0
        1621       -227.2      -3245.      -3589.       378.4       348.5      -383.0
        1622       -344.6      -3586.      -3664.       327.7       233.2      -284.0
        1623       -58.45      -3878.      -3783.       337.9       119.3      -205.7
        1624       -2958.      -2150.      -119.7      -22.18       83.34       469.4
        1625       -2636.      -1947.      -33.97      -55.52       208.4       513.6
        1626       -2806.      -2017.      -174.5      -145.8       288.2       511.0
        1627       -3001.      -1899.      -201.2      -194.7       435.4       438.0
        1628       -2801.      -1571.      -201.8      -193.8       536.9       383.1
        1629       -2666.      -1451.      -259.1      -259.5       637.5       351.4
        1630       -2351.      -1094.      -281.2      -304.3       706.1       319.9
        1631       -2638.      -1212.      -309.4      -326.7       777.0       258.4
        1632       -2735.      -1448.      -527.9      -320.1       884.8       192.4
        1633       -2832.      -1445.      -629.9      -388.0       964.1       140.8
        1634       -2677.      -1028.      -722.3      -408.4       1043.       76.49
        1635       -2135.      -336.0      -564.0      -431.8       1120.       40.39
        1636       -2408.      -419.7      -750.9      -483.9       1174.      -48.78
        1637       -2274.      -544.0      -897.9      -495.3       1248.      -113.0
        1638       -2067.      -557.2      -996.2      -512.7       1304.      -143.4
        1639       -2605.      -809.1      -1465.      -520.9       1367.      -209.1
        1640       -2070.      -395.4      -1333.      -489.0       1406.      -237.8
        1641       -1603.      -109.7      -1132.      -500.0       1403.      -291.2
        1642       -1681.       142.4      -1424.      -489.6       1418.      -328.5
        1643       -1580.      -310.1      -1649.      -449.3       1450.      -361.6
        1644       -1619.      -420.5      -1901.      -448.4       1428.      -415.3
        1645       -1337.       162.9      -1758.      -420.0       1392.      -413.1
        1646       -1301.       84.85      -1914.      -365.5       1393.      -421.1
        1647       -1174.      -112.2      -1942.      -304.5       1405.      -426.9
        1648       -1304.      -901.9      -2616.      -257.4       1381.      -452.0
        1649       -1019.      -321.1      -2319.      -208.4       1332.      -462.0
        1650       -796.2      -183.5      -2270.      -130.0       1272.      -458.3
        1651       -709.8      -239.4      -2220.      -50.83       1226.      -447.9
        1652       -746.0      -1193.      -2848.       30.60       1178.      -454.8
        1653       -559.8      -1046.      -2934.       99.28       1095.      -488.9
        1654       -625.6      -1426.      -3038.       186.7       1004.      -515.4
        1655       -543.7      -1701.      -2831.       256.1       946.3      -527.8
        1656       -372.7      -1464.      -2892.       307.1       866.7      -511.0
        1657       -284.6      -1257.      -2673.       383.3       754.6      -507.6
        1658       -116.8      -1495.      -2854.       447.1       675.7      -534.0
        1659       -302.8      -2629.      -3390.       513.9       533.5      -480.9
        1660        8.889      -1813.      -2553.       506.8       407.5      -407.9
        1661       -39.93      -2125.      -2794.       507.0       294.8      -324.9
        1662        1.832      -2002.      -2663.       509.9       189.4      -285.1
        1663       -320.0      -2361.      -2266.       556.5       67.85      -142.7
        1664       -2270.      -967.9      -111.6      -28.58       100.4       321.7
        1665       -1820.      -687.7      -298.7      -33.54       206.0       325.8
        1666       -1869.      -727.1      -341.2      -42.81       274.5       309.9
        1667       -1902.      -791.2      -340.2      -88.44       362.2       270.4
        1668       -1850.      -608.5      -269.8      -125.2       463.5       228.6
        1669       -1826.      -661.1      -429.7      -139.6       561.0       205.1
        1670       -1789.      -729.5      -441.3      -135.4       636.3       186.2
        1671       -1674.      -692.4      -454.6      -124.2       681.2       155.4
        1672       -1941.      -625.4      -373.7      -150.6       784.5       122.3
        1673       -1388.      -697.9      -466.5      -175.1       850.9       110.9
        1674       -1608.      -530.2      -391.4      -204.4       907.0       62.86
        1675       -1227.      -375.6      -354.4      -213.6       970.7       21.82
        1676       -1279.      -407.9      -408.4      -230.3       1025.      -22.13
        1677       -1388.      -415.9      -502.3      -245.6       1080.      -71.33
        1678       -1027.      -144.5      -413.2      -245.1       1120.      -78.60
        1679       -1140.      -344.6      -497.7      -265.6       1167.      -108.3
        1680       -837.6      -225.4      -559.0      -266.0       1208.      -132.8
        1681       -834.7      -158.5      -596.1      -263.7       1211.      -136.8
        1682       -827.0      -250.5      -819.6      -280.0       1225.      -169.1
        1683       -628.9      -164.6      -679.0      -268.4       1231.      -212.9
        1684       -669.3      -207.3      -868.8      -254.1       1226.      -242.3
        1685       -731.9      -325.2      -917.0      -244.0       1214.      -248.9
        1686       -604.8      -324.8      -976.2      -187.3       1211.      -245.2
        1687       -534.4      -217.4      -1039.      -151.8       1220.      -222.4
        1688       -502.3      -323.5      -1103.      -130.8       1211.      -223.8
        1689       -336.1      -262.0      -1122.      -124.5       1163.      -224.9
        1690       -380.6      -135.7      -1353.      -79.32       1106.      -234.0
        1691       -429.4      -314.5      -1291.      -16.73       1073.      -248.4
        1692       -335.0      -436.4      -1460.       52.63       1046.      -240.7
        1693       -279.5      -374.1      -1529.       90.05       1008.      -247.7
        1694       -301.1      -497.8      -1617.       156.1       939.8      -255.7
        1695       -355.4      -552.3      -1700.       184.9       860.1      -265.2
        1696       -269.1      -584.1      -1766.       190.6       783.3      -248.4
        1697       -340.3      -600.8      -1883.       224.8       702.6      -255.7
        1698       -288.6      -697.2      -1856.       276.8       623.0      -288.2
        1699       -213.3      -558.7      -1764.       352.4       494.4      -254.1
        1700       -449.9      -1001.      -1923.       338.8       402.0      -222.7
        1701       -278.8      -1016.      -2152.       376.4       344.0      -162.5
        1702       -368.1      -1321.      -2024.       337.5       181.0      -118.4
        1703       -212.5      -613.6      -1813.       365.7       95.29      -82.39
        1704       -3726.       3020.       379.6       22.83       166.3      -466.6
        1705       -4352.       1895.       245.2      -61.74       269.7      -467.4
        1706       -3800.       3294.       539.4      -89.41       370.4      -469.5
        1707       -3853.       2756.       172.9      -104.0       515.5      -535.2
        1708       -3949.       2582.       213.3      -83.85       683.2      -581.1
        1709       -3746.       2388.       419.1      -90.12       808.9      -582.6
        1710       -3780.       2783.       149.3      -130.1       902.2      -571.5
        1711       -3658.       3130.       94.42      -188.7       1017.      -572.2
        1712       -3749.       2303.      -334.9      -227.8       1147.      -615.6
        1713       -3359.       2938.      -53.70      -246.1       1265.      -645.6
        1714       -3095.       3425.      -54.91      -241.9       1362.      -647.4
        1715       -2878.       3504.      -191.5      -274.9       1447.      -668.8
        1716       -2981.       3244.      -451.0      -340.5       1521.      -652.2
        1717       -2562.       4423.      -186.7      -406.5       1580.      -625.2
        1718       -2691.       3514.      -620.0      -458.3       1653.      -666.3
        1719       -2458.       3686.      -755.6      -534.6       1705.      -657.4
        1720       -2046.       4067.      -863.2      -567.0       1725.      -645.1
        1721       -1992.       4328.      -1087.      -537.0       1743.      -650.5
        1722       -1828.       4071.      -1330.      -538.5       1769.      -646.7
        1723       -1737.       3804.      -1585.      -581.7       1771.      -626.7
        1724       -1565.       4281.      -1708.      -670.1       1773.      -577.5
        1725       -1364.       3759.      -1929.      -672.7       1783.      -526.9
        1726       -969.2       4307.      -1812.      -710.5       1751.      -485.0
        1727       -1087.       4231.      -2340.      -708.8       1696.      -443.9
        1728       -915.7       4055.      -2546.      -761.4       1676.      -432.4
        1729       -649.4       3847.      -2508.      -763.5       1652.      -404.2
        1730       -531.6       3630.      -2819.      -724.2       1540.      -375.6
        1731       -333.2       3977.      -2744.      -672.5       1477.      -409.3
        1732       -268.7       3417.      -3163.      -622.4       1429.      -325.6
        1733       -349.3       3243.      -3393.      -633.6       1303.      -232.8
        1734        118.5       3729.      -3455.      -632.6       1178.      -191.4
        1735        63.81       3109.      -3590.      -660.7       1089.      -219.0
        1736       -66.13       3059.      -3636.      -640.2       1029.      -208.1
        1737        26.21       2998.      -3705.      -566.2       938.0      -206.2
        1738        234.6       2879.      -3910.      -557.8       765.7      -186.1
        1739        335.7       2517.      -4012.      -528.5       630.1      -170.5
        1740        267.1       2617.      -4101.      -471.6       545.1      -196.5
        1741        128.6       1489.      -4450.      -467.3       428.5      -166.1
        1742        652.9       2318.      -3969.      -459.4       284.0      -104.2
        1743        680.9       2997.      -3578.      -430.2       105.3      -80.68
        1744       -3746.       898.8       324.8      -27.02       103.2      -133.4
        1745       -3259.       1966.       461.8      -56.12       243.8      -134.6
        1746       -3383.       911.2       4.173      -133.9       363.5      -163.7
        1747       -3432.       1242.       64.79      -151.8       481.5      -204.3
        1748       -3339.       1000.      -113.9      -156.7       585.7      -212.2
        1749       -3349.       1435.       14.62      -216.0       697.7      -218.3
        1750       -2984.       2296.       25.02      -248.2       804.8      -254.1
        1751       -3393.       1582.      -197.3      -260.6       901.1      -317.9
        1752       -3037.       1839.      -236.1      -325.7       998.4      -339.4
        1753       -3101.       1750.      -275.1      -406.6       1121.      -336.5
        1754       -2765.       2446.      -193.3      -389.3       1168.      -371.8
        1755       -2496.       3185.      -60.18      -428.6       1239.      -410.3
        1756       -2514.       2745.      -447.7      -451.5       1330.      -435.2
        1757       -2340.       3254.      -568.1      -475.6       1414.      -480.0
        1758       -2299.       3001.      -688.8      -529.1       1467.      -518.5
        1759       -2090.       3304.      -876.0      -592.4       1514.      -542.1
        1760       -2174.       3068.      -1076.      -579.4       1526.      -547.3
        1761       -1883.       3422.      -1108.      -554.4       1550.      -542.6
        1762       -1764.       3308.      -1364.      -546.4       1564.      -558.8
        1763       -1561.       3711.      -1336.      -569.7       1558.      -531.5
        1764       -1652.       3092.      -1681.      -596.0       1564.      -543.2
        1765       -1347.       3257.      -1816.      -602.2       1561.      -547.0
        1766       -1219.       3316.      -1862.      -584.0       1543.      -508.8
        1767       -1016.       3618.      -1975.      -578.9       1512.      -510.3
        1768       -900.8       3374.      -2218.      -536.4       1473.      -524.5
        1769       -1034.       2677.      -2390.      -516.8       1453.      -512.9
        1770       -844.2       2484.      -2764.      -523.7       1397.      -482.9
        1771       -662.4       2498.      -2840.      -485.1       1313.      -463.3
        1772       -288.8       2579.      -2649.      -432.7       1250.      -451.4
        1773       -113.4       2804.      -2728.      -409.7       1164.      -407.4
        1774       -230.0       2279.      -3023.      -398.1       1065.      -373.9
        1775       -20.00       2154.      -3109.      -362.3       997.4      -360.9
        1776        58.80       2399.      -2847.      -340.8       921.8      -364.1
        1777        18.21       1795.      -3314.      -280.2       816.6      -331.8
        1778        252.1       2099.      -3108.      -207.4       706.3      -346.7
        1779        326.9       1686.      -3283.      -161.6       586.4      -310.6
        1780        153.6       1358.      -3532.      -118.6       485.3      -258.9
        1781        247.0       857.3      -3716.      -92.26       367.0      -219.1
        1782        516.5       1258.      -3550.      -57.42       247.4      -196.4
        1783        405.7       993.6      -3388.      -60.11       114.3      -80.81
        1784       -2543.       352.6       320.8      -39.15       85.32       42.06
        1785       -2811.       519.5       219.3      -96.95       209.4       38.71
        1786       -2693.       511.7       359.3      -178.3       328.7       3.178
        1787       -2502.       752.1       337.5      -215.0       407.8      -19.26
        1788       -2866.       753.3       81.15      -235.5       492.1      -38.04
        1789       -2570.       890.2       160.7      -250.0       589.8      -55.52
        1790       -2617.       853.7       17.62      -296.6       685.5      -96.32
        1791       -2653.       1085.      -157.0      -346.7       792.3      -148.0
        1792       -2231.       1356.       25.36      -394.0       875.2      -164.3
        1793       -2368.       1403.      -125.7      -450.9       930.2      -178.1
        1794       -2092.       1708.      -181.1      -521.4       1003.      -222.8
        1795       -2609.       1228.      -699.0      -528.7       1049.      -270.3
        1796       -2202.       1951.      -580.1      -547.1       1118.      -323.7
        1797       -2086.       2075.      -747.0      -576.7       1198.      -367.5
        1798       -2025.       2397.      -815.9      -579.7       1237.      -403.5
        1799       -1749.       2587.      -760.4      -600.1       1280.      -450.2
        1800       -1917.       2436.      -985.3      -606.5       1298.      -476.6
        1801       -1918.       2576.      -1147.      -615.8       1305.      -488.9
        1802       -1751.       2559.      -1292.      -610.0       1321.      -498.5
        1803       -1510.       3108.      -1312.      -582.6       1311.      -534.1
        1804       -1336.       3035.      -1455.      -563.8       1314.      -571.3
        1805       -1346.       2545.      -1652.      -560.6       1323.      -584.6
        1806       -1323.       2766.      -1952.      -538.8       1297.      -577.9
        1807       -1033.       2451.      -1754.      -509.0       1280.      -589.1
        1808       -888.4       2685.      -1753.      -475.7       1271.      -560.9
        1809       -656.8       2590.      -1938.      -451.2       1239.      -579.0
        1810       -635.4       2297.      -2159.      -420.2       1205.      -596.4
        1811       -521.8       1944.      -2382.      -371.4       1131.      -567.6
        1812       -327.5       2180.      -1979.      -332.9       1078.      -526.4
        1813       -287.9       2032.      -2194.      -271.1       1026.      -518.4
        1814       -159.2       1856.      -2255.      -224.4       941.7      -514.2
        1815       -85.50       1678.      -2471.      -174.9       865.8      -456.0
        1816       -119.3       1180.      -2446.      -158.6       804.6      -448.9
        1817        4.696       848.2      -2699.      -113.1       733.8      -447.3
        1818        29.54       888.1      -2711.      -20.50       610.6      -435.1
        1819        231.9       764.1      -2723.       32.04       504.8      -395.7
        1820        303.0       354.5      -2546.       61.51       417.1      -336.9
        1821        316.2       98.84      -2724.       112.7       311.5      -240.3
        1822        362.1      -24.22      -2807.       136.9       218.4      -137.0
        1823        457.6      -88.31      -2897.       153.5       105.8      -91.68
        1824       -1955.      -553.7      -159.7      -44.14       93.13       184.1
        1825       -2153.      -520.0      -77.52      -119.5       181.3       172.5
        1826       -2176.      -579.6      -164.1      -194.3       295.1       144.3
        1827       -1868.      -29.29       55.28      -252.5       396.2       112.2
        1828       -1973.      -258.8      -115.2      -307.3       463.2       82.81
        1829       -2109.      -107.4      -162.1      -346.4       534.9       61.60
        1830       -2050.       267.2      -177.5      -401.4       621.8       21.60
        1831       -1896.       490.2      -110.0      -458.8       715.6      -21.01
        1832       -1826.       631.4      -325.8      -505.0       779.0      -57.05
        1833       -1743.       963.3      -295.0      -555.1       834.8      -114.0
        1834       -1680.       1028.      -376.3      -619.4       898.7      -172.0
        1835       -1999.       998.3      -770.6      -640.6       945.3      -206.2
        1836       -1751.       1574.      -678.6      -672.3       979.9      -270.4
        1837       -1604.       1717.      -625.9      -676.3       1019.      -337.1
        1838       -1628.       1857.      -830.2      -676.3       1061.      -369.9
        1839       -1329.       2164.      -801.8      -689.0       1092.      -417.4
        1840       -1491.       2070.      -959.6      -703.5       1108.      -466.7
        1841       -1397.       2305.      -993.5      -700.6       1111.      -514.3
        1842       -1537.       2437.      -1116.      -687.0       1103.      -559.0
        1843       -1378.       2253.      -1301.      -651.1       1118.      -596.7
        1844       -1226.       2222.      -1245.      -610.2       1131.      -621.0
        1845       -1079.       2335.      -1283.      -597.7       1134.      -648.2
        1846       -1037.       2479.      -1385.      -579.8       1112.      -648.4
        1847       -978.3       2517.      -1464.      -528.5       1093.      -652.6
        1848       -900.4       2234.      -1499.      -471.1       1086.      -683.9
        1849       -895.4       1749.      -1691.      -421.1       1079.      -702.9
        1850       -846.7       1336.      -1611.      -391.7       1073.      -700.5
        1851       -806.3       1338.      -1865.      -321.3       1010.      -663.4
        1852       -860.6       1211.      -1888.      -262.5       973.1      -645.7
        1853       -711.3       1096.      -1990.      -200.6       935.4      -646.0
        1854       -562.9       932.3      -2033.      -127.6       878.0      -641.1
        1855       -291.4       963.8      -1928.      -56.84       809.7      -601.3
        1856       -437.3       265.7      -1918.      -44.32       753.8      -583.4
        1857       -225.6       197.9      -1972.       8.651       692.9      -551.6
        1858       -293.6      -182.7      -2114.       85.87       599.3      -503.8
        1859       -171.0      -287.8      -2066.       156.4       497.4      -443.0
        1860       -119.0      -347.4      -1906.       190.9       410.5      -376.8
        1861       -182.4      -670.6      -1666.       231.5       314.0      -318.0
        1862        12.72      -571.6      -2107.       277.4       210.0      -173.7
        1863       -5.995      -819.2      -1790.       280.1       131.6      -61.68
        1864       -302.0      -108.3       2230.       12.22      -60.49      -17.67
        1865       -348.7      -145.0       2040.       4.299      -137.9      -39.89
        1866       -128.1      -165.2       2489.      -9.845      -229.1      -23.50
        1867       -312.8      -184.1       2215.       1.257      -327.5       24.52
        1868       -273.4      -195.5       2201.      -6.158      -398.5       13.32
        1869       -174.9      -96.28       2017.      -2.425      -463.4       4.846
        1870       -194.6      -140.3       2122.      -15.65      -546.0      -17.73
        1871       -138.2      -190.7       1839.       3.439      -633.8      -15.92
        1872       -223.1      -211.8       2121.       30.27      -675.9      -26.73
        1873       -138.0      -259.9       1806.       31.91      -725.3      -12.27
        1874       -1.138      -198.8       1821.       17.81      -810.8       3.585
        1875        124.1      -132.2       1524.      -2.330      -844.1      -40.42
        1876        118.5      -158.0       1539.       3.775      -889.5      -31.42
        1877        299.1      -102.0       1606.       5.747      -946.2       29.93
        1878        376.6      -87.76       1318.       15.95      -960.6       43.80
        1879        393.6      -94.42       1242.       22.00      -1024.      -20.34
        1880        471.4      -170.0       1167.       25.24      -1041.      -26.02
        1881        419.1      -161.3       1064.      -14.22      -1064.       4.807
        1882        584.9      -75.24       899.9       3.416      -1071.       35.60
        1883        775.3      -48.97       893.0       17.67      -1057.       21.81
        1884        848.8      -2.876       730.3       28.71      -1067.      -10.22
        1885        1157.       68.10       693.4       14.21      -1063.      -4.780
        1886        877.8      -143.1       510.2       4.645      -1056.       12.45
        1887        934.7      -293.0       458.5      -3.387      -1056.      -4.998
        1888        1206.      -181.0       431.1      -3.052      -1044.      -9.067
        1889        1320.      -181.4       295.3       21.77      -989.3      -14.10
        1890        1545.      -73.04       298.7       12.37      -936.3      -2.202
        1891        1544.      -101.4       112.6      -10.19      -886.5       28.02
        1892        1583.      -102.0       96.34      -11.45      -835.7       2.512
        1893        1763.      -182.0      -158.4     -0.6965      -770.6      -12.19
        1894        1788.      -260.2      -127.0      -26.85      -701.6      -26.25
        1895        1795.      -171.7      -256.3      -49.00      -602.6       16.23
        1896        1882.      -140.2      -89.42      -3.412      -577.4       29.38
        1897        1904.      -82.00      -200.3       12.23      -483.9      -8.542
        1898        1766.      -121.0      -326.7     -2.3724E-02  -414.6      -8.019
        1899        1885.      -195.9      -300.5      -6.814      -358.2      -32.24
        1900        2255.      -178.2      -184.5      -19.03      -264.7       20.90
        1901        2009.      -207.1      -255.2       11.86      -215.9       15.69
        1902        2060.      -135.9      -274.6      -7.385      -131.9      -8.360
        1903        1293.      -24.40      -416.7      -15.23      -56.09      -14.24
        1904        108.5       149.1       2569.       3.322      -133.5      -73.72
        1905        143.1       143.0       2314.       15.59      -229.9       54.81
        1906        287.9       247.4       3074.       35.53      -332.6       30.48
        1907        210.5       221.6       2516.       41.62      -435.2      -39.82
        1908        233.2       224.5       2509.       10.84      -526.1      -25.77
        1909        281.9       163.4       2565.       13.59      -626.4      -14.62
        1910        314.6       215.2       2441.       14.24      -696.7      -8.434
        1911        411.9       209.3       2238.       7.584      -771.1       5.811
        1912        560.9       248.6       2152.       9.917      -847.4      0.4976
        1913        723.7       316.5       2071.       15.74      -901.9      -23.73
        1914        662.6       240.5       1951.       16.75      -946.7      -12.32
        1915        797.0       219.0       1926.       12.12      -1008.       5.966
        1916        639.4       139.0       1634.      -8.715      -1040.       24.47
        1917        943.8       90.27       1828.      -3.222      -1076.      -34.14
        1918        859.2       122.2       1668.       4.095      -1084.      -42.00
        1919        1009.       178.3       1710.      -6.540      -1111.      -3.441
        1920        1066.       180.7       1632.      -12.71      -1124.      -4.370
        1921        1203.       164.5       1620.       26.44      -1152.      -3.331
        1922        1167.      -2.150       1435.      -3.840      -1157.      -58.70
        1923        1294.       128.1       1393.      -21.06      -1161.      -37.58
        1924        1327.       43.22       1233.      -23.08      -1170.      -11.31
        1925        1482.       28.53       1239.      -20.51      -1165.      -3.119
        1926        1492.       117.4       1138.      -36.96      -1163.      -35.87
        1927        1801.       312.0       1170.      -10.75      -1141.      0.8062
        1928        1724.       137.8       998.9       19.74      -1126.       4.075
        1929        1629.       177.8       881.9      -12.79      -1099.       10.24
        1930        1955.       80.00       949.4      -15.73      -1076.      -7.349
        1931        1708.       74.34       718.0       15.83      -1043.      -38.60
        1932        1984.       210.5       786.4      -1.984      -1021.      -12.10
        1933        2153.       262.7       755.9      -8.876      -973.1       15.61
        1934        2175.       286.1       626.5       17.12      -923.6       47.60
        1935        2195.       107.6       602.7       23.89      -832.5       1.815
        1936        2100.       234.3       285.1      -25.82      -786.3      -10.97
        1937        2580.       125.7       414.0      -49.50      -692.8       33.42
        1938        2660.       156.4       386.0       1.683      -606.4       16.30
        1939        2192.       170.5       259.6       12.46      -519.0       48.96
        1940        2409.       234.4       160.4       12.33      -381.9       15.06
        1941        2286.       202.2       175.6      -1.908      -331.2       13.61
        1942        2565.       140.9       85.80      -30.42      -220.0       26.20
        1943        2551.       50.34       234.5      -29.78      -105.9       37.79
        1944       -19.06      -1655.      -6899.      -42.17       16.88       1144.
        1945       -21.21      -2291.      -6278.      -35.88       27.53       2146.
        1946        11.87      -3387.      -5345.      -45.23       23.27       2865.
        1947       -1.205      -4722.      -4258.      -55.78       16.40       3137.
        1948        12.69      -6370.      -3188.      -43.38       4.981       2814.
        1949        17.01      -7275.      -2259.      -34.65       6.366       2023.
        1950        58.91      -7845.      -1754.       4.923      -5.067       909.4
        1951       -19.43      -7914.      -1592.      -14.33      -14.97      -177.3
        1952        16.29      -7614.      -1743.       11.59      -12.79      -1210.
        1953        20.45      -7118.      -2288.       3.047       4.689      -2159.
        1954       -9.897      -6163.      -3297.       42.94      -7.147      -2854.
        1955       -35.35      -4823.      -4461.       53.59       12.56      -3087.
        1956        33.41      -3352.      -5498.       50.39       16.65      -2818.
        1957        35.36      -2293.      -6358.       31.70       16.91      -2094.
        1958      -0.2900      -1624.      -6940.       30.54       4.329      -1106.
        1959       -15.65      -2593.      -6427.      -22.70       15.55       808.3
        1960       -2.345      -3020.      -6072.      -23.74       13.41       1519.
        1961       -20.40      -3749.      -5415.      -8.961       21.26       2021.
        1962       -27.36      -4642.      -4646.      -20.74       12.94       2214.
        1963       -25.76      -5311.      -3891.      -26.25       36.08       2044.
        1964       -32.35      -5907.      -3270.      -33.52       12.24       1636.
        1965       -13.76      -6505.      -2738.      -41.18       13.86       1021.
        1966       -26.28      -6892.      -2493.       11.86      -9.494       322.2
        1967       -15.04      -6525.      -2579.       23.08      -4.338      -457.3
        1968       -117.6      -6595.      -2969.       21.27       1.613      -1212.
        1969       -44.92      -5920.      -3455.       25.38       30.58      -1860.
        1970       -6.179      -4922.      -4290.       31.61       17.15      -2203.
        1971       -43.21      -4102.      -5216.       21.78       18.13      -2136.
        1972       -40.45      -3224.      -6053.       17.47       17.46      -1659.
        1973        11.82      -2671.      -6456.       8.349       4.135      -880.7
        1974        526.7      -343.8      -3426.       806.2      -42.23       349.1
        1975        399.1      -491.2      -3186.       863.4      -68.76       646.6
        1976        643.2      -467.4      -2588.       872.3      -23.54       736.3
        1977        446.2       383.8      -1888.       749.6       72.37       700.2
        1978        485.1       381.5      -1073.       551.7       136.0       674.3
        1979        368.5       977.4      -518.5       373.8       136.8       569.1
        1980        461.5       975.4      -116.9       259.1       146.2       407.0
        1981        399.3       1025.       327.5       81.88       169.6       124.7
        1982        379.8       1136.       268.2       70.32       203.0       21.28
        1983        527.2       745.2      -132.3      -106.7       185.6      -324.9
        1984        380.7       502.4      -525.4      -345.8       214.5      -452.6
        1985        392.7       245.9      -1170.      -572.7       165.2      -559.4
        1986        375.6      -25.40      -1487.      -697.8       72.09      -563.5
        1987        359.3      -333.6      -1969.      -774.7      -21.45      -511.7
        1988        583.9      -217.7      -1698.      -760.0      -44.59      -285.3
        1989       -631.9      -627.3      -3489.       748.5       46.50       283.2
        1990       -1280.      -1293.      -3616.       711.2       102.1       507.3
        1991       -161.5       406.1      -2635.       648.9       252.6       637.3
        1992       -422.2       109.6      -2500.       557.0       294.6       856.9
        1993       -577.3       2.231      -1441.       406.7       226.0       1098.
        1994       -426.1       182.4      -429.8       334.7       223.3       967.5
        1995        30.86       298.0       591.8       215.9       189.9       636.1
        1996       -271.3      -1001.       268.0       59.90       200.5       176.7
        1997       -351.9       34.80       504.9      -99.24       247.3     -0.9903
        1998       -439.3       273.1       110.5      -190.6       106.9      -523.5
        1999       -427.2       702.1      -413.9      -356.2       235.6      -698.8
        2000       -491.1       1444.      -967.4      -502.9       199.0      -661.5
        2001       -912.0       417.1      -1578.      -647.0       156.1      -497.5
        2002       -718.2       54.28      -1814.      -716.6       91.00      -450.2
        2003       -820.1       82.31      -1967.      -805.3       73.87      -247.3
        2004        46.65      -1223.      -7112.       3.300       1.822       381.7
        2005       -20.75      -2403.      -6718.      -12.93      -8.101       371.7
        2006       -61.84      -1327.      -7561.      -38.71       2.247       378.0
        2007       -7.080      -2268.      -6905.      -31.17      -5.912       384.4
        2008       -126.0      -1395.      -7528.      -88.85       14.80       402.6
        2009       -85.52      -2445.      -6758.      -71.21     -0.1882       384.5
        2010       -92.87      -1421.      -7509.      -138.3       12.61       412.4
        2011       -205.3      -2432.      -6794.      -134.7       1.010       402.3
        2012       -18.54      -1439.      -7527.      -194.4      -3.866       443.2
        2013       -302.3      -2475.      -6686.      -190.0      -4.377       426.4
        2014       -2.932      -1448.      -8010.      -238.1      -9.910       461.8
        2015       -377.5      -2475.      -6669.      -231.1      -26.48       471.8
        2016        284.3      -1328.      -7512.      -283.2      -11.72       506.3
        2017       -546.3      -2450.      -6909.      -257.9      -39.33       493.3
        2018        360.5      -1423.      -7553.      -316.2      -60.50       505.0
        2019       -675.5      -2379.      -6759.      -305.3      -67.89       515.5
        2020        675.2      -1290.      -7557.      -340.3      -84.86       484.7
        2021       -936.0      -2540.      -6607.      -331.4      -99.49       524.0
        2022        870.1      -1264.      -7161.      -333.2      -107.7       465.3
        2023       -1181.      -2511.      -6456.      -315.0      -116.4       515.6
        2024        1174.      -1159.      -6328.      -288.9      -138.0       442.7
        2025       -1271.      -2515.      -6175.      -257.3      -128.4       485.0
        2026        1143.      -1264.      -6080.      -127.4      -219.5       429.6
        2027       -1756.      -2598.      -5440.      -117.5      -214.8       442.2
        2028        1336.      -1099.      -5404.       210.9      -306.9       381.1
        2029       -1741.      -3157.      -5044.       221.3      -258.3       389.0
        2030        1121.      -1336.      -4460.       653.3      -302.9       325.9
        2031       -1109.      -2586.      -4553.       722.0      -286.3       270.9
        2032       -45.38      -1507.      -7333.       11.06      0.6132      -385.6
        2033       -26.13      -2476.      -6783.       7.204      -16.62      -394.2
        2034       -52.85      -1520.      -7426.       47.24      -5.604      -389.0
        2035       -8.669      -2403.      -6847.       44.25      -15.60      -399.2
        2036        21.79      -1336.      -7505.       86.97      -1.096      -404.4
        2037       -157.3      -2595.      -6845.       87.02      -20.03      -432.4
        2038        30.30      -1375.      -7622.       135.1      -3.396      -414.1
        2039       -137.7      -2457.      -6770.       120.3      -12.75      -451.4
        2040        31.26      -1455.      -7693.       181.3       1.395      -444.3
        2041       -280.3      -2595.      -6750.       172.4      -16.24      -478.3
        2042        112.2      -1405.      -7678.       236.8      -1.461      -469.7
        2043       -383.3      -2490.      -6872.       219.3      -12.51      -510.3
        2044        266.1      -1433.      -7713.       292.2      -8.547      -484.9
        2045       -557.0      -2532.      -6837.       264.4      -9.218      -531.4
        2046        414.4      -1452.      -7724.       344.5      -11.72      -492.4
        2047       -841.9      -2573.      -6769.       306.1      -26.94      -547.9
        2048        596.5      -1434.      -7664.       379.1      -79.83      -504.0
        2049       -961.1      -2612.      -6772.       347.0      -72.78      -560.2
        2050        879.6      -1583.      -7490.       370.3      -102.6      -528.1
        2051       -1169.      -2499.      -6562.       341.6      -105.5      -559.6
        2052        1274.      -1391.      -7276.       273.7      -117.7      -511.4
        2053       -1226.      -2428.      -6299.       246.5      -88.69      -545.3
        2054        1209.      -1346.      -6078.       53.06      -50.66      -470.0
        2055       -1526.      -2584.      -5714.       58.23      -90.77      -475.4
        2056        1190.      -1354.      -5147.      -301.1      -177.2      -415.0
        2057       -1387.      -2914.      -4984.      -258.6      -142.7      -398.5
        2058        1178.      -1261.      -4564.      -708.8      -218.0      -377.3
        2059       -868.9      -2477.      -3478.      -792.5      -177.5      -344.2
        2060        116.4      -866.8      -8117.      -13.53       50.53       1495.
        2061        123.0      -1695.      -7127.      -36.70       89.34       2798.
        2062        98.69      -3288.      -5793.      -65.70       100.4       3680.
        2063        79.33      -5312.      -4186.      -81.99       93.55       3951.
        2064        34.57      -7345.      -2663.      -82.29       70.04       3566.
        2065       -34.01      -9353.      -1028.      -56.92       50.04       2430.
        2066        14.50     -1.0171E+04  -355.7      -23.53       10.79       942.0
        2067       -123.8     -1.0843E+04  -537.0       7.984       6.898      -652.0
        2068        111.1      -9171.      -1007.       47.94       1.066      -1914.
        2069        48.26      -7978.      -2120.       87.73       7.274      -3059.
        2070        105.2      -6003.      -3536.       95.05       30.56      -3754.
        2071        107.0      -4352.      -4921.       81.34       53.30      -3916.
        2072        98.06      -2740.      -6320.       60.98       58.97      -3470.
        2073        111.4      -1519.      -7460.       39.92       57.31      -2552.
        2074        176.6      -736.1      -8097.       9.731       39.37      -1355.
        2075        170.8      -667.3      -8265.      -47.75       83.09       1535.
        2076        111.8      -1785.      -7383.      -81.74       130.4       2830.
        2077        121.5      -3317.      -5916.      -120.0       149.1       3678.
        2078        60.08      -5437.      -4280.      -139.7       130.9       3971.
        2079        24.16      -7410.      -2604.      -128.3       103.3       3552.
        2080        35.13      -9130.      -1128.      -94.28       49.91       2485.
        2081        83.05     -1.0085E+04  -412.7      -43.22       5.021       975.0
        2082        191.2      -9840.      -266.1       8.910      -13.10      -548.8
        2083        146.0      -9188.      -964.0       80.21      -8.310      -1877.
        2084        161.5      -7990.      -2021.       140.4       14.59      -3004.
        2085        145.0      -6054.      -3472.       162.9       59.39      -3741.
        2086        140.4      -4442.      -4908.       148.6       95.22      -3912.
        2087        98.39      -2771.      -6446.       113.7       101.8      -3516.
        2088        125.4      -1591.      -7516.       70.42       95.61      -2602.
        2089        170.7      -807.3      -8256.       41.75       54.70      -1371.
        2090        147.1      -831.8      -8381.      -57.92       100.0       1538.
        2091        136.5      -1794.      -7546.      -106.3       165.4       2834.
        2092        120.3      -3474.      -6023.      -155.7       184.3       3708.
        2093        148.4      -5249.      -4311.      -169.6       163.1       3972.
        2094        91.83      -7319.      -2605.      -162.8       108.3       3570.
        2095        69.88      -9005.      -1290.      -106.7       56.56       2510.
        2096        161.4      -9774.      -440.9      -38.60       9.834       1051.
        2097        200.4      -9713.      -462.6       38.94      -14.41      -508.5
        2098        177.1      -9437.      -914.2       114.0       2.190      -1804.
        2099        281.8      -7803.      -2044.       177.2       29.15      -2979.
        2100        199.1      -6262.      -3348.       201.6       78.49      -3751.
        2101        126.7      -4570.      -4926.       193.2       116.3      -3916.
        2102        94.03      -2846.      -6516.       142.5       140.0      -3530.
        2103        108.3      -1579.      -7776.       102.4       130.4      -2618.
        2104        163.4      -759.2      -8485.       51.89       74.35      -1400.
        2105        138.4      -841.8      -8650.      -88.55       115.8       1535.
        2106        163.3      -1845.      -7625.      -136.5       199.2       2829.
        2107        182.9      -3332.      -6197.      -179.6       215.8       3714.
        2108        199.8      -5197.      -4486.      -211.5       184.3       3986.
        2109        125.9      -7187.      -2772.      -211.6       126.3       3593.
        2110        160.5      -8880.      -1370.      -129.5       74.12       2533.
        2111        254.4      -9739.      -577.1      -30.98       8.309       1092.
        2112        266.9      -9900.      -507.9       52.19       1.586      -420.3
        2113        309.8      -9247.      -923.4       160.5       9.400      -1762.
        2114        273.7      -7853.      -2120.       217.8       42.66      -2989.
        2115        217.0      -6347.      -3458.       254.0       98.44      -3730.
        2116        177.0      -4522.      -5037.       241.4       136.3      -3931.
        2117        154.0      -2844.      -6659.       201.6       167.6      -3544.
        2118        149.5      -1590.      -7865.       144.1       147.8      -2656.
        2119        213.9      -760.6      -8713.       84.47       95.34      -1400.
        2120        286.2      -801.6      -8735.      -132.4       131.1       1519.
        2121        302.9      -1876.      -7692.      -176.1       221.3       2800.
        2122        337.8      -3422.      -6206.      -220.0       236.4       3686.
        2123        293.0      -5200.      -4466.      -249.0       195.6       3998.
        2124        305.2      -7174.      -2915.      -241.8       132.5       3629.
        2125        427.8      -8821.      -1173.      -162.2       69.44       2606.
        2126        406.3      -9685.      -516.9      -45.01       10.67       1144.
        2127        425.1     -1.0032E+04  -304.9       78.67      -2.380      -373.4
        2128        554.9      -9193.      -772.6       192.0       9.214      -1720.
        2129        452.5      -7898.      -2037.       271.3       48.56      -2960.
        2130        415.1      -6319.      -3428.       312.5       103.4      -3739.
        2131        278.1      -4559.      -5111.       302.0       155.3      -3928.
        2132        259.2      -2862.      -6741.       260.6       187.7      -3553.
        2133        302.0      -1680.      -7928.       192.1       162.9      -2669.
        2134        307.6      -797.9      -8854.       127.7       102.1      -1405.
        2135        367.7      -961.9      -8684.      -169.5       131.0       1506.
        2136        476.6      -1982.      -7634.      -211.1       223.6       2780.
        2137        470.0      -3382.      -6284.      -264.2       253.8       3687.
        2138        480.4      -5226.      -4562.      -289.0       212.7       4005.
        2139        525.9      -7132.      -2965.      -261.2       134.0       3670.
        2140        623.2      -8743.      -1250.      -184.6       51.40       2675.
        2141        579.3      -9801.      -512.4      -48.38      0.1886       1227.
        2142        648.9      -9712.      -430.7       99.62      -16.80      -344.4
        2143        747.7      -9496.      -449.6       221.2       3.914      -1687.
        2144        631.5      -7957.      -2005.       317.9       38.63      -2926.
        2145        518.9      -6416.      -3455.       360.6       94.66      -3734.
        2146        484.2      -4665.      -5063.       351.9       156.8      -3961.
        2147        437.2      -2919.      -6796.       308.0       194.6      -3569.
        2148        473.9      -1679.      -8009.       229.3       176.8      -2663.
        2149        511.8      -812.7      -8832.       179.5       101.6      -1399.
        2150        595.1      -1218.      -9026.      -190.4       127.2       1486.
        2151        721.4      -1958.      -7918.      -253.9       207.6       2756.
        2152        750.8      -3417.      -6253.      -307.3       253.5       3667.
        2153        743.8      -5252.      -4609.      -344.3       217.1       4002.
        2154        809.1      -7059.      -2964.      -292.9       143.5       3716.
        2155        865.3      -8694.      -1375.      -201.4       49.12       2729.
        2156        892.4      -9584.      -542.0      -48.65      -15.75       1296.
        2157        916.6      -9839.      -301.4       116.4      -41.96      -297.1
        2158        964.1      -9272.      -720.0       260.5      -38.89      -1621.
        2159        834.7      -8025.      -1960.       367.5       19.74      -2915.
        2160        821.3      -6443.      -3347.       406.7       97.18      -3721.
        2161        713.3      -4658.      -5059.       403.5       161.4      -3943.
        2162        710.7      -3035.      -6823.       345.7       195.8      -3549.
        2163        735.4      -1736.      -7999.       264.9       174.0      -2653.
        2164        844.0      -902.0      -9024.       217.9       95.39      -1403.
        2165        1057.      -943.8      -8697.      -204.8       105.3       1447.
        2166        1109.      -1938.      -7769.      -282.1       207.1       2699.
        2167        1092.      -3425.      -6358.      -326.7       244.7       3596.
        2168        1150.      -5300.      -4523.      -367.1       220.8       3986.
        2169        1232.      -7040.      -2885.      -317.3       147.4       3698.
        2170        1230.      -8541.      -1400.      -221.4       50.11       2795.
        2171        1221.      -9493.      -603.2      -38.52      -35.81       1377.
        2172        1328.      -9689.      -260.4       154.8      -73.00      -218.5
        2173        1170.      -9191.      -749.4       298.6      -70.56      -1571.
        2174        1192.      -7995.      -1856.       409.9       9.394      -2889.
        2175        1140.      -6398.      -3279.       471.4       87.89      -3680.
        2176        1210.      -4580.      -4877.       450.3       155.6      -3910.
        2177        1081.      -3086.      -6793.       373.7       172.5      -3511.
        2178        1149.      -1769.      -8032.       301.2       158.8      -2603.
        2179        1271.      -905.8      -8912.       243.7       92.29      -1395.
        2180        1588.      -990.1      -8587.      -222.3       76.63       1399.
        2181        1547.      -1947.      -7663.      -286.2       183.6       2642.
        2182        1587.      -3351.      -6430.      -332.6       214.3       3463.
        2183        1796.      -5318.      -4098.      -349.9       211.4       3894.
        2184        1732.      -6704.      -2626.      -324.8       137.5       3653.
        2185        1743.      -8209.      -1370.      -232.4       31.00       2824.
        2186        1785.      -9182.      -634.0      -25.26      -45.11       1449.
        2187        1770.      -9358.      -334.9       182.2      -86.48      -153.7
        2188        1812.      -8886.      -675.9       360.4      -102.0      -1532.
        2189        1853.      -7631.      -1661.       487.3      -10.56      -2806.
        2190        1780.      -6157.      -3010.       523.0       94.43      -3608.
        2191        1730.      -4611.      -4616.       487.0       144.8      -3830.
        2192        1652.      -3037.      -6547.       396.2       172.3      -3436.
        2193        1890.      -1614.      -7888.       319.0       141.1      -2550.
        2194        1808.      -899.0      -8848.       274.1       86.76      -1346.
        2195        2053.      -1070.      -8892.      -177.3       53.86       1356.
        2196        2097.      -1965.      -7546.      -209.4       121.6       2447.
        2197        2042.      -3289.      -6224.      -275.7       173.7       3315.
        2198        2243.      -4733.      -4125.      -305.9       174.2       3713.
        2199        2325.      -6353.      -2502.      -307.1       116.8       3528.
        2200        2237.      -7818.      -1381.      -207.2       18.57       2786.
        2201        2252.      -8799.      -623.5      -10.47      -57.25       1478.
        2202        2308.      -8929.      -289.6       229.1      -97.62      -93.57
        2203        2295.      -8575.      -617.6       424.6      -92.59      -1421.
        2204        2256.      -7486.      -1689.       544.0      -14.87      -2689.
        2205        2229.      -5908.      -2863.       558.1       84.46      -3465.
        2206        2261.      -4548.      -4411.       483.0       162.9      -3676.
        2207        2307.      -2919.      -6196.       379.7       169.9      -3279.
        2208        2233.      -1701.      -7659.       307.8       109.5      -2459.
        2209        2305.      -1017.      -8082.       240.2       65.91      -1250.
        2210        2531.      -1040.      -8092.      -126.2       43.00       1257.
        2211        2541.      -1841.      -6955.      -132.9       77.04       2307.
        2212        2738.      -3082.      -5863.      -167.2       105.7       3075.
        2213        2582.      -4234.      -3902.      -179.2       167.1       3498.
        2214        2854.      -6142.      -2361.      -209.5       139.9       3320.
        2215        2753.      -7184.      -1279.      -147.6       42.52       2640.
        2216        2776.      -8015.      -584.2       31.44      -27.40       1443.
        2217        3018.      -8032.      -159.9       258.9      -30.32      -70.57
        2218        2834.      -8108.      -611.2       458.4      -29.27      -1282.
        2219        2833.      -7077.      -1511.       546.5       47.34      -2494.
        2220        2863.      -5563.      -2603.       520.7       125.7      -3229.
        2221        2832.      -4298.      -4054.       405.7       209.8      -3408.
        2222        2928.      -2874.      -5692.       265.1       194.2      -3032.
        2223        2834.      -1778.      -7147.       185.9       111.1      -2224.
        2224        2842.      -1028.      -7994.       164.2       31.16      -1132.
        2225        2999.      -1183.      -7637.      -31.40      -1.952       1129.
        2226        3089.      -1903.      -6613.       18.39       20.26       2035.
        2227        2852.      -2916.      -5300.       23.19       95.08       2739.
        2228        2789.      -4021.      -3700.       2.726       123.1       3089.
        2229        3358.      -4892.      -1822.       41.57       129.3       2926.
        2230        3271.      -5778.      -1021.       37.69       115.4       2335.
        2231        3326.      -6398.      -485.5       124.9       90.79       1252.
        2232        3296.      -6640.      -221.1       248.1       91.07      -12.17
        2233        3271.      -6386.      -358.9       399.4       78.92      -1033.
        2234        3237.      -5683.      -1184.       426.6       114.3      -2102.
        2235        3379.      -4924.      -2167.       352.5       198.5      -2753.
        2236        3254.      -3993.      -3528.       230.9       241.5      -2900.
        2237        3029.      -2614.      -5001.       88.71       162.5      -2598.
        2238        3247.      -1637.      -6064.       22.41       93.33      -1923.
        2239        3255.      -909.2      -7177.      -10.99       39.59      -1002.
        2240        2849.      -1404.      -7201.       276.9      -58.28       914.9
        2241        2945.      -1845.      -5415.       355.0      -62.11       1667.
        2242        2852.      -2574.      -4517.       409.3      -11.28       2288.
        2243        3035.      -3177.      -2666.       473.4       54.13       2521.
        2244        3092.      -3523.      -1254.       458.9       142.8       2304.
        2245        2980.      -4763.      -497.4       398.2       223.6       1891.
        2246        2811.      -4029.      -181.5       332.2       248.6       1023.
        2247        2891.      -4100.       53.58       287.8       348.7       91.08
        2248        2857.      -4278.      -229.3       227.8       274.7      -726.4
        2249        2898.      -3674.      -834.0       139.6       268.1      -1587.
        2250        3000.      -3418.      -1382.      -52.97       346.5      -2096.
        2251        3184.      -3270.      -2643.      -197.0       261.4      -2262.
        2252        2909.      -2418.      -4255.      -302.3       176.5      -2055.
        2253        2926.      -1539.      -5187.      -352.1       76.27      -1588.
        2254        2956.      -1209.      -6295.      -318.3       22.57      -839.3
        2255        2323.      -1287.      -5741.       613.1      -67.36       717.1
        2256        2275.      -1447.      -4610.       696.2      -159.7       1327.
        2257        2255.      -2404.      -3511.       820.5      -169.8       1760.
        2258        2210.      -2023.      -1657.       933.0      -75.14       1841.
        2259        2385.      -2087.      -522.4       895.6       34.17       1616.
        2260        2100.      -1554.      -42.84       791.7       131.3       1298.
        2261        2012.      -678.8       315.8       560.6       241.8       668.7
        2262        2128.      -811.4       414.0       289.9       250.0       119.8
        2263        1970.      -635.6       156.7       53.18       244.6      -381.8
        2264        2102.      -1252.      -258.8      -194.1       328.1      -969.9
        2265        2088.      -1870.      -729.9      -421.4       275.6      -1354.
        2266        2116.      -2364.      -1797.      -600.7       188.0      -1510.
        2267        1935.      -1452.      -2928.      -662.1       105.9      -1436.
        2268        1949.      -1310.      -3860.      -651.0       23.15      -1154.
        2269        2006.      -1009.      -4332.      -611.9      -11.88      -576.7
        2270       -36.16      -2996.      -6529.       3.889      -3.908       714.6
        2271       -47.33      -3387.      -6041.      -8.685       1.604       1287.
        2272       -66.09      -3805.      -5402.      -16.80       1.118       1609.
        2273       -79.65      -4360.      -4692.      -20.70       3.690       1697.
        2274       -74.61      -4916.      -4051.     -0.1365       7.552       1549.
        2275       -62.25      -5212.      -3534.      -12.52       6.557       1295.
        2276       -41.55      -5708.      -3182.      -12.05     -0.9108       911.2
        2277       -1.646      -5892.      -2949.       2.932       2.519       435.3
        2278        29.16      -5925.      -2852.       22.81       1.605      -153.5
        2279       -8.137      -5766.      -3135.       14.63       10.40      -827.4
        2280       -21.71      -5308.      -3532.       14.17       16.54      -1365.
        2281       -48.16      -4684.      -4273.       5.668       26.35      -1654.
        2282       -74.82      -4103.      -5056.      -4.060       3.500      -1696.
        2283       -44.13      -3534.      -5853.      -1.827      -9.702      -1423.
        2284       -11.17      -3039.      -6481.       15.54      -4.352      -824.3
        2285       -42.11      -3021.      -6606.      -16.25      -10.64       720.6
        2286       -59.59      -3369.      -6060.      -19.13      -22.22       1293.
        2287       -71.11      -3845.      -5434.      -15.98      -22.03       1609.
        2288       -76.61      -4346.      -4714.      -8.220      -23.59       1694.
        2289       -51.09      -4927.      -4041.       8.267     -0.8251       1567.
        2290       -16.51      -5216.      -3487.     -0.7790       2.643       1276.
        2291       -47.21      -5638.      -3168.       7.976      -5.568       897.3
        2292        8.106      -5838.      -2907.       19.42      -8.121       429.3
        2293        2.330      -5980.      -2840.       23.48       11.67      -157.8
        2294       -18.57      -5687.      -3110.       1.985       24.21      -838.5
        2295       -50.30      -5286.      -3605.      -11.78       3.406      -1364.
        2296       -70.64      -4694.      -4275.      -20.87      -4.398      -1669.
        2297       -114.3      -4207.      -5041.      -15.20      -19.53      -1688.
        2298       -95.17      -3475.      -5919.      -5.154      -43.61      -1441.
        2299       -16.55      -3138.      -6529.       21.61      -33.54      -837.6
        2300       -92.15      -3028.      -6630.      -42.75      -31.59       745.4
        2301       -88.98      -3344.      -6068.      -14.77      -67.24       1295.
        2302       -137.4      -3838.      -5457.       7.162      -74.90       1609.
        2303       -110.4      -4376.      -4689.       35.01      -67.42       1708.
        2304       -46.66      -4947.      -4067.       38.96      -42.70       1578.
        2305       -30.84      -5297.      -3520.       54.63      -20.84       1295.
        2306       -28.92      -5637.      -3132.       56.09      -20.25       908.6
        2307       -14.41      -5870.      -2891.       35.59      -1.638       409.7
        2308       -6.955      -5939.      -2835.       9.948       22.49      -176.7
        2309       -22.92      -5718.      -3109.      -35.66       5.918      -852.8
        2310       -91.40      -5290.      -3638.      -70.58      -24.02      -1394.
        2311       -123.1      -4724.      -4336.      -63.93      -50.39      -1689.
        2312       -147.3      -4076.      -5156.      -47.34      -71.61      -1704.
        2313       -111.2      -3521.      -5920.      -14.80      -89.32      -1438.
        2314       -82.59      -3030.      -6570.       33.96      -60.25      -830.0
        2315       -223.2      -3020.      -6625.      -68.10      -65.19       736.7
        2316       -139.1      -3344.      -6008.      -26.57      -113.9       1299.
        2317       -165.7      -3850.      -5418.       29.18      -132.8       1620.
        2318       -136.7      -4524.      -4693.       75.16      -125.0       1715.
        2319       -49.94      -4856.      -4030.       85.43      -106.8       1581.
        2320       -123.9      -5396.      -3611.       108.7      -62.85       1338.
        2321       -8.758      -5793.      -3083.       92.53      -30.57       920.3
        2322       -66.67      -5989.      -2889.       46.85       7.120       384.3
        2323       -44.83      -5998.      -2861.      -10.67       22.97      -204.2
        2324       -55.04      -5895.      -3087.      -78.59      -4.751      -868.2
        2325       -121.1      -5263.      -3627.      -122.2      -48.62      -1436.
        2326       -163.2      -4718.      -4311.      -106.0      -91.59      -1706.
        2327       -161.2      -4161.      -5103.      -75.03      -131.0      -1715.
        2328       -213.2      -3556.      -5944.      -3.586      -124.2      -1442.
        2329       -163.1      -3056.      -6570.       49.60      -84.42      -834.0
        2330       -342.3      -3022.      -6649.      -107.6      -86.47       736.7
        2331       -278.5      -3351.      -5981.      -42.90      -143.2       1308.
        2332       -250.8      -3901.      -5437.       33.15      -175.4       1638.
        2333       -206.2      -4549.      -4681.       92.36      -169.4       1733.
        2334       -116.4      -4935.      -4032.       134.9      -153.9       1609.
        2335       -193.2      -5461.      -3603.       153.3      -100.3       1356.
        2336       -49.46      -5877.      -3084.       124.0      -48.54       909.1
        2337       -117.0      -6034.      -2866.       51.33       8.078       369.3
        2338       -129.7      -6137.      -2860.      -28.22       14.66      -220.1
        2339       -116.6      -5948.      -3041.      -130.5      -24.81      -890.3
        2340       -228.0      -5438.      -3633.      -178.0      -89.64      -1470.
        2341       -261.0      -4758.      -4357.      -159.9      -148.1      -1734.
        2342       -290.6      -4143.      -5120.      -77.82      -172.2      -1742.
        2343       -362.1      -3510.      -5975.       19.02      -151.1      -1455.
        2344       -300.7      -3053.      -6560.       78.85      -99.39      -835.7
        2345       -622.9      -2995.      -6679.      -135.3      -107.4       729.9
        2346       -446.9      -3362.      -5965.      -80.62      -176.9       1336.
        2347       -353.2      -3927.      -5459.       22.34      -209.8       1665.
        2348       -277.3      -4591.      -4686.       98.74      -221.0       1758.
        2349       -212.1      -4968.      -4046.       167.4      -191.7       1635.
        2350       -288.1      -5537.      -3582.       190.6      -134.5       1365.
        2351       -156.1      -5966.      -3102.       154.0      -63.89       899.1
        2352       -208.0      -6103.      -2865.       60.84      -7.808       347.2
        2353       -195.6      -6223.      -2874.      -49.98      -10.57      -224.6
        2354       -193.6      -5996.      -3092.      -182.9      -57.97      -922.7
        2355       -317.6      -5581.      -3644.      -230.5      -126.7      -1517.
        2356       -310.6      -4793.      -4369.      -193.9      -200.4      -1787.
        2357       -384.3      -4139.      -5217.      -75.93      -220.4      -1782.
        2358       -478.6      -3495.      -5966.       33.92      -179.1      -1468.
        2359       -588.0      -3056.      -6576.       107.6      -99.35      -833.9
        2360       -989.3      -2956.      -6637.      -150.6      -116.4       738.5
        2361       -727.5      -3268.      -6018.      -98.49      -202.6       1363.
        2362       -582.1      -4045.      -5391.      -14.37      -244.2       1707.
        2363       -523.8      -4661.      -4799.       104.9      -256.2       1799.
        2364       -338.9      -5060.      -4014.       189.9      -233.4       1670.
        2365       -403.5      -5678.      -3607.       219.0      -172.0       1385.
        2366       -289.0      -6057.      -3102.       169.7      -95.97       892.1
        2367       -321.5      -6223.      -2888.       56.51      -28.51       328.8
        2368       -397.7      -6397.      -2881.      -84.82      -15.97      -252.2
        2369       -398.7      -6127.      -3103.      -228.5      -84.49      -953.5
        2370       -382.9      -5644.      -3558.      -265.0      -163.3      -1561.
        2371       -491.9      -5005.      -4407.      -203.0      -243.5      -1836.
        2372       -539.4      -4219.      -5161.      -66.69      -251.2      -1826.
        2373       -689.9      -3478.      -5945.       68.72      -187.6      -1488.
        2374       -860.6      -3062.      -6596.       134.9      -92.04      -838.5
        2375       -1273.      -2969.      -6643.      -166.1      -92.69       757.7
        2376       -1123.      -3339.      -5897.      -125.4      -208.4       1365.
        2377       -1004.      -4017.      -5583.      -52.07      -246.1       1728.
        2378       -695.1      -4708.      -4762.       73.37      -274.3       1831.
        2379       -544.6      -5127.      -4035.       175.0      -264.2       1713.
        2380       -609.9      -5790.      -3612.       212.6      -197.1       1411.
        2381       -493.9      -6183.      -3082.       163.6      -111.3       887.4
        2382       -558.6      -6343.      -2865.       40.26      -52.59       292.5
        2383       -619.2      -6515.      -2905.      -113.4      -42.16      -280.9
        2384       -638.9      -6242.      -3110.      -275.1      -116.5      -996.9
        2385       -656.9      -5792.      -3639.      -297.2      -222.8      -1613.
        2386       -731.9      -5080.      -4450.      -196.7      -288.5      -1883.
        2387       -788.5      -4232.      -5187.      -15.81      -265.0      -1850.
        2388       -1041.      -3455.      -5925.       115.7      -164.2      -1512.
        2389       -1205.      -3034.      -6583.       165.0      -78.17      -846.1
        2390       -1645.      -2962.      -6475.      -202.4      -60.37       764.9
        2391       -1539.      -3296.      -5733.      -176.0      -159.2       1340.
        2392       -1350.      -4035.      -5504.      -121.9      -216.6       1724.
        2393       -951.9      -4730.      -4746.      0.3183      -260.3       1872.
        2394       -778.0      -5182.      -4059.       111.1      -252.3       1748.
        2395       -829.5      -5881.      -3577.       166.7      -205.7       1422.
        2396       -778.1      -6373.      -3023.       132.1      -130.5       873.7
        2397       -750.9      -6445.      -2827.       11.79      -85.65       252.4
        2398       -852.7      -6628.      -2926.      -154.2      -71.24      -304.0
        2399       -898.3      -6412.      -3123.      -295.8      -142.7      -1044.
        2400       -889.4      -5826.      -3658.      -302.7      -265.5      -1643.
        2401       -956.8      -5109.      -4486.      -156.9      -302.1      -1920.
        2402       -1125.      -4203.      -5181.       50.04      -240.6      -1881.
        2403       -1400.      -3476.      -5955.       158.7      -137.0      -1510.
        2404       -1638.      -3021.      -6521.       192.6      -57.29      -839.4
        2405       -2220.      -2935.      -6161.      -216.1      -19.24       761.6
        2406       -2110.      -3256.      -5511.      -215.5      -57.09       1305.
        2407       -1784.      -3960.      -5323.      -191.9      -125.1       1670.
        2408       -1368.      -4747.      -4710.      -112.8      -187.8       1846.
        2409       -1209.      -5292.      -4020.      -27.54      -212.1       1742.
        2410       -1167.      -6119.      -3571.       61.09      -179.5       1424.
        2411       -980.5      -6571.      -2986.       50.54      -132.1       858.8
        2412       -1193.      -6807.      -2876.      -32.15      -94.44       214.3
        2413       -1205.      -6845.      -2856.      -192.3      -94.65      -331.8
        2414       -1223.      -6711.      -3123.      -276.1      -160.8      -1079.
        2415       -1311.      -6086.      -3732.      -227.8      -265.6      -1655.
        2416       -1281.      -5159.      -4423.      -49.00      -265.7      -1918.
        2417       -1566.      -4223.      -5123.       130.9      -180.3      -1839.
        2418       -1959.      -3447.      -5725.       198.0      -105.9      -1456.
        2419       -2397.      -2949.      -6287.       221.8      -39.80      -810.4
        2420       -2711.      -2817.      -5724.      -218.4       49.19       711.0
        2421       -2593.      -3258.      -5222.      -261.6       103.3       1199.
        2422       -2229.      -3875.      -5114.      -283.4       40.81       1574.
        2423       -1836.      -4697.      -4578.      -269.2      -47.81       1752.
        2424       -1674.      -5442.      -4002.      -202.1      -102.1       1685.
        2425       -1456.      -6147.      -3531.      -108.7      -131.4       1382.
        2426       -1404.      -6763.      -3029.      -104.1      -101.4       820.3
        2427       -1563.      -6892.      -2982.      -92.19      -93.43       171.4
        2428       -1577.      -6965.      -2913.      -224.3      -100.7      -348.6
        2429       -1610.      -6793.      -3091.      -191.3      -160.1      -1080.
        2430       -1697.      -5998.      -3711.      -87.62      -215.4      -1616.
        2431       -1829.      -5172.      -4443.       100.4      -199.6      -1846.
        2432       -2116.      -4176.      -5048.       216.6      -87.14      -1744.
        2433       -2553.      -3463.      -5487.       204.6      -37.02      -1344.
        2434       -2783.      -2928.      -6000.       172.3       15.96      -747.1
        2435       -3249.      -2845.      -5188.      -129.7       173.4       582.1
        2436       -3110.      -3274.      -4864.      -272.9       302.5       1026.
        2437       -2661.      -3849.      -4552.      -408.0       319.4       1353.
        2438       -2074.      -4735.      -4223.      -432.7       213.9       1531.
        2439       -2029.      -5339.      -3868.      -410.5       73.18       1503.
        2440       -1698.      -5992.      -3468.      -347.7       15.40       1262.
        2441       -1524.      -6429.      -3079.      -267.2      -32.36       731.5
        2442       -1750.      -6991.      -2951.      -165.6      -74.16       128.2
        2443       -1708.      -6724.      -2913.      -239.3      -75.45      -360.0
        2444       -1757.      -6669.      -3082.      -57.17      -74.70      -979.8
        2445       -1971.      -5591.      -3665.       78.14      -137.2      -1463.
        2446       -2160.      -5039.      -4173.       254.0      -60.01      -1619.
        2447       -2415.      -4027.      -4718.       271.0       71.49      -1480.
        2448       -3059.      -3542.      -4881.       197.3       97.49      -1119.
        2449       -3157.      -2877.      -5429.       81.15       77.84      -650.5
        2450       -3484.      -2734.      -4749.      -105.1       293.6       441.6
        2451       -3447.      -3005.      -4597.      -300.6       506.2       810.4
        2452       -2996.      -3750.      -4305.      -591.3       614.5       1119.
        2453       -2407.      -4272.      -3994.      -784.7       487.5       1318.
        2454       -2676.      -5693.      -3565.      -751.2       295.3       1301.
        2455       -1777.      -5542.      -3311.      -664.6       112.9       1028.
        2456       -1689.      -6166.      -2955.      -418.9      -18.03       609.7
        2457       -1785.      -6497.      -2952.      -178.1      -105.8       86.60
        2458       -1917.      -6815.      -2948.      -178.1      -94.01      -293.2
        2459       -1889.      -6086.      -3121.       90.35      -151.6      -804.0
        2460       -2344.      -5619.      -3495.       285.1      -82.09      -1248.
        2461       -2661.      -4519.      -3886.       472.3       52.33      -1348.
        2462       -2842.      -3759.      -4322.       409.3       136.1      -1191.
        2463       -3192.      -3230.      -4670.       293.9       176.3      -873.4
        2464       -3489.      -3317.      -5015.       96.09       98.60      -499.5
        2465       -3397.      -2972.      -4045.       147.9       327.7       259.8
        2466       -2849.      -2860.      -3688.       44.55       574.7       395.6
        2467       -2795.      -3596.      -4002.      -213.5       766.2       578.2
        2468       -2189.      -4046.      -2847.      -363.6       845.4       711.6
        2469       -1494.      -4208.      -2805.      -270.2       825.2       644.2
        2470       -1182.      -5195.      -2475.      -221.6       770.4       502.4
        2471       -268.3      -4035.      -2468.      -152.1       648.2       276.9
        2472       -723.5      -5055.      -2846.      -85.10       599.3      -51.84
        2473       -616.0      -3836.      -2595.      -98.82       666.3      -93.97
        2474       -1406.      -4713.      -2951.      -178.4       508.0      -271.1
        2475       -1645.      -4194.      -2917.      -128.2       439.1      -561.2
        2476       -2162.      -3569.      -3407.      -135.4       337.7      -494.1
        2477       -2291.      -3442.      -3485.      -138.1       246.9      -427.7
        2478       -2467.      -2937.      -3300.      -293.1       216.9      -270.5
        2479       -2206.      -2257.      -3304.      -478.5       140.0      -106.3
        2480       -6180.      -1885.      -4480.      -162.3      -454.3      -240.2
        2481       -7899.      -1919.      -3495.      -136.0      -332.0      -275.4
        2482       -8072.      -1792.      -2866.      -109.5      -138.0      -334.2
        2483      -1.7033E+04  -1659.     -1.7230E+04   42.60       64.08      -6.587
        2484      -1.5331E+04  -1588.     -1.6173E+04  -173.7      -21.09       74.94
        2485       -4922.      -1657.      -5351.      -224.2      -427.6      -202.4
        2486      -1.4637E+04  -1642.     -1.5949E+04  -187.5      -15.54       110.2
        2487      -1.3676E+04  -1435.     -1.5182E+04  -215.8       50.24       135.7
        2488       -4176.      -1832.      -6305.      -240.8      -525.0      -202.6
        2489      -1.2831E+04  -1562.     -1.4517E+04  -189.8       34.21       92.93
        2490      -1.2232E+04  -1862.     -1.4461E+04  -196.6      -66.15       92.39
        2491       -3413.      -1903.      -7312.      -342.2      -401.1      -186.2
        2492      -1.0768E+04  -1520.     -1.3271E+04  -307.9      -85.00       107.0
        2493       -8989.      -1584.     -1.2026E+04  -263.4      -85.15       111.6
        2494       -7431.      -1574.     -1.1093E+04  -296.9      -66.05       7.256
        2495       -2668.      -1652.      -7991.      -304.5      -164.7      -49.34
        2496       -6165.      -1764.     -1.0282E+04  -285.0      -18.75       14.96
        2497       -4399.      -1652.      -9538.      -291.1      -1.031       11.50
        2498       -8419.      -1940.      -3033.      -12.47      -51.86      -328.4
        2499       -7581.      -1835.      -3187.      -76.28      -148.0      -339.7
        2500       -7980.      -1943.      -3272.      -70.64      -209.1      -325.8
        2501       -7376.      -1805.      -3552.      -159.0      -423.3      -246.2
        2502       -6212.      -1612.      -3454.      -155.9      -374.9      -251.8
        2503       -6465.      -1928.      -4223.      -163.2      -397.3      -262.0
        2504       -5995.      -1899.      -4866.      -188.2      -468.9      -246.2
        2505       -5962.      -2054.      -5434.      -187.3      -466.8      -262.7
        2506       -4904.      -1841.      -5752.      -206.2      -454.7      -207.8
        2507       -4586.      -1841.      -6140.      -205.2      -518.1      -203.9
        2508       -3696.      -1634.      -6467.      -283.5      -434.8      -172.8
        2509       -3907.      -1754.      -6738.      -273.4      -456.5      -143.9
        2510       -3424.      -1907.      -7724.      -302.6      -362.2      -75.05
        2511       -2955.      -1796.      -7649.      -321.5      -305.2      -93.33
        2512       -2792.      -1785.      -8021.      -324.4      -192.6      -117.1
        2513       -2734.      -1874.      -8534.      -362.6      -105.2      -71.30
        2514      -1.6535E+04  -1428.     -1.6405E+04  -64.03      -100.7      -76.71
        2515      -1.6785E+04  -1575.     -1.6550E+04   71.75      -161.9      -41.71
        2516      -1.6730E+04  -1853.     -1.6297E+04   102.1      -98.06      -152.7
        2517      -1.5836E+04  -1568.     -1.5189E+04   94.89       1.881      -150.1
        2518      -1.5804E+04  -1814.     -1.4839E+04   85.59       27.85      -172.1
        2519      -1.5316E+04  -1716.     -1.4003E+04   47.41       4.371      -188.9
        2520      -1.4697E+04  -1743.     -1.3023E+04   54.52      -35.06      -236.4
        2521      -1.3686E+04  -1693.     -1.1792E+04   55.54      -102.9      -210.8
        2522      -1.3116E+04  -1698.     -1.0790E+04   78.22      -97.57      -269.6
        2523      -1.2073E+04  -1680.      -9200.       75.48      -60.96      -292.1
        2524      -1.0980E+04  -1667.      -7686.       28.23      -20.21      -289.8
        2525      -1.0371E+04  -1764.      -6354.       1.723       30.64      -288.0
        2526      -1.5700E+04  -1673.     -1.6569E+04  -32.23      -25.71       30.12
        2527      -1.5753E+04  -1589.     -1.6186E+04  -86.66      -91.75       81.74
        2528      -1.7245E+04  -1775.     -1.7398E+04  -26.04       32.11      -43.63
        2529      -1.4571E+04  -1477.     -1.5862E+04  -126.3      -16.93      -81.01
        2530       -6212.      -1679.     -1.0569E+04  -275.0      -41.51      -16.86
        2531       -4831.      -1699.     -1.0022E+04  -284.9      -23.72      -46.36
        2532      -1.0739E+04  -1541.      -7710.      -8.534      -36.06      -287.5
        2533      -1.3965E+04  -1638.     -1.2054E+04   54.08      -181.8      -198.5
        2534       -7688.      -1576.      -5879.      -189.7      -349.3      -238.0
        2535       -6322.      -1659.      -6757.      -197.0      -382.0      -198.0
        2536       -5997.      -1640.      -7316.      -227.6      -419.6      -235.2
        2537      -1.0920E+04  -1592.     -1.3719E+04  -279.3      -218.4      -21.46
        2538       -4596.      -1421.      -8823.      -302.5      -163.6      -71.16
        2539       -2648.      -1772.      -8628.      -334.4      -92.14      -48.50
        2540      -1.6758E+04  -1734.     -1.6812E+04  -45.95      -93.27      -66.42
        2541       -7396.      -1749.      -6893.      -193.7      -406.3      -230.3
        2542      -1.7134E+04  -1671.     -1.6718E+04   18.00      -138.0      -180.3
        2543      -1.5422E+04  -1712.     -1.4571E+04  -35.03      -6.433      -169.5
        2544       -8962.      -1636.      -4847.      -66.36      -139.3      -286.8
        2545      -1.0295E+04  -1651.      -6324.      -15.75     -1.7025E-02  -264.0
        2546      -1.7141E+04  -1752.     -1.7515E+04  -37.64      -67.19      -5.189
        2547      -1.6201E+04  -1456.     -1.6530E+04  -154.4      -102.9      -22.73
        2548      -1.2797E+04  -1624.     -1.4705E+04  -242.3       4.970      -42.04
        2549       -5707.      -1559.      -8210.      -202.0      -315.5      -111.4
        2550      -1.4483E+04  -1861.     -1.6581E+04  -205.4     -0.6628      -7.240
        2551       -5728.      -1601.      -8404.      -245.0      -318.0      -131.6
        2552      -1.2005E+04  -1660.     -1.4362E+04  -178.4      -131.1      -83.18
        2553       -9437.      -1472.     -1.3388E+04  -284.5      -212.6       74.12
        2554       -7605.      -1538.     -1.1106E+04  -287.8      -108.2       33.90
        2555       -4789.      -1496.      -8699.      -293.6      -294.7      -106.2
        2556       -9402.      -1683.      -4576.       4.923       41.43      -294.0
        2557      -1.3328E+04  -1654.     -1.0907E+04   12.56      -163.8      -258.9
        2558      -1.4689E+04  -1714.     -1.3094E+04   34.66      -150.4      -187.1
        2559      -1.5026E+04  -1744.     -1.3786E+04  -20.78      -35.77      -168.4
        2560      -1.5925E+04  -1539.     -1.5219E+04   6.517      -74.99      -187.6
        2561       -6786.      -1712.      -6928.      -236.7      -369.5      -136.0
        2562       -5828.      -1623.      -8064.      -237.3      -419.3      -194.9
        2563       -5730.      -1616.      -8873.      -304.0      -318.2      -133.5
        2564       -5411.      -1812.      -9638.      -257.8      -299.9      -72.64
        2565       -4565.      -1510.      -9016.      -287.2      -73.96      -56.22
        2566      -1.6998E+04  -1761.     -1.6657E+04  -35.74      -40.08      -19.32
        2567       -7392.      -1558.      -6195.      -173.5      -392.7      -231.1
        2568       -7688.      -1523.      -5419.      -147.4      -311.4      -258.8
        2569       -7612.      -1532.      -5012.      -147.5      -292.4      -256.4
        2570       -8625.      -1632.      -5203.      -167.5      -275.9      -239.8
        2571       -9292.      -1825.      -5466.      -116.2      -251.8      -253.3
        2572       -9031.      -1560.      -5173.      -32.24      -220.1      -293.5
        2573      -1.2469E+04  -1613.      -9447.       13.57      -127.3      -293.2
        2574       -9312.      -1608.      -4873.      -93.31      -49.50      -286.6
        2575       -9772.      -1709.      -4877.      -19.42       25.78      -301.9
        2576      -1.6736E+04  -1738.     -1.6760E+04  -100.0      -156.5      -42.11
        2577      -1.6152E+04  -1804.     -1.6596E+04  -98.92      -9.805       3.940
        2578      -1.4391E+04  -1731.     -1.6080E+04  -176.6      -115.8      -150.0
        2579       -6892.      -1601.      -9276.      -172.6      -276.8      -141.4
        2580       -7814.      -1607.     -1.1340E+04  -304.6      -265.0      -63.65
        2581      -1.4202E+04  -1686.     -1.2178E+04  -61.99      -189.0      -176.0
        2582       -8110.      -1712.      -8227.      -219.5      -334.5      -128.6
        2583      -1.1426E+04  -1497.     -1.3477E+04  -175.8      -152.1      -137.2
        2584       -6059.      -1443.      -9784.      -301.2      -89.69      -77.16
        2585      -1.7465E+04  -2003.     -1.7582E+04  -29.52      -133.1      -59.67
        2586      -1.5940E+04  -1280.     -1.5608E+04  -164.7      -96.45      -105.9
        2587       -7673.      -1646.      -8166.      -184.4      -361.0      -211.9
        2588      -1.3464E+04  -1714.     -1.0982E+04  -104.0      -218.9      -261.7
        2589       -9819.      -1622.      -6166.      -47.29      -40.95      -298.8
        2590      -1.5641E+04  -1795.     -1.6393E+04  -147.1      -23.86      -46.29
        2591      -1.5401E+04  -1718.     -1.4680E+04  -21.95      -73.36      -162.3
        2592       -9517.      -1724.      -6585.      -153.6      -219.1      -243.1
        2593       -8524.      -1545.      -6204.      -166.9      -311.9      -282.1
        2594       -9459.      -1564.     -1.3370E+04  -257.7      -298.9      -135.0
        2595      -1.4540E+04  -1680.     -1.2863E+04  -85.07      -218.1      -143.9
        2596      -1.6685E+04  -1555.     -1.7130E+04  -84.26      -62.83       10.82
        2597       -7391.      -1603.      -8392.      -215.4      -420.7      -190.7
        2598      -1.2911E+04  -1549.     -1.4300E+04  -204.3      -256.8      -106.8
        2599       -6725.      -1679.      -8967.      -209.7      -269.0      -90.42
        2600       -6368.      -1596.      -9704.      -295.5      -252.7      -114.3
        2601      -1.0486E+04  -1536.     -1.3063E+04  -245.8      -200.0      -136.8
        2602       -7120.      -2073.     -1.1297E+04  -289.8      -259.4      -33.96
        2603       -6161.      -1582.     -1.0004E+04  -223.0      -209.8      -107.5
        2604      -1.2691E+04  -1643.      -9616.      -69.44      -265.2      -268.1
        2605       -9270.      -1452.      -7328.      -203.3      -333.8      -246.6
        2606      -1.4626E+04  -1647.     -1.3381E+04  -69.99      -95.75      -232.0
        2607       -8308.      -1611.      -7878.      -141.5      -338.4      -190.2
        2608      -1.6029E+04  -1823.     -1.5536E+04  -87.15      -164.0      -157.1
        2609       -7718.      -1604.      -9232.      -279.0      -340.5      -193.5
        2610       -7019.      -1703.      -9847.      -220.7      -321.3      -97.68
        2611      -1.6634E+04  -1603.     -1.6370E+04  -104.2       39.75      -43.78
        2612       -8722.      -1657.      -7544.      -228.2      -338.2      -199.0
        2613       -9004.      -1712.      -6454.      -127.3      -200.0      -249.1
        2614       -9969.      -1778.      -6743.      -88.82      -258.7      -278.8
        2615      -1.0977E+04  -1516.      -7714.       15.49      -191.2      -294.4
        2616      -1.0028E+04  -1549.      -6609.      -128.7      -304.5      -273.9
        2617      -1.5605E+04  -1238.     -1.5648E+04  -85.20       21.88      -169.5
        2618      -1.6047E+04  -1520.     -1.6335E+04  -73.31      -68.23       11.25
        2619      -1.2875E+04  -1579.     -1.4206E+04  -205.2      -356.2      -8.069
        2620      -1.3041E+04  -1533.     -1.4237E+04  -153.9      -361.8      -124.4
        2621      -1.3903E+04  -1598.     -1.2277E+04  -189.9      -253.3      -126.9
        2622      -1.1023E+04  -1438.     -1.2862E+04  -268.9      -214.3      -19.36
        2623       -9037.      -1524.      -9531.      -193.8      -288.9      -271.9
        2624       -8192.      -1672.     -1.1472E+04  -220.9      -248.4      -148.1
        2625      -1.4862E+04  -1641.     -1.4532E+04  -206.5      -107.1      -120.2
        2626      -1.3704E+04  -1567.     -1.2027E+04  -169.9      -227.3      -217.0
        2627      -1.1224E+04  -1587.      -8349.      -167.9      -254.6      -242.4
        2628      -1.1932E+04  -1534.      -9223.      -102.7      -293.2      -248.0
        2629      -1.6613E+04  -1900.     -1.6688E+04  -73.21      -4.751      -84.06
        2630      -1.5819E+04  -1918.     -1.6279E+04  -172.0      -45.37       4.568
        2631       -9826.      -1516.     -1.1980E+04  -217.7      -173.6      -88.20
        2632      -1.0049E+04  -1451.      -7602.      -125.1      -259.2      -286.1
        2633       -9496.      -1439.     -1.0339E+04  -257.0      -335.0      -306.3
        2634      -1.4789E+04  -1522.     -1.5766E+04  -144.8       3.819      -62.50
        2635      -1.0618E+04  -1393.      -8704.      -156.5      -328.1      -234.9
        2636       -8952.      -1592.     -1.1551E+04  -241.8      -189.0      -221.2
        2637      -1.4153E+04  -1630.     -1.2617E+04  -159.2      -290.2      -224.0
        2638       -7781.      -1585.      -9683.      -270.9      -285.2      -77.66
        2639       -7771.      -1612.      -9936.      -190.5      -316.2      -154.1
        2640       -7976.      -1511.     -1.0516E+04  -248.2      -237.7      -109.5
        2641       -7354.      -1582.     -1.0615E+04  -252.4      -174.9      -57.91
        2642      -1.2621E+04  -1531.     -1.0428E+04  -183.2      -234.8      -270.4
        2643       -9415.      -1556.      -9009.      -189.9      -268.8      -182.0
        2644      -1.5117E+04  -1658.     -1.4332E+04  -196.5      -208.4      -207.5
        2645       -9241.      -1630.      -9291.      -170.3      -285.8      -189.6
        2646      -1.5303E+04  -1656.     -1.5008E+04  -174.5       71.53      -128.1
        2647       -9230.      -1554.     -1.0181E+04  -267.5      -306.7      -96.23
        2648       -7917.      -1591.     -1.0341E+04  -215.5      -330.7      -129.0
        2649      -1.6451E+04  -1561.     -1.6605E+04  -11.61      -42.08      -114.1
        2650       -9885.      -1564.      -8786.      -233.5      -281.7      -175.8
        2651      -1.0283E+04  -1497.      -7652.      -126.1      -248.7      -237.3
        2652      -1.1412E+04  -1550.      -8152.      -52.37      -237.8      -235.4
        2653      -1.4345E+04  -1764.     -1.4345E+04  -197.7      -156.6      -157.2
        2654      -1.3049E+04  -1544.     -1.2192E+04  -112.5      -301.3      -132.6
        2655      -1.2676E+04  -1357.     -1.3830E+04  -69.90      -361.7      -96.51
        2656      -1.0830E+04  -1620.      -8796.      -113.8      -310.2      -225.5
        2657      -1.1675E+04  -1714.      -9888.      -88.94      -209.7      -245.5
        2658      -1.1182E+04  -1605.     -1.2245E+04  -171.3      -349.2      -142.5
        2659      -1.5904E+04  -1728.     -1.6313E+04  -146.5      -42.78      -136.5
        2660      -1.3109E+04  -1524.     -1.1815E+04  -131.6      -277.8      -190.8
        2661       -8996.      -1984.     -1.1084E+04  -235.9      -285.4      -132.9
        2662       -9328.      -1659.     -1.1106E+04  -295.7      -248.8      -113.4
        2663      -1.4533E+04  -1806.     -1.5445E+04  -211.6      -172.1      -172.1
        2664      -1.1651E+04  -1706.      -9530.      -121.4      -266.1      -202.7
        2665      -1.0735E+04  -1531.     -1.2777E+04  -286.2      -363.7      -109.6
        2666      -1.4113E+04  -1831.     -1.5174E+04  -127.3      -294.3      -211.8
        2667      -1.0684E+04  -1545.     -1.0136E+04  -182.9      -250.3      -170.8
        2668       -8571.      -1639.     -1.1235E+04  -272.8      -180.4      -72.71
        2669      -1.2946E+04  -1422.     -1.2190E+04  -211.3      -264.4      -213.3
        2670       -8936.      -1750.     -1.1393E+04  -213.3      -269.0      -74.93
        2671       -9645.      -1556.     -1.2109E+04  -278.8      -253.7      -77.32
        2672      -1.1735E+04  -1484.      -9766.      -138.8      -261.2      -249.0
        2673      -1.0525E+04  -1893.     -1.0469E+04  -186.3      -292.7      -211.5
        2674      -1.4177E+04  -1799.     -1.3880E+04  -114.3      -276.5      -164.6
        2675      -1.0684E+04  -1731.     -1.1056E+04  -101.2      -314.9      -238.9
        2676      -1.5040E+04  -1360.     -1.5285E+04  -139.4      -22.88      -213.9
        2677       -9919.      -1487.     -1.1355E+04  -269.5      -325.9      -11.81
        2678       -9504.      -1933.     -1.1770E+04  -206.8      -334.0      -150.6
        2679      -1.5750E+04  -1368.     -1.6128E+04  -36.21      -9.761      -124.1
        2680      -1.0988E+04  -1548.      -9993.      -185.9      -264.1      -146.5
        2681      -1.1567E+04  -1552.      -9810.      -149.1      -329.5      -181.6
        2682       -9808.      -1524.     -1.1284E+04  -248.7      -294.6      -75.15
        2683      -1.0404E+04  -1547.     -1.1817E+04  -213.3      -375.0      -157.6
        2684      -1.3860E+04  -1690.     -1.4593E+04  -234.3      -270.9      -220.4
        2685       -9732.      -1662.     -1.2077E+04  -255.4      -359.4      -107.5
        2686      -1.1472E+04  -1538.     -1.1250E+04  -136.6      -374.7      -201.3
        2687      -1.3631E+04  -1905.     -1.3474E+04  -100.6      -372.6      -182.1
        2688      -1.4463E+04  -1485.     -1.4961E+04  -191.8      -129.8      -264.5
        2689      -1.2574E+04  -1578.     -1.2021E+04  -74.09      -306.7      -186.2
        2690      -1.1222E+04  -1511.     -1.1493E+04  -155.7      -417.5      -195.3
        2691      -1.2988E+04  -1544.     -1.4053E+04  -131.9      -287.3      -147.3
        2692      -1.2475E+04  -1746.     -1.1412E+04  -147.6      -283.8      -230.5
        2693      -1.3720E+04  -1745.     -1.3689E+04  -127.6      -281.1      -107.5
        2694      -1.2356E+04  -1625.     -1.2258E+04  -147.4      -380.3      -254.1
        2695      -1.2611E+04  -1543.     -1.3613E+04  -141.1      -314.3      -85.08
        2696      -1.2424E+04  -1692.     -1.2529E+04  -83.63      -418.1      -162.2
        2697      -1.1722E+04  -1708.     -1.0624E+04  -50.81      -318.9      -170.0
        2698      -1.1962E+04  -1494.     -1.1399E+04  -104.2      -350.4      -226.6
        2699      -1.3805E+04  -1808.     -1.4085E+04  -95.07      -283.0      -135.1
        2700      -1.3028E+04  -1593.     -1.2962E+04  -143.4      -364.8      -93.22
        2701      -1.0597E+04  -1642.     -1.2007E+04  -215.6      -357.2      -84.90
        2702      -1.0274E+04  -1618.     -1.1508E+04  -178.1      -385.6      -71.52
        2703      -1.2193E+04  -1538.     -1.3505E+04  -167.4      -312.4      -193.3
        2704      -1.2520E+04  -1460.     -1.2806E+04  -93.05      -333.1      -118.4
        2705      -1.3610E+04  -1638.     -1.3818E+04  -96.17      -311.0      -145.5
        2706      -1.1660E+04  -1569.     -1.2665E+04  -184.8      -421.7      -94.51
        2707      -1.2135E+04  -1577.     -1.3188E+04  -130.8      -349.1      -106.8
        2708       -8563.      -1807.      -2773.      -42.85      -29.41      -357.4
        2709      -1.0288E+04  -1735.      -6952.      -48.08      -196.2      -296.5
        2710       -9822.      -1492.      -7606.      -55.68      -247.5      -283.0
        2711      -1.1984E+04  -1666.     -1.3275E+04  -250.6      -373.1      -223.2
        2712       -9990.      -1557.     -1.1796E+04  -212.9      -382.7      -139.5
        2713      -1.3488E+04  -1686.     -1.4184E+04  -116.4      -307.8      -114.7
        2714      -1.1526E+04  -1754.      -9872.      -25.61      -244.1      -204.9
        2715      -1.2652E+04  -1629.     -1.1039E+04  -197.4      -267.5      -257.9
        2716      -1.3733E+04  -1964.     -1.4310E+04  -109.3      -344.1      -84.57
        2717      -1.1187E+04  -1470.      -9858.      -159.7      -276.5      -203.8
        2718      -1.1587E+04  -1654.      -9808.      -20.77      -329.4      -119.5
        2719      -1.1537E+04  -1623.      -9984.      -33.40      -284.5      -173.4
        2720      -1.2274E+04  -1641.     -1.2516E+04  -93.88      -390.1      -137.6
        2721      -1.3027E+04  -1760.     -1.3609E+04  -141.6      -374.3      -125.3
        2722      -1.2045E+04  -1592.     -1.2635E+04  -145.0      -426.9      -162.5
        2723       -9518.      -1728.     -1.1347E+04  -274.1      -274.7      -174.0
        2724      -1.1097E+04  -1483.     -1.2033E+04  -163.6      -437.9      -104.7
        2725      -1.1368E+04  -1445.     -1.0441E+04  -124.3      -304.6      -131.4
        2726      -1.1297E+04  -1599.     -1.0882E+04  -121.4      -345.9      -223.2
        2727       -2992.       413.4       2240.       249.8       358.4      -1087.
        2728       -1720.       516.3       1205.       81.41       283.1      -624.7
        2729       -255.2       163.1      -200.7      -179.4       227.6      -181.1
        2730        288.4       246.8      -467.7      -283.6       254.1      -99.20
        2731        1603.       354.9      -1688.      -668.0       186.9       185.4
        2732        3781.       597.9      -5303.      -1473.       133.2       59.04
        2733        2979.       361.2      -5757.      -773.5      -53.85       120.7
        2734        3555.       814.0      -4665.      -987.5       24.94       264.8
        2735        3335.       642.3      -4667.      -960.5      -42.17       208.4
        2736        1667.       84.20      -4872.      -532.5      -76.49       219.0
        2737        2957.       427.5      -4339.      -1178.       197.0       247.6
        2738        3012.       409.0      -3956.      -877.7       45.87       248.3
        2739        2659.       581.4      -2575.      -1198.       321.7       233.7
        2740        1083.       270.8      -3507.      -372.9      -151.9       231.9
        2741        738.6       44.09      -4577.      -340.8      -288.2       99.94
        2742        2501.       421.1      -3151.      -1221.       350.9       290.8
        2743        2020.       190.4      -2641.      -913.8       261.3       239.8
        2744        345.2       122.2      -3261.      -316.0      -170.8       134.0
        2745        1046.       95.19      -1711.      -528.7       216.5       117.7
        2746       -40.68       226.7      -2650.      -197.8      -171.1       121.1
        2747        716.5       312.3      -782.4      -438.4       205.9      -14.08
        2748       -796.4      -100.3      -2579.      -118.7      -159.5       70.48
        2749       -1593.      -34.41      -1663.      -5.747      -144.9      -5.082
        2750       -997.1       213.7      -1750.      -52.21      -153.4       32.05
        2751       -912.4       432.2       958.6      -25.61       230.8      -486.7
        2752       -2319.       105.1      -658.3       54.73      -127.1      -119.3
        2753       -1830.       135.4      -970.7       31.10      -143.6      -75.49
        2754       -474.8       278.4       471.2      -91.64       214.7      -323.4
        2755       -3133.       70.83      -382.7       149.6      -121.4      -146.2
        2756       -2108.       343.6       1892.       193.5       278.0      -827.1
        2757       -3372.       34.30      -30.03       176.2      -109.2      -220.3
        2758       -1971.       320.7       1334.       178.3       282.1      -692.1
        2759       -3587.       164.1       496.7       140.0      -107.2      -319.0
        2760       -3976.       499.9       2832.       250.4       262.0      -1203.
        2761       -3266.       677.1       1715.       216.1       38.69      -473.3
        2762       -4214.       581.8       2902.       257.0       188.1      -1183.
        2763       -5408.       73.11       1639.       145.3      -145.8      -542.0
        2764       -5110.       216.0       1962.       100.3      -70.29      -593.2
        2765       -5081.       826.2       3775.       64.58       49.58      -1422.
        2766       -5370.       276.8       2477.       80.51      -97.63      -721.4
        2767        3721.       711.8      -5360.      -1533.       109.0       117.2
        2768       -4934.       770.0       3824.       130.1       71.60      -1432.
        2769        2936.       664.2      -3853.      -1181.       293.0       292.2
        2770       -4467.       859.9       3404.       250.6       125.0      -1315.
        2771        2753.       284.6      -5777.      -796.7      -25.96       62.00
        2772       -5494.       330.6       2556.       7.393      -46.13      -771.6
        2773       -4422.       792.1       3368.       226.9       85.99      -1316.
        2774       -2956.       662.6       2642.       273.3       534.4      -1274.
        2775       -4957.       108.0       1600.       187.7      -123.6      -528.6
        2776       -4531.       259.2       1486.       159.3      -90.07      -516.8
        2777        1458.       166.6      -5138.      -492.5      -238.2       86.76
        2778        3506.       651.7      -5285.      -1655.       222.7       213.5
        2779        2556.       323.6      -3281.      -766.5      -25.21       234.9
        2780        2271.       357.9      -2819.      -767.9       170.5       245.9
        2781       -3328.       471.7       2680.       213.0       392.4      -1226.
        2782       -5436.       1408.       2364.       75.92       431.2      -1127.
        2783       -5007.       1460.       1944.       167.0       592.5      -1176.
        2784       -4702.       1238.       2510.       235.8       467.7      -1520.
        2785       -4148.       845.3       1424.       216.7       1014.      -1108.
        2786       -3873.       1056.       1068.       154.7       1139.      -1019.
        2787       -2565.       1308.       1425.       1.063       1423.      -920.5
        2788       -1812.       1514.       697.9      -313.9       1536.      -937.5
        2789       -140.1       2017.       334.2      -527.4       1599.      -615.5
        2790        171.6       825.3       645.4      -417.0       601.9      -681.6
        2791       -424.3       1200.      -618.7      -575.7       1547.      -513.8
        2792        410.2       763.9       384.3      -547.5       660.9      -536.5
        2793        875.8       2359.      -1899.      -878.8       1441.      -120.6
        2794        1178.       617.2      -1223.      -992.0       567.3      -11.67
        2795        1018.       998.4      -2222.      -932.4       1151.       47.70
        2796        2232.       3145.      -3326.      -1116.       1152.       165.0
        2797        1754.       1501.      -4111.      -1134.       934.8       217.7
        2798        2093.       1459.      -5293.      -1147.       516.2       206.4
        2799        2267.       1574.      -5983.      -1293.       110.0       215.1
        2800        2630.       1203.      -6046.      -1594.       232.4       69.41
        2801        2556.       1528.      -6142.      -1264.       124.7       140.2
        2802        2362.       1049.      -6358.      -1449.       226.3       88.73
        2803        1806.       831.7      -6389.      -1259.       262.1       178.4
        2804        2878.       1420.      -5903.      -1690.       311.5       167.5
        2805        2852.       2252.      -5329.      -1184.       421.5       147.0
        2806        2170.       929.7      -5500.      -1248.       448.1       203.2
        2807        2785.       1292.      -5617.      -1651.       318.8       250.5
        2808        2402.       1010.      -6105.      -1413.       287.6       150.5
        2809        3266.       2149.      -5448.      -1176.       325.5       200.2
        2810        2263.       1056.      -5702.      -1491.       416.5       232.4
        2811        2560.       1283.      -4923.      -1558.       434.4       314.4
        2812        2022.       958.5      -5164.      -1234.       572.0       261.9
        2813        2475.       1113.      -4701.      -1525.       576.4       341.0
        2814        2177.       975.7      -5356.      -1422.       528.8       306.1
        2815        2115.       1061.      -5330.      -1307.       554.5       258.7
        2816        2625.       1543.      -4781.      -1193.       684.7       305.4
        2817        2041.       1063.      -4802.      -1283.       701.7       330.9
        2818        2040.       960.8      -4820.      -1395.       633.2       276.8
        2819        2069.       1377.      -4473.      -1209.       800.4       268.5
        2820        2046.       1410.      -4454.      -1202.       749.0       337.9
        2821        2300.       961.5      -4342.      -1519.       644.2       349.2
        2822        1155.       810.7      -3885.      -1060.       1008.       223.7
        2823        1856.       1188.      -4154.      -1164.       832.8       298.7
        2824        1893.       764.6      -3702.      -1339.       670.9       359.1
        2825        2725.       1101.      -3567.      -1443.       613.9       358.8
        2826        1999.       790.4      -4103.      -1272.       719.1       341.7
        2827        1731.       1174.      -4293.      -1118.       844.0       277.2
        2828        1475.       942.4      -3683.      -1105.       882.9       228.8
        2829        1847.       1155.      -3921.      -1172.       812.3       308.7
        2830        2300.       862.8      -3251.      -1385.       612.8       315.8
        2831        1362.       1273.      -2943.      -934.0       1127.       100.8
        2832        1948.       785.9      -2408.      -1238.       609.8       226.3
        2833        623.6      -32.11      -4161.      -993.6       1174.       198.9
        2834        1102.       992.8      -2553.      -934.4       1135.       53.23
        2835        1328.       870.2      -2950.      -1012.       1022.       123.0
        2836        1465.       811.0      -2716.      -1086.       844.6       186.0
        2837        1302.       895.6      -2533.      -994.3       993.4       77.73
        2838        1779.       765.0      -1927.      -1214.       641.3       153.9
        2839        791.7       782.6      -2269.      -865.5       1268.       11.71
        2840        859.6       740.4      -2239.      -895.1       1124.       47.50
        2841        1509.       787.0      -1688.      -1123.       688.6       99.59
        2842        1783.       917.8      -1429.      -1135.       589.1       42.60
        2843        1386.       737.1      -2069.      -1052.       830.8       71.52
        2844        1162.       814.6      -2238.      -951.2       967.5       81.66
        2845        908.3       940.1      -1732.      -856.4       1042.      -22.53
        2846        1070.       674.6      -1424.      -952.5       751.8      -9.203
        2847        505.0       1179.      -1588.      -695.8       1466.      -242.9
        2848        994.9       735.2      -736.2      -850.7       608.7      -153.7
        2849        646.9       611.2      -1244.      -809.3       888.9      -125.0
        2850        549.0       1300.      -1937.      -802.4       1463.      -190.8
        2851        579.0       805.0      -1168.      -686.5       1457.      -280.9
        2852        97.25       810.1      -1172.      -694.9       1134.      -294.5
        2853        462.7       596.7      -776.8      -707.5       882.3      -280.0
        2854        790.5       713.0      -265.8      -720.5       624.6      -264.4
        2855        31.21       1174.      -880.2      -643.4       1476.      -374.0
        2856        22.58       555.5      -689.4      -569.2       1148.      -342.2
        2857        662.4       814.3       106.0      -642.4       641.5      -423.2
        2858       -724.3       936.9      -261.0      -410.7       1351.      -482.4
        2859       -236.4       663.7      -268.8      -439.2       1060.      -456.3
        2860        24.14       551.9       210.9      -484.9       789.3      -559.7
        2861       -33.21       334.1      -507.9      -586.2       882.7      -409.6
        2862       -556.2       740.2      -554.8      -486.5       1262.      -435.6
        2863       -533.3       784.1      -98.54      -407.2       1190.      -499.1
        2864       -278.8       661.4       153.3      -401.2       952.3      -542.4
        2865       -1291.       1575.       105.7      -303.8       1611.      -757.8
        2866       -106.0       1013.       1170.      -247.1       563.2      -789.9
        2867       -331.8       492.6       491.6      -375.3       765.8      -672.0
        2868       -460.2       644.0       339.7      -354.8       887.2      -602.6
        2869       -792.1       1805.       143.9      -444.1       1617.      -686.3
        2870       -1663.       915.8       43.05      -326.5       1569.      -862.4
        2871       -1367.       996.2       125.4      -275.7       1277.      -680.7
        2872       -661.2       544.0       662.7      -243.5       792.0      -727.9
        2873       -1654.       888.5       381.7      -206.7       1298.      -774.8
        2874       -1659.       796.3       682.1      -91.33       1109.      -808.7
        2875       -847.2       733.2       1420.      -98.20       606.9      -951.2
        2876       -2207.       1641.       1145.      -110.9       1468.      -927.2
        2877       -2243.       1025.       820.0      -42.91       1178.      -891.3
        2878       -1472.       773.0       1306.      -22.77       796.9      -1005.
        2879       -1118.       629.2       737.6      -143.3       831.7      -854.0
        2880       -1810.       1125.       721.6      -152.9       1283.      -830.8
        2881       -2511.       788.1       1111.       102.1       1070.      -978.1
        2882       -2293.       763.4       970.4       47.47       1026.      -957.4
        2883       -1396.       686.6       1515.      -11.24       665.4      -1091.
        2884       -2840.       1157.       1145.       97.59       1233.      -1013.
        2885       -1904.       759.2       1503.       82.80       729.0      -1139.
        2886       -2298.       745.9       1741.       109.4       940.5      -1082.
        2887       -2812.       1435.       1569.       40.62       1417.      -959.9
        2888       -3196.       1617.       1456.       74.79       1376.      -969.0
        2889       -3035.       1126.       1362.       163.5       1197.      -1034.
        2890       -2666.       768.6       1372.       156.7       894.5      -1119.
        2891       -2360.       785.8       1824.       183.8       702.5      -1231.
        2892       -4024.      -44.49       615.7       151.9       1321.      -938.1
        2893       -3293.       697.4       1395.       207.7       962.5      -1125.
        2894       -3102.       848.8       1771.       234.2       830.1      -1221.
        2895       -3893.       1025.       1845.       211.8       922.5      -1156.
        2896       -3798.       930.6       1782.       224.7       856.8      -1218.
        2897       -3567.       840.9       1780.       255.4       802.2      -1262.
        2898       -2969.       910.9       2178.       275.9       683.1      -1373.
        2899       -3468.       952.1       1763.       220.8       865.4      -1176.
        2900       -3604.       870.0       1442.       230.1       989.3      -1037.
        2901       -4274.       811.4       1937.       198.0       854.5      -1263.
        2902       -3998.       822.5       1874.       205.7       816.7      -1330.
        2903       -3348.       1002.       2382.       283.8       690.6      -1410.
        2904       -4496.       1332.       1973.       135.8       800.5      -1113.
        2905       -4001.       1258.       2398.       235.0       746.8      -1483.
        2906       -4521.       824.7       1999.       178.6       832.1      -1271.
        2907       -4238.       1538.       1929.       93.71       956.9      -1107.
        2908       -4560.       1646.       2564.       202.5       753.4      -1281.
        2909       -4822.       856.1       2205.       211.8       708.6      -1402.
        2910       -4375.       1255.       2552.       271.3       613.3      -1574.
        2911       -4762.       1452.       2093.       205.6       720.8      -1178.
        2912       -5132.       1026.       1935.       199.6       601.7      -1292.
        2913       -4947.       1105.       2347.       204.3       576.1      -1369.
        2914       -5490.       697.1       1733.       161.1       543.7      -1257.
        2915       -5217.       1124.       2026.       160.6       488.4      -1324.
        2916       -5461.       1385.       2864.       199.7       410.3      -1628.
        2917       -5193.       1106.       2113.       259.1       672.6      -1234.
        2918       -5488.       1200.       2231.       139.6       325.9      -1334.
        2919       -5767.       1017.       2094.       96.64       256.7      -1298.
        2920       -6110.       1071.       2534.       90.47       200.7      -1447.
        2921       -5497.       1251.       2681.       76.70       204.3      -1633.
        2922       -5465.       1293.       2650.       131.6       345.2      -1629.
        2923       -5864.       1141.       1927.       44.99       268.3      -1094.
        2924       -5856.       1212.       1980.      -5.242       161.0      -1136.
        2925        2071.       1035.      -5281.      -1266.       602.1       312.6
        2926       -700.7       816.3       37.88      -345.2       1103.      -533.1
        2927       -5675.       1124.       2251.       40.28       145.0      -1274.
        2928       -5717.       751.6       1664.       115.9       371.3      -1238.
        2929       -4890.       864.5       1804.       184.1       743.3      -1252.
        2930       -4189.       939.7       1832.       161.4       879.2      -1128.
        2931        2089.       1055.      -5491.      -1241.       484.8       259.0
        2932        1118.       862.8      -3409.      -968.5       1127.       149.3
        2933       -1078.       772.3      -268.5      -368.0       1337.      -553.6
        2934       -2528.       1098.       1466.       121.2       1066.      -991.9
        2935       -2591.       1116.       1020.       53.74       1225.      -1005.
        2936       -5868.       1152.       2440.       132.0       318.9      -1443.
        2937        1274.       943.6      -3339.      -1024.       966.1       199.0
        2938        281.1       759.6      -1611.      -754.5       1153.      -177.0
        2939       -5043.       1780.       3071.       159.0       504.4      -1168.
        2940       -4438.       1908.       2300.       133.6       915.4      -1110.
        2941        1246.       1181.      -3463.      -1049.       1283.       118.9
        2942        1262.       1528.      -2656.      -948.6       1332.       33.20
        2943        943.2       1165.      -2542.      -850.3       1320.      -33.90
        2944        731.5       699.7      -2711.      -913.5       1331.       17.61
        2945        1500.       741.9      -2430.      -1081.       850.6       101.7
        2946        1042.       741.6      -1664.      -929.3       912.8       57.70
        2947       -3223.       1536.       1644.       168.1       1068.      -1056.
        2948        683.4       890.4      -1872.      -838.2       1200.      -71.71
        2949       -3200.       673.9       1091.       155.5       1026.      -1042.
        2950       -5309.       1102.       2304.       157.8       442.3      -1394.
        2951       -1955.       725.0       1467.       52.25       833.0      -1077.
        2952        1982.       1371.      -4845.      -1246.       680.7       328.4
        2953        1858.       904.8      -4681.      -1209.       749.1       361.6
        2954       -4456.       843.0       2064.       193.4       823.0      -1397.
        2955        1653.       697.0      -3500.      -1168.       777.6       281.8
        2956       -4238.       869.5       2001.       168.3       864.0      -1361.
        2957       -1236.       781.7       596.2      -162.1       1045.      -769.0
        2958       -819.7       820.7       379.5      -267.2       994.9      -643.0
        2959       -1792.       804.1       1080.      -31.49       954.4      -934.9
        2960        983.2       770.3      -1979.      -885.7       1013.       76.89
        2961       -2105.       873.3       1847.       103.9       946.1      -1032.
        2962       -1730.       660.8       895.7      -78.25       1027.      -864.0
        2963       -4960.      -383.3      -411.9       186.7      -7.133      -1107.
        2964       -4096.       1047.       2233.       87.99       5.354      -1426.
        2965       -4698.       1322.       2041.       113.6       22.80      -1363.
        2966       -6820.      -1445.      -2158.       194.8       11.29      -913.7
        2967       -7720.      -1528.      -3525.       149.8      -44.48      -808.5
        2968       -8284.      -1277.      -4880.       141.8      -8.094      -752.6
        2969       -8574.      -1267.      -5799.       120.8      -25.59      -704.1
        2970      -1.0581E+04  -1646.      -8043.       45.37      -5.455      -685.9
        2971      -1.1189E+04  -1471.      -8917.       36.56      -44.39      -560.1
        2972      -1.1562E+04  -1562.      -9862.       74.87      -36.23      -484.6
        2973      -1.1923E+04  -1367.     -1.0431E+04   138.8      -16.21      -488.9
        2974      -1.2185E+04  -1282.     -1.1375E+04   81.32      -25.42      -421.7
        2975      -1.2903E+04  -1407.     -1.2208E+04   12.07      -1.065      -349.4
        2976      -1.3928E+04  -1381.     -1.3196E+04  -31.37       50.75      -295.0
        2977      -1.2764E+04  -1151.     -1.2398E+04   96.12      -37.96      -231.2
        2978      -1.3809E+04  -1431.     -1.3742E+04   22.40      -48.10      -168.7
        2979      -1.4933E+04  -1567.     -1.4461E+04   72.60      -14.64      -100.7
        2980      -1.4945E+04  -1703.     -1.5209E+04   65.38       47.25      -116.2
        2981      -1.3741E+04  -1288.     -1.3975E+04   137.5      -33.64       8.154
        2982       -4140.       853.3       1928.       103.5       32.04      -1275.
        2983       -4021.       779.2       1238.       119.7      -42.69      -1222.
        2984       -5050.       903.7       1937.       134.0       4.785      -1507.
        2985       -5166.       639.6       1707.       139.6      -36.82      -1450.
        2986       -5023.       783.7       2146.       125.9       47.91      -1458.
        2987       -4662.       1000.       2394.       110.0       24.47      -1485.
        2988       -3777.      -237.5      -272.4       125.1       7.342      -1793.
        2989       -3293.       1066.       1275.       94.30      -7.135      -1275.
        2990       -3627.       1750.       1619.       59.62       51.88      -1058.
        2991       -5167.      -1229.      -1851.       155.3      -22.85      -1614.
        2992       -6468.      -1642.      -3082.       141.7      -42.20      -1475.
        2993       -6777.      -1164.      -3933.       113.4      -21.14      -1393.
        2994       -7696.      -1293.      -5174.       49.17      -53.08      -1304.
        2995       -8941.      -1529.      -6892.       70.46      -3.973      -1199.
        2996       -9446.      -1362.      -7478.       27.76      -42.97      -1020.
        2997       -9848.      -1587.      -8416.       51.54      -24.72      -935.7
        2998       -9808.      -1270.      -8538.       86.27      -6.281      -879.0
        2999       -9906.      -1138.      -9143.       48.15      -32.81      -772.7
        3000      -1.0895E+04  -1229.     -1.0194E+04   14.11      -24.94      -654.6
        3001      -1.1137E+04  -1329.     -1.0600E+04  -4.590       39.64      -568.5
        3002      -1.0996E+04  -1221.     -1.0780E+04  -3.268      -46.07      -468.9
        3003      -1.1958E+04  -1316.     -1.1833E+04   59.26      -2.881      -275.3
        3004      -1.1798E+04  -1397.     -1.1680E+04   145.7      -25.22      -233.8
        3005      -1.2397E+04  -1713.     -1.2918E+04   145.4       56.03      -185.0
        3006      -1.0871E+04  -1255.     -1.1097E+04   81.06      -73.12      -122.0
        3007       -3251.       736.0       126.9       102.4      0.8100      -1344.
        3008       -3305.       700.8      -215.1       99.23      -34.57      -1667.
        3009       -4039.       1002.       1690.       103.3      -4.318      -1355.
        3010       -4037.       714.9       1809.       119.4      -22.20      -1381.
        3011       -4031.       826.7       1728.       88.60       11.18      -1331.
        3012       -3751.       897.5       1843.       62.80       5.938      -1277.
        3013       -3128.      -494.0      -1076.       49.81      -10.98      -2137.
        3014       -2235.       868.4       677.2       89.10      -12.95      -1355.
        3015       -2823.       1678.       1394.       125.5       28.16      -757.6
        3016       -3100.      -870.4      -875.5       99.82      -1.618      -2097.
        3017       -4449.      -1562.      -2055.       113.6      -28.16      -1992.
        3018       -4832.      -1202.      -2964.       68.06      -39.69      -1868.
        3019       -5605.      -1293.      -3733.       43.14      -44.10      -1772.
        3020       -6418.      -1356.      -4785.       31.86       1.732      -1555.
        3021       -6806.      -1264.      -5324.       31.79      -31.28      -1376.
        3022       -7625.      -1564.      -6357.       29.22      -10.51      -1302.
        3023       -6550.      -1026.      -6003.       60.28      -4.694      -1195.
        3024       -7461.      -1145.      -6550.      -17.27      -30.78      -1045.
        3025       -7565.      -1259.      -7123.       37.08      -31.84      -905.6
        3026       -8638.      -1123.      -8206.       76.92       31.12      -793.4
        3027       -8495.      -1415.      -8043.       43.23      -31.31      -611.7
        3028       -8319.      -1294.      -8436.       113.0       6.143      -397.7
        3029       -8236.      -1084.      -8114.       179.7      -8.118      -358.4
        3030       -9105.      -1526.      -9462.       215.4       37.21      -257.2
        3031       -7511.      -1002.      -7445.       128.2      -51.91      -248.1
        3032       -2394.       804.3       202.2       87.71      -29.89      -1618.
        3033       -2286.       404.8      -42.07       87.76      -35.58      -1945.
        3034       -2748.       908.6       1135.       112.1       12.98      -1152.
        3035       -2863.       947.1       1208.       86.19       16.78      -1195.
        3036       -2816.       878.0       1196.       76.85      -14.15      -1180.
        3037       -2928.       906.3       923.0       55.01      -25.20      -1200.
        3038       -1438.      -273.9      -553.4       72.67       9.924      -2330.
        3039       -1433.       1029.       338.5       59.16      -10.70      -1548.
        3040       -2334.       936.0       471.6       106.7       3.513      -495.6
        3041       -1838.      -845.2      -500.0       30.36       2.661      -2406.
        3042       -2015.      -1275.      -883.7       38.18       1.621      -2308.
        3043       -3572.      -1339.      -2188.       45.56      -57.98      -2179.
        3044       -3164.      -1172.      -2090.       17.74      -15.82      -2050.
        3045       -3970.      -978.5      -2589.       50.57       23.28      -1795.
        3046       -4789.      -1088.      -3442.       97.75      -23.73      -1697.
        3047       -5522.      -1305.      -4113.       86.91       15.52      -1549.
        3048       -3026.      -303.2      -2615.       54.01      -12.67      -1382.
        3049       -5322.      -992.6      -4294.       38.57      -46.73      -1260.
        3050       -5634.      -1070.      -4959.       92.68       7.737      -1083.
        3051       -5713.      -1155.      -5023.       96.25       6.953      -948.1
        3052       -5445.      -1348.      -4735.       19.21      0.2113      -691.0
        3053       -5116.      -1089.      -5121.       205.7      -14.46      -560.0
        3054       -5118.      -1111.      -5043.       206.6       29.96      -518.4
        3055       -4917.      -1121.      -4832.       222.4       27.26      -335.9
        3056       -4858.      -985.8      -4706.       131.3      -32.88      -216.3
        3057       -1448.       974.9       37.00       59.76      -9.234      -1846.
        3058       -1228.       347.1      -337.6       66.20      -26.58      -2130.
        3059       -1714.       991.1       467.7       100.3       21.78      -850.0
        3060       -2030.       808.8       710.8       105.4       38.62      -962.7
        3061       -2046.       730.8       604.0       103.6       22.40      -1092.
        3062       -1840.       970.5       429.9       90.36      -27.80      -1278.
        3063       -213.1      -241.3       168.6       68.83       5.880      -2429.
        3064       -366.6       773.9       202.7       118.1       2.669      -1661.
        3065       -1697.       760.4      -378.6       108.0       1.023      -286.9
        3066       -421.6      -825.1      -36.77       35.94       12.06      -2501.
        3067       -716.5      -888.7      -253.9       51.42       9.298      -2454.
        3068       -1261.      -1252.      -505.0       52.46      -43.33      -2344.
        3069       -1214.      -1041.      -810.7       21.23      -10.98      -2178.
        3070       -1743.      -828.7      -1153.       101.8       47.22      -1978.
        3071       -1574.      -828.3      -1001.       150.8      -11.68      -1911.
        3072       -2279.      -924.4      -1367.       158.6       23.78      -1700.
        3073       -1053.      -540.1      -822.8       66.14      -32.50      -1462.
        3074       -2456.      -868.0      -1851.       201.1      -9.284      -1329.
        3075       -2432.      -1161.      -1985.       252.6      -9.429      -1171.
        3076       -2206.      -703.7      -1937.       206.7      -18.04      -962.8
        3077       -2641.      -1176.      -2177.       206.5       9.053      -836.2
        3078       -2156.      -1033.      -2031.       216.9       18.45      -794.5
        3079       -2169.      -1010.      -2221.       146.4       6.113      -655.5
        3080       -1604.      -783.4      -1468.       119.2       34.42      -400.5
        3081       -1595.      -853.7      -1405.       132.3      -46.44      -131.7
        3082       -25.03       785.2       449.7       91.86       2.445      -1982.
        3083       -320.8       60.06      -153.2       70.43      -6.031      -2259.
        3084       -642.6       1033.       321.4       96.22      -8.817      -630.2
        3085       -1194.       742.9       167.1       83.89       25.29      -807.8
        3086       -928.6       746.9       150.0       97.45       18.92      -1039.
        3087       -734.8       1143.       138.7       97.10       7.390      -1326.
        3088        650.8      -375.4       599.1       42.67       6.546      -2445.
        3089        1462.       451.8       467.2       113.5       17.80      -1715.
        3090       -200.2       320.4      -136.4       115.6       13.32      -189.1
        3091        1167.      -667.1       825.2       54.88       9.336      -2481.
        3092        1655.      -647.8       1401.       64.00       2.898      -2439.
        3093        1228.      -621.4       1163.       77.73      -13.94      -2332.
        3094        1261.      -616.8       1090.       134.3      -11.37      -2213.
        3095        1350.      -490.9       1248.       125.8       30.71      -2110.
        3096        1682.      -459.8       1569.       112.9       19.40      -1942.
        3097        1572.      -467.7       1602.       78.01       1.790      -1770.
        3098        1056.      -705.9       1240.       111.2      -13.79      -1503.
        3099        1375.      -757.6       1406.       186.8       24.35      -1312.
        3100        1365.      -874.1       1587.       243.4      -1.620      -1151.
        3101        1676.      -334.0       1693.       298.9      -55.95      -972.3
        3102        806.2      -908.8       993.2       335.4       33.72      -945.5
        3103        920.8      -889.5       1136.       149.7      0.2883      -855.5
        3104        1593.      -792.6       1527.       158.5      -26.46      -647.6
        3105        1857.      -575.4       1749.       73.33       36.29      -449.5
        3106        1689.      -780.4       1788.       148.2      -70.02      -124.8
        3107        942.2       330.3       485.0       88.97       26.33      -2020.
        3108        1162.       170.3       641.8       61.93       11.90      -2295.
        3109       -169.1       608.1      -100.9       69.55       22.72      -410.6
        3110       -268.3       506.6      -15.89       87.00     -3.1718E-03  -687.6
        3111        581.3       625.5       309.1       128.6      -10.02      -969.0
        3112        1123.       484.9       429.8       155.7      -2.980      -1338.
        3113        172.4      -411.5      -5039.      -1057.      -60.66       107.4
        3114        2452.       1251.      -4620.      -1559.       9.864       45.08
        3115        2300.       1695.      -5069.      -1349.      -7.740       63.43
        3116      -1.3421E+04  -1213.     -1.3622E+04   49.99       93.67       221.9
        3117      -1.4705E+04  -1667.     -1.5211E+04  -89.57       29.43       65.82
        3118      -1.3414E+04  -1201.     -1.3581E+04  -212.2      -41.25       83.61
        3119      -1.3395E+04  -1503.     -1.3711E+04  -149.5      -32.11       154.1
        3120      -1.3053E+04  -1441.     -1.3732E+04  -160.4     -0.8592       63.45
        3121      -1.2297E+04  -1443.     -1.3286E+04  -261.8      -14.32       69.02
        3122      -1.2500E+04  -1522.     -1.3670E+04  -383.8       5.393      -14.13
        3123      -1.1425E+04  -1416.     -1.3036E+04  -430.4      -4.286      -11.83
        3124      -1.0575E+04  -1545.     -1.2203E+04  -444.2       8.371       73.08
        3125       -9659.      -1381.     -1.1520E+04  -517.1       11.19       30.39
        3126       -8969.      -1470.     -1.1342E+04  -619.3      -55.01       38.86
        3127       -7841.      -1635.     -1.0595E+04  -656.1      -40.62       110.8
        3128       -5800.      -1291.      -8961.      -697.7      -49.24       127.5
        3129       -4856.      -1408.      -8554.      -731.3      -5.511       146.0
        3130       -3349.      -1480.      -7776.      -780.8      -37.42       151.4
        3131       -2140.      -1500.      -7069.      -930.1      -29.69       152.5
        3132        1218.       756.9      -5193.      -1251.      -38.83       14.49
        3133        2527.       1161.      -4276.      -1408.      -2.848       12.94
        3134        2495.       1099.      -5877.      -1619.      0.8781       57.31
        3135        2100.       877.0      -5292.      -1563.      -10.08       89.14
        3136        2011.       803.2      -5353.      -1531.      -22.17       119.3
        3137       -140.7      -157.4      -3642.      -1792.      -79.35       70.17
        3138        1882.       1288.      -4116.      -1365.       4.274       87.46
        3139        1718.       1495.      -3844.      -1061.       17.30       103.7
        3140      -1.0521E+04  -1134.     -1.0754E+04  -27.84       41.14       70.33
        3141      -1.2135E+04  -1489.     -1.2453E+04  -224.8       47.83       148.2
        3142      -1.1530E+04  -1439.     -1.1742E+04  -278.8      -37.87       157.9
        3143      -1.1167E+04  -1504.     -1.1474E+04  -310.4      -29.39       156.4
        3144      -1.0465E+04  -1264.     -1.0871E+04  -412.2       8.261       98.93
        3145       -9924.      -1371.     -1.0857E+04  -537.4      -22.80       55.49
        3146      -1.0197E+04  -1444.     -1.1213E+04  -689.3       40.66       10.22
        3147       -9539.      -1505.     -1.0853E+04  -749.4      -37.88       33.83
        3148       -8809.      -1473.     -1.0289E+04  -825.7       3.258       39.38
        3149       -8297.      -1213.     -1.0013E+04  -956.6       14.47       24.14
        3150       -7842.      -1411.     -1.0103E+04  -1040.      -55.92       57.84
        3151       -6177.      -1298.      -8380.      -1224.      -46.10       115.2
        3152       -5214.      -1230.      -7963.      -1302.      -63.82       75.88
        3153       -3945.      -1328.      -7151.      -1362.      -19.28       135.9
        3154       -2910.      -1559.      -6577.      -1437.      -39.62       141.3
        3155       -1584.      -1068.      -5095.      -1612.      -35.31       122.5
        3156        345.7       912.8      -4572.      -1747.      -29.41       54.51
        3157        924.7       995.9      -4251.      -1457.      -1.962       66.64
        3158        1912.       1058.      -4680.      -1412.      -5.094       113.6
        3159        1806.       814.1      -3709.      -1398.      -3.845       119.7
        3160        1745.       706.1      -4163.      -1383.      -24.36       106.7
        3161       -1087.      -513.8      -2990.      -2196.      -71.94       45.93
        3162        860.2       959.6      -3165.      -1351.     -0.5973       104.0
        3163        1251.       1103.      -2954.      -712.8       53.00       97.12
        3164       -7208.      -979.6      -7222.      -145.4       14.91       110.8
        3165       -8880.      -1404.      -8920.      -296.0       46.53       183.5
        3166       -7695.      -1349.      -7851.      -273.7      -46.07       162.8
        3167       -7633.      -1238.      -7751.      -473.2      -4.251       122.7
        3168       -7668.      -1050.      -7741.      -693.5       31.19       97.76
        3169       -7267.      -1277.      -7771.      -813.1      -27.83       65.20
        3170       -7825.      -1477.      -8475.      -909.3       48.21       118.2
        3171       -6682.      -1224.      -7707.      -988.2      -58.63       104.7
        3172       -6260.      -1170.      -7404.      -1120.      -9.442       76.45
        3173       -6133.      -1406.      -7237.      -1259.       25.81       55.40
        3174       -5590.      -1187.      -7512.      -1360.      -74.71       59.40
        3175       -4263.      -1207.      -6009.      -1637.      -22.46       67.96
        3176       -3795.      -1380.      -5866.      -1777.      -46.71       98.34
        3177       -2987.      -1267.      -5155.      -1841.      -27.30       90.74
        3178       -1923.      -1496.      -4521.      -1957.      -23.79       102.8
        3179       -574.4      -666.2      -2832.      -2075.      -20.74       96.53
        3180        204.0       800.1      -2782.      -2018.      -21.69       98.14
        3181        227.4       949.5      -3222.      -1669.       9.084       87.32
        3182        1164.       876.9      -3498.      -1210.      0.8541       107.8
        3183        1178.       592.3      -3233.      -1138.       7.785       132.2
        3184        1363.       819.4      -2972.      -1126.      -19.41       115.9
        3185       -593.1      -191.5      -1713.      -2353.      -31.35       82.35
        3186       -26.15       813.4      -2121.      -1474.      -24.38       96.19
        3187        301.8       769.4      -2205.      -449.6       11.53       75.99
        3188       -4964.      -1040.      -5269.      -198.4      -21.26       105.9
        3189       -5375.      -1254.      -5301.      -362.5       51.08       206.7
        3190       -5291.      -1347.      -5389.      -362.2      -32.23       184.9
        3191       -3902.      -928.1      -4021.      -612.5       7.375       49.68
        3192       -4136.      -596.5      -4061.      -880.0       44.61       115.3
        3193       -4360.      -828.3      -4706.      -977.8      -8.543       85.08
        3194       -4459.      -803.3      -5243.      -1044.      -8.401       174.6
        3195       -4324.      -933.1      -5213.      -1196.      -24.22       155.5
        3196       -3842.      -810.1      -4949.      -1347.      -26.92       104.4
        3197       -3926.      -1048.      -5518.      -1478.       18.29       136.3
        3198       -3270.      -1110.      -4644.      -1688.      -56.03       110.0
        3199       -2305.      -1114.      -3348.      -1854.     -0.7083       43.31
        3200       -2117.      -1401.      -3655.      -2054.      -17.69       57.60
        3201       -1937.      -1205.      -3459.      -2176.      -19.28       65.36
        3202       -876.3      -1255.      -2293.      -2292.       6.126       64.45
        3203       -192.9      -740.3      -1355.      -2392.      -20.82       81.90
        3204       -485.6       390.2      -1236.      -2138.      -31.80       82.90
        3205       -510.8       593.1      -2172.      -1842.       22.44       98.28
        3206        564.1       964.6      -2501.      -1136.       11.65       113.0
        3207        620.1       597.3      -2172.      -959.3       6.981       107.3
        3208        781.2       1088.      -1984.      -838.5       24.32       113.7
        3209        94.23      -149.1      -134.2      -2410.      -31.67       85.64
        3210        77.80       592.8      -888.2      -1607.      0.6943       78.30
        3211       -381.2       683.9      -1829.      -224.4      -7.620       97.33
        3212       -1682.      -758.5      -1849.      -224.5      -46.65       92.67
        3213       -1926.      -1151.      -1963.      -382.6       29.41       166.4
        3214       -1874.      -1062.      -1858.      -539.8       4.370       183.7
        3215       -1457.      -736.5      -1266.      -723.7       3.146       67.92
        3216       -1462.      -729.4      -1418.      -937.9       39.25       102.6
        3217       -1826.      -898.8      -1948.      -1049.      -2.352       182.9
        3218       -1448.      -885.3      -1716.      -1129.      -22.24       205.9
        3219       -1659.      -957.5      -2004.      -1373.      -20.72       230.1
        3220       -1386.      -821.3      -2126.      -1499.      -18.32       227.0
        3221       -1410.      -931.9      -2443.      -1648.      -6.727       206.5
        3222       -782.0      -730.7      -1152.      -1891.      -3.160       187.9
        3223       -1141.      -965.1      -1707.      -1977.       8.401       93.10
        3224       -845.7      -1172.      -1610.      -2159.      -10.64       33.72
        3225       -323.2      -1116.      -1170.      -2341.      -4.246       76.21
        3226       -133.5      -857.0      -577.8      -2450.       11.32       83.94
        3227        24.76      -671.0      -140.6      -2507.      -3.741       77.52
        3228       -146.3       199.5      -427.0      -2210.      -19.33       78.64
        3229        285.9       737.7      -728.4      -1921.       11.96       75.91
        3230        158.7       862.2      -890.6      -1165.       29.42       81.64
        3231        241.4       798.7      -1171.      -892.2       21.39       76.75
        3232       -103.6       725.0      -1323.      -641.9       16.09       85.64
        3233        619.0      -178.6       812.4      -2413.      -12.00       37.86
        3234        435.5       475.0       1195.      -1649.       10.33       85.75
        3235       -281.7       23.21      -75.01      -109.5       17.90       94.48
        3236        1881.      -636.3       1735.      -229.7      -41.60       63.78
        3237        1952.      -748.6       2069.      -357.7      -25.51       139.6
        3238        1843.      -633.0       1863.      -629.0       31.15       155.4
        3239        1300.      -729.9       1344.      -760.6       7.078       134.6
        3240        1282.      -705.1       1159.      -896.4       28.80       133.6
        3241        888.0      -1031.       937.8      -1034.      -11.93       189.7
        3242        1476.      -773.3       1603.      -1213.      -13.82       190.0
        3243        1273.      -839.3       1396.      -1422.      -6.352       188.3
        3244        1389.      -720.9       1312.      -1581.      -20.90       194.0
        3245        1558.      -573.9       1615.      -1766.       3.263       211.6
        3246        1762.      -377.9       2187.      -1895.       11.07       161.7
        3247        1099.      -702.5       1124.      -2035.       23.27       114.0
        3248        1213.      -566.2       1420.      -2185.      -9.361       130.8
        3249        1277.      -608.0       1495.      -2314.      -1.207       102.2
        3250        1419.      -665.9       1692.      -2448.       3.899       89.22
        3251        990.0      -625.3       1561.      -2480.       4.465       56.21
        3252        594.4       319.0       947.2      -2234.       2.349       82.66
        3253        472.8       504.6       932.0      -1947.       9.297       79.15
        3254        289.6       616.4       488.3      -1212.       9.804       54.60
        3255        101.7       589.9       76.61      -842.8       32.88       56.72
        3256       -88.54       712.0      -53.57      -421.9       18.69       99.66
        3257        1532.      -26.57       3149.      -2286.       95.54      -228.5
        3258        1484.      -330.9       2785.      -2317.       80.51      -472.1
        3259        1709.      -199.1       3454.      -2317.       72.57      -609.1
        3260        1869.      -52.82       3149.      -2321.       133.7      -827.7
        3261        1721.      -94.27       2875.      -2289.       166.1      -957.4
        3262        1741.      -171.7       2732.      -2278.       153.5      -1166.
        3263        1476.      -281.4       2357.      -2271.       132.4      -1389.
        3264        1755.      -313.1       2752.      -2260.       237.2      -1506.
        3265        1492.      -342.8       2210.      -2224.       245.3      -1621.
        3266        1901.      -99.45       2203.      -2183.       166.6      -1755.
        3267        1993.       13.13       2272.      -2146.       199.4      -1827.
        3268        2134.      -165.1       2398.      -2108.       237.3      -1930.
        3269        2100.      -193.8       2062.      -2042.       238.8      -2044.
        3270        2151.      -106.8       1892.      -1962.       220.3      -2089.
        3271        2243.      -152.5       1957.      -1838.       203.9      -2138.
        3272        2022.      -219.8       1677.      -1693.       232.6      -2196.
        3273        2124.      -339.8       1714.      -1595.       224.7      -2241.
        3274        2831.      -302.0       1878.      -1459.       209.2      -2266.
        3275        2613.      -150.7       1747.      -1330.       140.7      -2300.
        3276        2473.      -279.3       1487.      -1184.       98.42      -2285.
        3277        2684.      -110.4       1694.      -1018.       96.58      -2309.
        3278        3006.      -45.88       1822.      -853.5       113.0      -2329.
        3279        2852.      -237.9       1696.      -666.7       164.9      -2311.
        3280        2954.      -217.8       1616.      -463.3       115.4      -2292.
        3281        3088.      -104.4       1674.      -232.1       33.57      -2311.
        3282        817.2       210.4       1936.      -1635.       54.54      -164.3
        3283        892.7       219.2       2507.      -1674.       61.41      -362.2
        3284        1099.       490.3       2847.      -1698.       128.0      -547.9
        3285        956.8       494.0       2561.      -1750.       127.0      -778.3
        3286        884.8       511.2       2178.      -1772.       162.0      -865.7
        3287        880.6       179.6       2391.      -1761.       198.1      -1035.
        3288        1035.       283.3       2324.      -1783.       235.9      -1205.
        3289        1130.       298.8       2428.      -1793.       203.4      -1331.
        3290        1030.       383.5       1832.      -1806.       195.2      -1478.
        3291        1345.       471.2       2238.      -1783.       216.2      -1508.
        3292        1158.       288.0       1814.      -1826.       254.7      -1639.
        3293        1242.       291.6       1864.      -1823.       237.2      -1658.
        3294        1194.       297.5       1637.      -1824.       242.2      -1711.
        3295        1298.       277.4       1493.      -1811.       230.7      -1772.
        3296        1338.       316.7       1204.      -1816.       234.0      -1807.
        3297        1685.       441.7       1601.      -1770.       224.3      -1805.
        3298        1586.       318.9       1226.      -1718.       258.5      -1825.
        3299        1750.       375.8       1141.      -1681.       251.4      -1856.
        3300        2168.       293.7       1375.      -1577.       258.3      -1854.
        3301        1712.       243.0       943.0      -1500.       247.7      -1820.
        3302        1804.       432.0       1156.      -1401.       149.7      -1822.
        3303        2063.       190.6       1006.      -1271.       149.9      -1806.
        3304        2500.       274.5       1062.      -1169.       195.5      -1778.
        3305        2518.       306.9       964.1      -1059.       179.7      -1750.
        3306        2458.       245.5       904.1      -937.9       162.0      -1717.
        3307        2669.       433.1       996.6      -725.9       74.55      -1723.
        3308        2365.       389.8       965.8      -571.4       37.20      -1728.
        3309        2397.       235.8       913.5      -402.8       34.34      -1650.
        3310        2059.       215.0       823.6      -221.7       20.53      -1625.
        3311        52.48       178.8       1417.      -27.82      -14.67      -149.4
        3312        168.5      -80.35       1456.       1.345      -15.77      -271.7
        3313        174.2       85.01       1252.      3.5485E-03  -16.42      -382.6
        3314        73.50       62.19       1242.       1.886      -15.19      -522.4
        3315        163.0       350.6       1617.      -17.46      -17.50      -627.3
        3316        88.07       168.0       1301.      -18.20     -0.9998      -706.3
        3317        109.6       294.0       1282.      -28.19      -11.59      -812.7
        3318        102.5       413.2       1279.      -36.71      -22.03      -842.8
        3319        136.1       632.1       1246.      -55.18      -34.07      -885.6
        3320        198.4       636.1       1229.      -84.08      -54.22      -907.7
        3321        208.0       659.8       1091.      -119.9      -60.50      -956.0
        3322        197.8       781.4       982.5      -169.9      -77.27      -950.1
        3323        258.8       831.6       1098.      -206.8      -118.8      -943.4
        3324        268.0       948.3       1097.      -246.7      -136.3      -926.3
        3325        233.0       1036.       825.1      -347.5      -137.8      -953.2
        3326        362.5       1085.       949.0      -316.0      -169.8      -794.6
        3327        366.6       1134.       783.2      -388.8      -157.4      -790.6
        3328        439.1       1012.       818.4      -466.5      -176.7      -748.6
        3329        646.2       1199.       836.1      -532.3      -207.4      -672.7
        3330        555.6       1187.       598.6      -588.6      -214.3      -592.3
        3331        600.2       1195.       580.6      -651.1      -212.9      -541.8
        3332        645.8       1164.       472.4      -698.2      -202.4      -493.8
        3333        826.6       1117.       462.6      -733.4      -189.0      -435.4
        3334        641.4       1037.       294.3      -763.5      -179.7      -380.3
        3335        834.4       1024.       379.9      -807.4      -175.8      -323.3
        3336        1026.       960.1       431.5      -840.1      -144.8      -269.2
        3337        1193.       966.8       363.6      -868.9      -131.9      -234.0
        3338        1013.       832.8       244.8      -901.6      -145.3      -207.7
        3339        955.9       731.8       208.6      -880.4      -124.9      -169.0
        3340        1052.       634.9       227.7      -877.5      -98.75      -128.3
        3341        1206.       495.8       254.2      -819.5      -62.93      -77.65
        3342        1027.       387.2       159.3      -794.5      -29.17      -88.43
        3343        1144.       413.4       164.1      -738.8      -25.85      -83.71
        3344        1293.       412.5       206.9      -665.0      -28.44      -59.07
        3345        1333.       276.4       173.1      -595.3      -16.90      -54.97
        3346        1009.       170.7       53.78      -493.4      -26.72      -43.89
        3347        1073.       130.3       115.1      -411.3      -20.93      -31.53
        3348        1273.       11.25       119.6      -289.0      -16.63      -25.14
        3349        1520.       59.15       138.1      -189.0      -28.04      -58.27
        3350        1352.       64.96       110.2      -97.87      -26.37      -76.10
        3351        2777.      -422.5       2386.      -1638.       166.8      -2169.
        3352        3024.      -345.7       2142.      -1153.       100.9      -2290.
        3353        3045.      -406.9       1946.      -607.3       97.34      -2346.
        3354        5188.      -427.1       5395.      -171.8      -136.8      -190.1
        3355        3432.      -692.4       3383.      -950.5       1.451      -226.4
        3356        1940.      -501.4       1852.      -1942.       164.7      -1922.
        3357        4332.      -508.8       4618.      -1179.      -28.97      -215.2
        3358        4532.      -377.3       4916.      -1328.      -14.12      -181.8
        3359        2219.      -359.0       2415.      -2171.       130.4      -1673.
        3360        4094.      -556.1       4559.      -1480.       8.056      -162.3
        3361        3857.      -457.6       4290.      -1662.       13.12      -147.7
        3362        1952.      -662.1       2664.      -2279.       185.7      -1318.
        3363        3715.      -494.9       4360.      -1764.       100.2      -159.0
        3364        3199.      -606.2       3882.      -1897.       42.28      -152.6
        3365        2691.      -551.3       3219.      -2028.      -21.83      -181.3
        3366        1973.      -328.0       3111.      -2359.       112.4      -588.8
        3367        2104.      -799.7       2300.      -2169.      -36.93      -171.4
        3368        2211.      -681.2       3163.      -2296.      -49.37      -213.6
        3369        3275.      -504.8       1976.      -430.8       99.42      -2345.
        3370        2759.      -375.5       1911.      -787.8       68.33      -2339.
        3371        3156.      -199.9       2127.      -965.2       59.67      -2315.
        3372        2845.      -371.9       2085.      -1295.       132.7      -2295.
        3373        2977.      -421.4       2237.      -1422.       140.9      -2260.
        3374        2795.      -265.8       2235.      -1540.       166.5      -2205.
        3375        2539.      -318.9       2250.      -1742.       167.4      -2108.
        3376        2875.      -317.3       2721.      -1857.       163.1      -2042.
        3377        2171.      -326.2       2476.      -2044.       207.6      -1891.
        3378        2069.      -549.0       2093.      -2125.       199.7      -1741.
        3379        1944.      -466.1       2352.      -2210.       186.1      -1566.
        3380        2742.      -171.1       3708.      -2222.       235.0      -1458.
        3381        1964.      -482.5       2541.      -2297.       127.5      -1170.
        3382        1967.      -313.8       3036.      -2289.       105.5      -932.9
        3383        2024.      -363.8       2920.      -2337.       68.84      -776.6
        3384        1937.      -368.6       2807.      -2341.       54.66      -417.8
        3385        5620.      -347.5       5547.      -160.4       17.00      -482.4
        3386        4714.      -686.6       4736.      -155.6       49.41      -675.6
        3387        2428.      -702.3       2796.      -184.7      -39.32      -902.2
        3388        4361.      -628.9       4306.      -151.1      -54.37      -969.6
        3389        3947.      -659.1       3888.      -158.0       59.83      -1136.
        3390        4019.      -640.1       3912.      -149.9       47.89      -1273.
        3391        4233.      -575.5       3689.      -166.1       26.53      -1454.
        3392        4485.      -525.6       3933.      -156.6       10.74      -1668.
        3393        4297.      -344.5       3789.      -160.3       47.93      -1810.
        3394        3817.      -544.4       3127.      -175.1       9.516      -1978.
        3395        3253.      -579.3       2698.      -202.4      -52.52      -2068.
        3396        3023.      -646.0       2401.      -203.3      -8.751      -2196.
        3397        5244.      -209.9       5609.      -785.3       64.15      -221.5
        3398        4644.      -499.1       4965.      -669.4       52.37      -202.2
        3399        4865.      -619.6       4757.      -159.3      -50.43      -400.6
        3400        4615.      -506.4       4864.      -1141.      -84.46      -370.0
        3401        2480.      -433.8       3597.      -2158.      -17.17      -364.7
        3402        2224.      -585.5       3362.      -2258.       20.91      -390.5
        3403        3551.      -439.1       2927.      -379.2      -43.87      -2061.
        3404        4794.      -453.8       4309.      -326.0      -27.41      -1647.
        3405        3070.      -627.4       2802.      -1539.       98.67      -2084.
        3406        2711.      -525.2       3007.      -1926.       176.9      -1776.
        3407        2771.      -486.4       2955.      -2007.       172.5      -1656.
        3408        3197.      -456.9       3892.      -1773.       35.56      -301.3
        3409        2399.      -438.3       3345.      -2255.       22.21      -727.3
        3410        2171.      -260.7       3823.      -2349.       53.23      -248.0
        3411        4963.      -492.1       4947.      -304.3       125.4      -505.6
        3412        3174.      -402.7       3022.      -1738.       93.26      -1930.
        3413        5432.      -503.4       5269.      -331.8       13.75      -855.9
        3414        4805.      -525.2       4503.      -337.4       7.387      -1173.
        3415        2938.      -472.1       2249.      -682.4       72.99      -2275.
        3416        3438.      -436.6       2668.      -377.1      -30.43      -2181.
        3417        5077.      -750.3       5232.      -332.1      -205.3      -222.4
        3418        4826.      -346.9       5087.      -545.3       14.82      -194.2
        3419        3917.      -455.7       4089.      -1426.       60.80      -352.5
        3420        2354.      -562.2       2796.      -2114.       82.02      -1515.
        3421        4209.      -544.5       4821.      -1281.      -2.613      -381.3
        3422        2445.      -522.0       3034.      -2175.       170.9      -1397.
        3423        2943.      -683.8       3739.      -1597.      -50.04      -345.1
        3424        3658.      -444.4       4243.      -1903.       17.54      -312.4
        3425        3139.      -456.9       3920.      -2057.      -17.05      -325.4
        3426        2359.      -624.3       3424.      -2229.       115.1      -1118.
        3427        3281.      -658.2       2283.      -211.4       27.09      -2287.
        3428        3841.      -586.3       3232.      -356.4       68.90      -1798.
        3429        4422.      -824.6       3933.      -320.0       39.16      -1444.
        3430        5137.      -466.2       4711.      -373.6       64.10      -1341.
        3431        4300.      -594.7       4163.      -314.9      -49.88      -954.0
        3432        2882.      -403.6       2933.      -1848.       106.0      -1855.
        3433        1787.      -548.9       1977.      -2053.       74.19      -1565.
        3434        2175.      -624.8       2961.      -2210.       165.2      -1246.
        3435        2496.      -500.3       3467.      -2223.       42.31      -900.5
        3436        2274.      -472.7       3196.      -2282.       71.37      -568.0
        3437        4500.      -553.0       4299.      -377.0       109.3      -648.9
        3438        3202.      -563.2       2828.      -1639.       103.0      -2010.
        3439        3104.      -571.8       2641.      -1486.       109.6      -2160.
        3440        3025.      -589.6       2461.      -1367.       99.96      -2184.
        3441        2733.      -519.4       2046.      -1211.       110.3      -2197.
        3442        3530.      -576.8       2475.      -1076.       116.9      -2208.
        3443        3284.      -596.9       2461.      -872.6       82.54      -2233.
        3444        4600.      -506.9       3778.      -365.5       29.10      -1946.
        3445        3046.      -478.8       2348.      -562.1       23.92      -2291.
        3446        3298.      -528.5       2355.      -390.9       34.39      -2307.
        3447        4137.      -655.5       4079.      -549.8       68.05      -378.8
        3448        4463.      -585.4       4620.      -819.4       104.8      -376.5
        3449        3565.      -699.6       3930.      -1257.      -45.66      -460.2
        3450        2890.      -411.0       3489.      -2039.       55.13      -1289.
        3451        2890.      -586.8       3618.      -2017.       16.44      -471.2
        3452        4489.      -522.5       4125.      -457.8       13.33      -1639.
        3453        2722.      -590.1       2718.      -1672.       35.88      -1733.
        3454        3867.      -544.3       4545.      -1560.      -43.95      -511.1
        3455        2620.      -466.7       3411.      -2163.       24.93      -503.6
        3456        5704.      -499.1       5603.      -339.0      -55.78      -385.7
        3457        3974.      -530.4       4176.      -526.3       1.994      -813.1
        3458        3154.      -623.5       3014.      -1776.       95.72      -1665.
        3459        3973.      -576.9       3676.      -478.6       26.09      -1798.
        3460        3390.      -603.3       2426.      -481.0       2.578      -2139.
        3461        3216.      -1107.       3680.      -963.1       54.05      -343.0
        3462        4064.      -748.9       3831.      -456.6      -63.89      -1175.
        3463        3227.      -534.1       2524.      -1127.       90.13      -2099.
        3464        3316.      -469.5       2811.      -1440.       83.76      -2094.
        3465        3521.      -499.5       4209.      -1883.      -33.49      -441.4
        3466        5069.      -323.8       4507.      -473.5      -3.400      -1499.
        3467        4330.      -695.7       4544.      -644.9       88.69      -371.6
        3468        3042.      -525.8       3570.      -1850.       130.3      -1586.
        3469        4906.      -275.2       5318.      -1424.       20.70      -544.2
        3470        2349.      -630.3       2656.      -1990.       5.194      -1425.
        3471        3239.      -487.3       3950.      -2130.       73.53      -1050.
        3472        3907.      -567.2       4352.      -1787.      -97.21      -440.3
        3473        2734.      -576.6       3601.      -2119.       52.86      -636.4
        3474        2974.      -594.9       4129.      -2116.       87.63      -854.9
        3475        4495.      -545.3       3755.      -506.5       51.31      -1901.
        3476        3315.      -560.8       2830.      -1423.       96.07      -1977.
        3477        4098.      -398.3       4090.      -447.5      -30.44      -1400.
        3478        2757.      -637.6       2651.      -1580.       42.69      -1820.
        3479        4252.      -552.3       4105.      -485.4       40.35      -960.8
        3480        2465.      -533.7       2951.      -1935.       58.42      -1473.
        3481        2938.      -469.4       3608.      -2071.       64.99      -1173.
        3482        4716.      -573.8       4638.      -495.8       71.08      -692.5
        3483        3084.      -553.1       2963.      -1535.       73.06      -1910.
        3484        3228.      -471.3       2754.      -1259.       101.8      -2078.
        3485        3755.      -420.1       3027.      -941.6       111.5      -2125.
        3486        3710.      -637.1       2993.      -500.0       43.40      -2026.
        3487        3568.      -517.6       2735.      -806.2       108.9      -2128.
        3488        4987.      -302.9       5120.      -630.5       54.01      -659.1
        3489        4112.      -826.5       4485.      -824.3       131.3      -506.9
        3490        4961.      -269.3       5084.      -1522.       48.06      -741.1
        3491        4334.      -493.4       4223.      -1354.       34.66      -657.0
        3492        4406.      -546.1       4092.      -557.0      -60.69      -1515.
        3493        4348.      -432.9       4763.      -1633.       23.32      -720.0
        3494        4280.      -252.7       4573.      -1636.       31.05      -1563.
        3495        2504.      -493.8       3095.      -2019.       112.4      -621.7
        3496        5298.      -390.5       5122.      -675.2       23.07      -1046.
        3497        4139.      -509.9       3825.      -572.7      0.1436      -1671.
        3498        3727.      -544.8       3030.      -753.7       70.21      -2002.
        3499        4129.      -481.5       3576.      -586.9       46.05      -1870.
        3500        4128.      -812.2       4142.      -537.3       130.7      -464.6
        3501        4149.      -790.9       4521.      -938.2       83.71      -540.2
        3502        3448.      -632.5       4051.      -1794.      -64.38      -659.3
        3503        2950.      -626.7       2564.      -1029.       84.43      -1983.
        3504        3425.      -581.7       3850.      -1717.       67.15      -1468.
        3505        4714.      -442.1       5273.      -1140.      -66.30      -492.6
        3506        3800.      -505.0       3300.      -1294.       68.90      -1848.
        3507        3403.      -523.8       4004.      -1905.       12.95      -610.5
        3508        3611.      -641.5       3462.      -557.3      -82.05      -1415.
        3509        3185.      -406.6       3473.      -1845.      -22.41      -1264.
        3510        2913.      -427.3       3260.      -1905.      -5.402      -1223.
        3511        2836.      -442.2       3227.      -1989.       67.71      -1001.
        3512        3036.      -596.4       3802.      -2032.       107.1      -793.0
        3513        3861.      -506.3       3318.      -591.4      -23.56      -1806.
        3514        3516.      -593.9       3296.      -1493.      -43.56      -1680.
        3515        4917.      -705.1       4847.      -597.5      -62.05      -1189.
        3516        3347.      -525.7       3286.      -1557.      -30.13      -1648.
        3517        5230.      -346.2       5043.      -615.8       43.79      -780.8
        3518        2861.      -631.0       3228.      -1793.       48.43      -1362.
        3519        3126.      -420.8       3687.      -1939.       31.76      -1106.
        3520        5683.      -291.7       5618.      -638.5       123.2      -475.1
        3521        3665.      -504.3       3213.      -1424.       13.38      -1771.
        3522        3258.      -678.8       2650.      -892.6       15.62      -2004.
        3523        3683.      -420.7       2762.      -601.7       102.3      -1997.
        3524        4060.      -299.4       4239.      -885.8      -88.71      -946.4
        3525        4752.      -160.8       4405.      -754.5      -23.82      -1434.
        3526        4603.      -420.6       4558.      -1404.       27.23      -765.3
        3527        3402.      -645.1       2819.      -1160.       130.7      -1896.
        3528        4327.      -401.5       3998.      -885.1      -6.413      -1885.
        3529        3465.      -543.9       3898.      -1600.       37.10      -1337.
        3530        5684.      -349.7       5860.      -940.3       132.2      -576.7
        3531        4336.      -404.3       4034.      -755.3       12.85      -1610.
        3532        3265.      -448.8       3703.      -1774.       51.53      -1162.
        3533        3070.      -537.3       3620.      -1720.       32.76      -1227.
        3534        5340.      -221.6       5429.      -1081.      -65.01      -568.6
        3535        3296.      -815.0       3064.      -760.3      -45.20      -1858.
        3536        4232.      -468.0       4673.      -1673.       70.75      -794.2
        3537        4961.      -329.2       5111.      -1252.       23.91      -570.8
        3538        3683.      -334.1       3800.      -1373.       17.76      -1621.
        3539        3323.      -424.6       3768.      -1918.       42.61      -778.2
        3540        4826.      -264.5       4756.      -823.7     -0.3930      -1318.
        3541        3223.      -475.8       3740.      -1892.       70.85      -946.3
        3542        3701.      -466.5       4233.      -1798.      -13.50      -780.7
        3543        3721.      -457.9       3361.      -740.6       46.79      -1769.
        3544        3667.      -239.2       3615.      -1460.      -6.413      -1541.
        3545        4043.      -843.3       4473.      -927.6      -57.26      -1144.
        3546        3472.      -523.3       3539.      -1515.       24.55      -1416.
        3547        3748.      -587.3       3830.      -791.0      -29.40      -745.1
        3548        3417.      -431.3       3899.      -1666.       28.52      -1262.
        3549        2989.      -502.4       3474.      -1829.       73.68      -1064.
        3550        4529.      -536.4       4672.      -761.7       142.0      -616.6
        3551        3473.      -451.7       3390.      -1309.       15.33      -1711.
        3552        4057.      -548.4       3786.      -875.0       85.55      -1711.
        3553        3476.      -541.3       3992.      -1653.       98.45      -1123.
        3554        3779.      -622.7       4480.      -1652.       87.32      -1011.
        3555        5291.      -370.3       5315.      -1000.       15.87      -705.6
        3556        3515.      -499.2       3890.      -1812.       46.48      -916.9
        3557        2972.      -551.3       2944.      -1391.       77.18      -1406.
        3558        4526.      -475.9       4481.      -1005.      -35.30      -1242.
        3559        5536.      -193.2       5294.      -893.9      -64.71      -730.4
        3560        4515.      -327.8       4390.      -919.6       70.45      -1363.
        3561        3328.      -588.9       3388.      -1467.       91.78      -1329.
        3562        5252.      -280.5       5074.      -1263.      -5.806      -723.5
        3563        4627.      -281.7       4422.      -907.0       82.81      -1526.
        3564        4300.      -469.3       4251.      -933.5      -56.90      -1028.
        3565        3587.      -471.0       3427.      -1100.      -10.60      -1331.
        3566        3664.      -580.9       3862.      -1325.       5.803      -852.5
        3567        3815.      -547.8       3720.      -1200.       68.59      -1298.
        3568        4135.      -373.5       3904.      -1072.       146.6      -1615.
        3569        3831.      -428.6       3573.      -1137.       89.57      -1453.
        3570        4199.      -587.9       4330.      -960.2      -108.2      -875.5
        3571        4620.      -504.2       4516.      -1070.      -10.79      -1157.
        3572        3675.      -546.3       4019.      -1556.       87.32      -1058.
        3573        3836.      -514.0       4319.      -1620.       87.29      -1170.
        3574        3971.      -475.3       4168.      -1511.       63.89      -931.0
        3575        4284.      -412.0       4393.      -1182.       44.50      -1101.
        3576        4816.      -446.0       4845.      -1083.      -30.13      -974.5
        3577        3349.      -587.0       3471.      -1468.       108.2      -1123.
        3578        3365.      -640.4       3578.      -1386.       28.82      -1009.
        3579        3215.      -410.8       1943.      -242.7       40.45      -2344.
        3580        3534.      -392.1       2747.      -659.4       75.66      -2134.
        3581        3289.      -498.5       2992.      -1215.       130.7      -1947.
        3582        4221.      -478.6       4609.      -1589.       121.7      -879.1
        3583        3582.      -572.6       4082.      -1724.       97.76      -979.9
        3584        4786.      -578.5       4663.      -1106.       13.88      -819.0
        3585        4100.      -335.6       3402.      -1041.       120.3      -1894.
        3586        4085.      -506.9       3790.      -667.9       45.74      -1690.
        3587        3890.      -669.4       3855.      -1179.      -3.281      -948.3
        3588        3692.      -512.9       3218.      -1265.       40.92      -1792.
        3589        3606.      -702.4       3442.      -1039.       68.56      -1730.
        3590        3663.      -525.6       3276.      -1142.       44.67      -1770.
        3591        3949.      -449.4       3988.      -1304.       122.3      -1255.
        3592        3826.      -489.0       4024.      -1288.       61.32      -1067.
        3593        4057.      -442.1       3946.      -1389.       131.0      -1193.
        3594        2913.      -679.7       3520.      -1712.       97.88      -1113.
        3595        3477.      -598.6       3697.      -1530.       83.39      -1229.
        3596        3506.      -619.1       3287.      -1233.       81.00      -1666.
        3597        3571.      -515.7       3339.      -1288.       78.83      -1511.
        3598        2065.       200.1       1258.      -1390.       143.1      -2006.
        3599        2151.       248.7       1521.      -1747.       243.3      -2040.
        3600        1852.       379.3       1660.      -1922.       263.6      -1945.
        3601        1510.       116.0       1729.      -1972.       250.9      -1883.
        3602        1314.       99.15       2023.      -2001.       243.4      -1688.
        3603        1139.       215.8       2307.      -1905.       40.27      -196.9
        3604        1089.      -171.4       2686.      -2180.       81.38      -443.7
        3605        1364.       140.4       3018.      -2113.       56.39      -720.7
        3606        1045.       78.02       2245.      -2111.       162.8      -893.8
        3607        1529.       139.2       2814.      -2250.       204.3      -1197.
        3608        1259.       149.4       2690.      -2063.       223.0      -1073.
        3609        1233.      -22.73       2478.      -2162.       210.2      -1275.
        3610        999.6       195.6       1738.      -1992.       171.4      -1485.
        3611        1482.       23.93       2042.      -2189.       215.6      -1497.
        3612        1577.       191.7       2659.      -2226.       119.6      -1383.
        3613        1146.       154.8       2487.      -1997.       205.0      -1365.
        3614        1420.       238.9       2443.      -2016.       199.5      -1567.
        3615        1680.       58.39       2424.      -2156.       239.5      -1660.
        3616        1371.       134.1       1961.      -1998.       213.0      -1731.
        3617        1795.       158.9       2087.      -2120.       208.9      -1777.
        3618        1444.       130.5       1909.      -1986.       226.0      -1800.
        3619        1563.       27.13       1583.      -2080.       231.4      -1841.
        3620        1797.      -125.2       1693.      -2019.       270.8      -2026.
        3621        1480.      -13.92       1429.      -2064.       259.1      -1936.
        3622        1686.       261.5       1287.      -1818.       259.1      -1993.
        3623        2585.       274.4       2142.      -1859.       235.8      -2106.
        3624        1652.      0.5324       1529.      -1963.       252.3      -2065.
        3625        1595.       275.2       1462.      -1885.       265.2      -1977.
        3626        1977.       77.90       1637.      -1741.       228.0      -2162.
        3627        2716.       232.0       1613.      -1522.       212.2      -2037.
        3628        1698.      -34.88       1420.      -1620.       244.9      -2191.
        3629        2177.       36.13       1397.      -1625.       244.8      -2057.
        3630        2756.      -23.49       1704.      -1493.       210.3      -2190.
        3631        2717.       174.4       1287.      -1108.       151.5      -1992.
        3632        2227.      -40.39       1332.      -1331.       126.2      -2170.
        3633        3128.      -37.47       1131.      -1005.       180.7      -2034.
        3634        3638.       9.863       1580.      -830.8       166.7      -2242.
        3635        2613.       57.29       1466.      -629.5       121.5      -2207.
        3636        2171.       366.5       1225.      -239.8       31.18      -1917.
        3637        1810.      -141.7       867.6      -424.6       68.18      -2157.
        3638        1050.       104.8       2689.      -1965.       67.32      -394.1
        3639        2497.       207.2       1206.      -399.0       36.19      -1915.
        3640        1123.       187.1       2575.      -1994.       226.5      -1231.
        3641        2978.       339.4       1344.      -792.2       127.8      -2035.
        3642        1545.       133.1       3071.      -2111.       63.40      -217.5
        3643        2531.       57.92       1329.      -233.5       37.99      -2172.
        3644        2309.       215.6       1134.      -584.0       56.00      -2005.
        3645        1986.       161.0       1037.      -1332.       117.3      -1950.
        3646        2589.       113.3       1491.      -1033.       153.3      -2249.
        3647        2487.      -12.07       1388.      -1153.       120.7      -2204.
        3648        1711.       127.3       3135.      -2247.       160.7      -982.1
        3649        1262.       340.3       2739.      -1965.       126.4      -610.9
        3650        1289.       67.80       2557.      -2141.       193.7      -1360.
        3651        1145.       194.6       1801.      -2099.       187.9      -1468.
        3652        2420.       224.9       1194.      -1230.       145.0      -1998.
        3653        1697.       327.9       188.5      -324.1      -28.10      -252.5
        3654        1428.       340.3       215.3      -548.6       2.011      -283.7
        3655        1874.       546.3       699.9      -711.4       80.28      -1448.
        3656        1351.       471.8       299.8      -911.9       21.94      -396.7
        3657        1226.       513.8       312.8      -950.6       7.778      -419.7
        3658        1262.       670.2       466.6      -1102.      -6.272      -630.8
        3659        780.2       826.4       416.0      -1093.      -73.44      -721.2
        3660        883.4       1041.       757.7      -1004.      -66.73      -910.3
        3661        1450.       436.6       1186.      -1650.       231.5      -1657.
        3662        844.0       1165.       839.9      -966.6      -62.72      -976.1
        3663        1260.       409.3       1283.      -1679.       248.0      -1645.
        3664        498.1       952.2       1036.      -651.8      -52.03      -1213.
        3665        1066.       437.6       1708.      -1657.       271.4      -1570.
        3666        573.8       415.0       1552.      -946.7       130.7      -1259.
        3667        219.6       763.9       1187.      -315.9      -16.40      -1061.
        3668        338.1       683.6       1208.      -394.0       26.22      -999.6
        3669        122.7       364.2       1615.      -239.6       23.40      -679.3
        3670        88.37       245.0       1368.      -194.0      -23.09      -300.8
        3671        603.1       345.7       2418.      -1206.       49.69      -176.6
        3672        165.4       492.6       1589.      -322.4       15.20      -195.0
        3673        280.9       311.0       2597.      -755.6       21.49      -194.4
        3674        295.0       380.1       1986.      -488.3       62.18      -409.7
        3675        585.7       360.6       2416.      -1259.       74.74      -364.5
        3676        194.7       295.5       1454.      -247.5       22.31      -554.7
        3677        278.1       400.5       1875.      -591.8       75.43      -589.4
        3678        768.7       394.3       2319.      -1327.       103.5      -524.3
        3679        415.3       373.0       2291.      -866.4       73.99      -373.0
        3680        175.2       321.5       1464.      -219.5       14.72      -426.6
        3681        477.9       484.5       1978.      -981.2       75.00      -558.6
        3682        761.4       370.5       2416.      -1434.       149.2      -741.9
        3683        218.0       344.4       1470.      -276.7       40.08      -749.2
        3684        753.4       523.0       2289.      -1461.       126.7      -898.4
        3685        472.0       357.7       2034.      -1107.       126.7      -740.9
        3686        416.1       335.2       1879.      -790.8       88.54      -761.1
        3687        186.5       467.9       1428.      -311.1       25.59      -850.1
        3688        323.8       364.5       1887.      -830.3       124.5      -888.0
        3689        548.1       339.8       2148.      -1128.       131.1      -901.9
        3690        239.9       497.7       1547.      -358.8       25.38      -920.7
        3691        298.4       490.5       1489.      -593.4       90.42      -944.9
        3692        764.6       498.3       2202.      -1455.       177.2      -1062.
        3693        298.0       653.9       1602.      -635.7       109.2      -1102.
        3694        581.0       519.9       1347.      -801.6       136.9      -1044.
        3695        799.3       426.6       2138.      -1336.       177.9      -1128.
        3696        1057.       484.7       2036.      -1530.       229.8      -1176.
        3697        608.8       418.9       1885.      -1148.       152.1      -1072.
        3698        358.8       603.1       1372.      -554.5       100.7      -979.3
        3699        617.7       727.3       1294.      -878.8       171.6      -1198.
        3700        675.1       585.1       1426.      -994.8       180.9      -1123.
        3701        905.2       412.3       2042.      -1537.       229.4      -1302.
        3702        448.0       686.4       1281.      -798.4       110.1      -1245.
        3703        851.0       417.0       1545.      -1534.       208.5      -1387.
        3704        403.4       778.7       1297.      -419.7       5.762      -1055.
        3705        506.4       626.3       1378.      -872.9       121.2      -1258.
        3706        613.5       584.2       1587.      -1057.       187.6      -1293.
        3707        664.8       355.3       1433.      -1293.       205.5      -1323.
        3708        609.3       490.5       1500.      -1088.       199.2      -1352.
        3709        884.7       668.4       1570.      -1542.       234.0      -1428.
        3710        486.4       780.7       1187.      -892.7       27.85      -1177.
        3711        573.1       654.7       1066.      -1028.       111.1      -1256.
        3712        816.1       399.8       1610.      -1479.       251.7      -1475.
        3713        1037.       484.1       1628.      -1619.       251.2      -1568.
        3714        865.8       446.9       1739.      -1316.       228.3      -1420.
        3715        712.3       531.6       1546.      -1122.       177.1      -1339.
        3716        735.6       570.2       1174.      -1181.       165.9      -1320.
        3717        875.3       477.5       1536.      -1474.       230.9      -1479.
        3718        759.9       636.7       1280.      -823.4      -16.67      -1119.
        3719        1069.       387.3       1557.      -1612.       264.6      -1582.
        3720        827.1       502.0       1414.      -1369.       241.3      -1430.
        3721        565.9       972.9       1012.      -728.3      -47.50      -1123.
        3722        617.3       936.6       793.1      -894.8      -24.95      -1095.
        3723        1015.       722.8       1161.      -1163.       130.7      -1304.
        3724        1074.       445.9       1490.      -1389.       193.1      -1447.
        3725        1088.       440.8       1433.      -1606.       236.4      -1591.
        3726        752.1       1004.       865.1      -930.2      -69.08      -1039.
        3727        843.9       834.7       984.8      -1176.       105.9      -1255.
        3728        1333.       462.5       1467.      -1632.       248.0      -1621.
        3729        967.6       770.9       889.1      -1162.       79.69      -1094.
        3730        1148.       510.0       1119.      -1278.       172.1      -1305.
        3731        1257.       383.2       1146.      -1541.       228.0      -1490.
        3732        1069.       442.8       1203.      -1414.       203.5      -1434.
        3733        943.7       793.2       957.0      -1169.       94.94      -1174.
        3734        987.2       644.4       945.4      -1215.       126.0      -1194.
        3735        1006.       620.2       1050.      -1392.       190.7      -1362.
        3736        902.8       987.3       597.3      -1041.      -58.68      -835.9
        3737        1468.       257.2       1048.      -1614.       253.7      -1679.
        3738        1215.       514.2       959.6      -1542.       236.2      -1531.
        3739        1230.       620.6       942.1      -1480.       207.6      -1445.
        3740        814.0       1023.       630.6      -1023.      -68.81      -881.7
        3741        1089.       852.5       682.9      -1064.      -57.34      -781.0
        3742        1074.       820.5       821.6      -1202.       76.28      -1046.
        3743        1454.       297.7       1048.      -1496.       247.9      -1488.
        3744        1340.       769.6       835.9      -1216.       72.22      -1001.
        3745        1354.       667.6       811.8      -1303.       157.3      -1074.
        3746        1556.       378.6       1040.      -1581.       270.9      -1657.
        3747        1257.       804.3       586.6      -1112.      -67.75      -675.4
        3748        1130.       550.7       551.8      -1251.       78.20      -968.3
        3749        1498.       371.4       734.3      -1442.       254.1      -1441.
        3750        1230.       491.7       882.6      -1444.       252.1      -1406.
        3751        1111.       679.6       701.3      -1234.       76.76      -950.5
        3752        1991.       510.7       861.9      -1280.       148.4      -1035.
        3753        1270.       419.5       639.4      -1321.       165.9      -1153.
        3754        1783.       446.8       1158.      -1508.       266.6      -1645.
        3755        1644.       683.2       617.4      -1168.       89.70      -820.5
        3756        1563.       426.0       862.0      -1431.       231.0      -1539.
        3757        1454.       428.1       623.5      -1327.       216.2      -1270.
        3758        1247.       815.8       421.8      -1083.      -46.54      -583.5
        3759        1136.       751.4       375.7      -1064.      -24.53      -539.0
        3760        1360.       717.8       415.5      -1150.       82.66      -796.0
        3761        1783.       420.4       698.3      -1291.       209.7      -1294.
        3762        1791.       465.5       951.3      -1354.       183.9      -1575.
        3763        1264.       665.9       346.7      -1030.      -17.29      -491.2
        3764        1536.       501.9       405.0      -1158.       173.2      -1045.
        3765        1885.       395.8       837.9      -1200.       212.4      -1291.
        3766        1436.       444.6       346.1      -973.5       77.45      -661.8
        3767        1798.       581.6       589.2      -1029.       117.9      -930.7
        3768        1971.       337.3       609.6      -1129.       175.2      -1276.
        3769        2150.       421.9       970.1      -1230.       197.9      -1551.
        3770        1629.       523.9       581.7      -1082.       146.7      -1012.
        3771        1308.       487.9       329.4      -1021.       94.67      -715.1
        3772        1730.       548.7       534.0      -954.0       107.1      -873.7
        3773        1893.       435.8       670.1      -1055.       168.7      -1206.
        3774        2192.       399.2       854.7      -1134.       198.1      -1517.
        3775        1611.       420.5       317.7      -810.8       52.16      -616.5
        3776        2024.       476.9       848.9      -1011.       182.7      -1451.
        3777        1821.       490.2       474.2      -862.2       92.26      -882.4
        3778        1395.       565.8       270.1      -832.6       20.12      -375.5
        3779        1756.       478.0       292.6      -673.5       15.36      -323.3
        3780        1924.       447.8       531.6      -806.5       101.7      -1186.
        3781        2349.       407.4       834.1      -859.4       136.5      -1452.
        3782        1623.       388.8       298.1      -726.2       44.14      -609.3
        3783        2135.       405.9       520.0      -659.8       74.89      -880.2
        3784        1927.       487.1       599.6      -688.9       93.00      -1168.
        3785        1938.       451.1       245.7      -495.2       14.58      -527.7
        3786        1833.       497.2       460.2      -535.7       76.71      -838.9
        3787        2199.       345.0       587.3      -547.7       68.63      -1442.
        3788        1748.       511.3       363.9      -604.5       39.10      -562.5
        3789        1870.       509.6       405.8      -429.8       82.90      -819.0
        3790        1656.       512.5       306.7      -279.5       52.48      -588.5
        3791        2002.       610.5       652.9      -172.8       55.10      -924.2
        3792        2189.       338.3       735.5      -191.9       39.06      -1288.
        3793        2362.       558.5       852.9      -382.8       44.11      -1374.
        3794        1614.       360.3       175.7      -230.8      0.8815      -294.4
        3795        1668.       299.9       244.4      -116.4       1.460      -311.7
        3796        207.1       361.7       1592.      -528.0       85.57      -774.1
        3797        1135.       709.3       940.9      -1272.       131.7      -1192.
        3798        1739.       403.1       297.2      -165.8       48.68      -591.0
        3799        1879.       461.3       292.1      -373.8       29.70      -542.1
        3800        1829.       449.7       413.2      -762.9       65.54      -900.9
        3801        1618.       499.2       340.1      -886.5       72.92      -631.9
        3802        268.3       455.4       1766.      -460.5       100.1      -686.8
        3803        585.3       755.6       1457.      -723.6       141.9      -1178.
        3804        1030.       851.6       802.3      -1180.       70.62      -1067.
        3805        1605.       485.1       614.8      -1258.       174.5      -1035.
        3806        1326.       546.3       513.3      -1211.       104.0      -854.6
        3807        1936.       380.2       506.2      -346.6       74.51      -980.0
        3808        713.6       654.6       1749.      -978.4       189.7      -1221.
        3809        933.7       491.4       1347.      -1112.       156.5      -1301.
        3810        1505.       329.1       157.2      -451.8      -16.78      -260.0
        3811        1300.       420.8       211.3      -751.6      -5.454      -343.6
        3812        432.5       831.7       1171.      -493.4       12.59      -1111.
        3813        359.2       887.5       1122.      -548.1      -8.199      -1130.
        3814        490.2       750.9       1329.      -608.9      -9.331      -1125.
        3815        513.4       827.5       1198.      -721.8       12.19      -1087.
        3816        824.1       481.3       1496.      -1317.       225.3      -1399.
        3817        718.1       534.9       1207.      -1275.       195.0      -1376.
        3818        1298.       581.1       397.7      -1110.       99.91      -777.7
        3819        693.7       523.8       1327.      -994.1       94.25      -1251.
        3820        1500.       420.2       492.1      -1218.       166.0      -1030.
        3821        1906.       539.8       578.6      -537.5       107.9      -1129.
        3822        1396.       400.4       744.5      -1406.       228.3      -1350.
        3823        253.5       478.3       1527.      -564.6       99.48      -874.8
        3824        427.6       417.6       1731.      -846.9       131.5      -1007.
        3825        1859.       556.4       622.3      -895.8       137.5      -1146.
        3826        719.5       287.3       2066.      -1238.       206.9      -1239.
        3827        1778.       547.3       631.5      -999.9       147.1      -1047.
        3828        1431.       570.0       948.4      -1341.       180.7      -1184.
        3829        1254.       648.3       928.9      -1367.       174.3      -1260.
        3830        1303.       428.5       717.0      -1373.       201.9      -1288.
        3831        677.4       613.4       1202.      -1125.       178.6      -1295.
        3832        1839.       417.0       847.6      -1336.       195.6      -1195.
        3833        1489.       580.0       753.4      -1335.       177.0      -1201.
        3834        4358.      -163.9       2292.       35.73       26.89      -2022.
        3835        4096.       255.7       1249.       69.80       12.18      -1377.
        3836        1909.       147.4      -37.73       129.9       17.47      -26.49
        3837        5467.      -267.3       3305.       19.66       9.082      -2024.
        3838        5426.      -245.7       3706.       22.00      -4.469      -1935.
        3839        6688.      -467.7       4603.       34.08       1.720      -1809.
        3840        7012.      -487.7       5135.       32.35     -0.1717      -1677.
        3841        7462.      -237.3       5834.       74.27       9.614      -1564.
        3842        8377.      -214.7       6853.       142.8      -6.502      -1508.
        3843        8231.      -158.1       6915.       54.48       7.142      -1390.
        3844        8680.      -406.2       7761.       29.98       34.75      -1246.
        3845        9156.      -377.6       8259.       40.19       12.81      -1091.
        3846        9326.      -357.5       8789.       23.25      -3.301      -979.6
        3847        9549.      -587.2       9180.      -14.99       57.92      -847.9
        3848       1.1175E+04  -77.33      1.0583E+04   40.87      -32.16      -693.5
        3849        9486.      -451.7       9315.       75.85      -62.74      -462.9
        3850        9734.      -241.1       9840.       114.0       25.45      -292.3
        3851       1.0339E+04  -303.5      1.0159E+04   194.3       7.522      -208.8
        3852       1.1720E+04   482.7      1.1856E+04   189.5      -53.47      -138.2
        3853        4478.       283.1       1610.       47.47       54.92      -1650.
        3854        3919.      -186.9       1729.       30.63       40.24      -1884.
        3855        1911.       383.4       202.5       116.8      -19.84      -153.8
        3856        2634.       265.7       228.8       114.2      -21.40      -439.9
        3857        3111.       272.6       520.9       92.26      -12.24      -756.9
        3858        3674.       280.5       826.5       95.38      -16.90      -1050.
        3859        6991.      -89.30       3394.       44.70       27.76      -1295.
        3860        5505.      -112.1       945.5       28.94       20.88      -896.6
        3861        2666.       25.43      -235.5       160.5       11.94       36.72
        3862        7832.      -260.3       4300.       37.89       3.395      -1289.
        3863        8669.      -165.2       5510.       42.97       7.931      -1233.
        3864        9399.      -161.1       6646.      -3.951       3.044      -1109.
        3865       1.0288E+04  -224.7       7587.       31.16       12.63      -990.3
        3866       1.0855E+04  -234.1       8601.       49.17       13.01      -916.7
        3867       1.2459E+04  -38.44      1.0091E+04   86.46       12.47      -865.6
        3868       1.1698E+04  -185.0      1.0039E+04   60.80      -30.08      -814.5
        3869       1.2610E+04  -156.3      1.1271E+04   83.28       29.52      -748.2
        3870       1.2983E+04  -191.3      1.2000E+04   75.39       30.22      -706.9
        3871       1.3725E+04  -199.6      1.2955E+04   15.65      -8.967      -626.1
        3872       1.3835E+04  -272.7      1.3398E+04   16.87       52.01      -518.1
        3873       1.4519E+04  -284.3      1.4220E+04  -45.37      -26.19      -387.2
        3874       1.5008E+04  -210.4      1.4545E+04   79.22      -65.75      -246.6
        3875       1.4459E+04  -348.5      1.4478E+04   150.0       30.03      -141.5
        3876       1.5934E+04  -102.5      1.5568E+04   52.96       16.52      -120.5
        3877       1.5779E+04  -184.3      1.5593E+04   126.4      -93.09      -31.32
        3878        5669.      -105.3       1680.       13.56       54.32      -1047.
        3879        6314.      -166.8       2424.       48.01       44.03      -1195.
        3880        2934.       190.3      -98.54       127.2      -24.13      -82.40
        3881        3684.      -162.8      -201.9       100.9      -9.694      -284.8
        3882        4247.      -72.83       310.6       84.93      -33.97      -476.1
        3883        4913.      -122.0       762.2       49.93      -21.67      -670.0
        3884        2667.      -124.2       4995.      -1999.      -26.70       55.05
        3885        1130.       248.7       3955.      -1352.      -2.593       69.11
        3886       -131.7       3.091       2114.       4.135      0.1420       149.9
        3887        9607.      -143.9      1.0034E+04  -90.19      -32.63       234.3
        3888       1.1174E+04  -57.20      1.1340E+04  -233.2      -51.84       168.6
        3889       1.0281E+04  -282.2      1.0524E+04  -334.9      -3.123       112.1
        3890        8906.      -335.0       9020.      -513.0       26.73       52.11
        3891        8898.      -597.0       9477.      -597.5      -19.13       69.37
        3892       1.0395E+04  -103.6      1.1303E+04  -830.8      -40.63       13.96
        3893        8799.      -267.4       9636.      -990.9       45.71       33.08
        3894        7959.      -675.7       9042.      -1115.      -5.839       26.45
        3895        7768.      -589.7       8757.      -1263.       24.83       58.07
        3896        7200.      -298.2       8554.      -1357.       15.61       49.77
        3897        6443.      -310.6       7699.      -1449.       10.61       60.33
        3898        5626.      -328.7       7292.      -1540.       16.97       77.98
        3899        5014.      -534.9       7186.      -1653.       3.233       1.716
        3900        4552.      -481.1       6822.      -1814.       7.742      -44.44
        3901        3889.      -416.7       6282.      -1965.       5.677      -14.17
        3902        2964.      -196.0       5053.      -2053.       20.04       25.98
        3903        1893.       13.35       4596.      -1825.       42.05       68.90
        3904        1589.       321.3       4646.      -1596.       20.10       68.87
        3905        604.7       348.5       3124.      -980.9      -4.510       131.7
        3906        467.2       541.5       3060.      -548.4       36.14       153.9
        3907        135.1       182.0       2900.      -194.6       18.29       142.9
        3908        3183.      -401.1       7799.      -1296.      -9.509       65.13
        3909        1039.       77.81       5197.      -854.2       4.396       87.95
        3910       -406.6      -195.9       2966.       32.22      -8.264       102.8
        3911       1.6090E+04   108.3      1.6173E+04  -38.53      -46.63       207.1
        3912       1.4972E+04   86.08      1.5999E+04  -172.7      -38.07       180.0
        3913       1.4997E+04  -225.8      1.5329E+04  -196.2       36.04       153.7
        3914       1.3883E+04  -371.7      1.4418E+04  -225.1       12.62       119.6
        3915       1.3677E+04  -135.8      1.4131E+04  -324.5      -43.63       105.6
        3916       1.4030E+04   42.50      1.4975E+04  -501.4      -10.99       1.516
        3917       1.2673E+04  -345.4      1.3666E+04  -572.0       14.62       15.08
        3918       1.2090E+04  -280.9      1.3215E+04  -686.7       12.95       16.31
        3919       1.1241E+04  -149.7      1.2668E+04  -768.0       26.16       19.41
        3920       1.0416E+04  -185.1      1.2244E+04  -801.7       21.97       46.93
        3921        9401.      -218.0      1.1610E+04  -844.0       7.147       51.13
        3922        8552.      -304.1      1.1039E+04  -920.4       15.63       28.45
        3923        7374.      -306.6      1.0145E+04  -1000.       23.59       5.071
        3924        6595.      -216.7       9793.      -1116.       4.190      -17.63
        3925        5416.      -230.6       8689.      -1245.       19.47      -28.88
        3926        4428.      -116.0       8045.      -1308.       22.89       35.81
        3927        2446.      -2.581       6704.      -1177.       26.02       57.69
        3928        1729.       43.50       6009.      -1034.       18.42       80.54
        3929        335.1      -102.3       4989.      -617.0       19.35       123.5
        3930       -7.222      -10.15       4268.      -314.0       9.201       129.4
        3931       -284.6      -170.5       3718.      -81.78       14.90       89.73
        3932        1379.      -516.7       67.33      -93.23      -52.27       206.4
        3933        1783.      -175.8       170.2      -189.0      -89.93       185.0
        3934        996.4      -516.1       9.386      -309.6      -146.1       199.7
        3935        1383.      -285.3       112.1      -350.2      -141.7       183.6
        3936        1377.      -331.3       104.2      -415.8      -192.7       142.4
        3937        1381.      -364.8       108.2      -472.0      -227.3       124.4
        3938        1118.      -268.3       84.47      -571.9      -254.9       118.6
        3939        1155.      -305.0      -33.67      -621.2      -278.7       106.9
        3940        1446.      -160.6       304.5      -683.9      -331.8       72.89
        3941        1126.      -184.8       174.5      -692.5      -373.4       60.19
        3942        1191.      -93.96       145.8      -704.4      -378.0       38.51
        3943        1207.       93.93       247.7      -769.9      -411.3       4.179
        3944        1219.      -48.41       313.4      -812.6      -435.7      -58.49
        3945        954.5       75.69       280.9      -821.3      -466.9      -99.87
        3946        1044.       83.50       340.8      -777.2      -478.2      -113.0
        3947        922.8       168.6       367.5      -716.8      -513.4      -132.5
        3948        716.4       203.1       438.8      -695.9      -535.5      -194.5
        3949        783.2       150.0       457.9      -627.0      -530.6      -263.9
        3950        594.5       111.5       600.4      -562.6      -500.6      -336.0
        3951        893.8       252.9       774.4      -496.7      -499.3      -386.9
        3952        602.2       220.6       540.5      -447.1      -513.9      -433.9
        3953        472.0       183.0       492.0      -373.9      -519.4      -497.4
        3954        441.0       185.4       689.5      -294.5      -521.2      -589.6
        3955        532.4       218.0       801.8      -215.3      -494.9      -662.3
        3956        388.4       100.4       770.4      -165.4      -490.2      -733.3
        3957        276.3       66.50       876.2      -105.1      -487.3      -784.6
        3958        383.5       146.5       1103.      -84.07      -457.2      -798.2
        3959        345.6      -17.02       1045.      -33.51      -422.4      -826.0
        3960        260.5       97.83       1200.       24.56      -381.0      -838.1
        3961        200.8      -196.3       915.1       69.29      -356.7      -808.5
        3962        192.3      -175.4       1201.       107.9      -374.2      -840.4
        3963        183.8      -175.5       910.2       128.6      -339.1      -858.2
        3964        182.0      -146.5       1486.       175.8      -308.0      -821.4
        3965        110.6      -196.1       1403.       172.8      -248.8      -794.3
        3966        32.19      -371.6       1230.       197.5      -229.9      -711.9
        3967        39.74      -298.7       1753.       198.9      -196.7      -595.5
        3968        78.77      -484.7       1131.       212.0      -148.3      -508.2
        3969        16.80      -527.9       1561.       250.2      -134.6      -415.7
        3970        120.6      -551.2       1394.       220.9      -82.32      -290.9
        3971        71.76      -579.9       1655.       199.0      -70.94      -148.9
        3972        4084.      -44.17       9345.      -789.3       19.54      -14.29
        3973        4711.       169.5      1.0826E+04  -801.5       86.55      -56.35
        3974        4371.       39.17       9747.      -779.6       179.5      -370.6
        3975        4427.       213.1       9156.      -792.3       239.7      -364.3
        3976        4461.       77.48       8784.      -807.2       230.6      -325.7
        3977        4645.      -15.59       8492.      -878.6       340.9      -372.1
        3978        5205.       50.70       8923.      -891.1       387.4      -496.3
        3979        5610.      -107.3       8513.      -874.2       443.7      -565.2
        3980        5074.       59.52       7845.      -792.4       449.7      -528.4
        3981        5825.      -117.8       7922.      -756.0       461.7      -575.5
        3982        6034.       121.6       7477.      -721.2       480.3      -720.5
        3983        5878.       178.3       6469.      -682.5       462.4      -700.8
        3984        6536.      -95.90       6842.      -688.8       437.6      -709.3
        3985        6730.       140.0       6272.      -669.0       439.4      -695.4
        3986        7450.       18.15       6221.      -744.7       478.3      -757.0
        3987        7773.      -59.03       6088.      -708.4       477.9      -808.7
        3988        7887.      -243.0       5358.      -563.4       414.8      -848.6
        3989        7996.       85.36       5194.      -536.8       386.8      -791.2
        3990        8819.       131.7       5287.      -471.7       350.9      -807.7
        3991        9137.       63.96       5006.      -393.4       249.5      -839.1
        3992        9325.      -5.647       4921.      -350.2       160.8      -804.8
        3993        9326.      -233.3       4309.      -293.6       193.5      -784.6
        3994        9301.      -119.4       4322.      -260.8       195.5      -842.2
        3995        9849.      -167.9       4748.      -129.1       117.0      -896.9
        3996        9027.       10.50       4126.      -21.69       9.153      -824.2
        3997        699.8       81.35       7071.      -505.0       12.41      -53.67
        3998        949.8       98.44       7357.      -537.4       12.59      -106.9
        3999        984.1       115.6       7099.      -590.1       43.11      -238.8
        4000        1193.       182.3       7452.      -604.4       101.4      -281.7
        4001        945.3       169.4       6542.      -558.6       52.53      -352.9
        4002        955.4       158.1       6288.      -619.2       63.25      -327.5
        4003        1435.       76.91       6088.      -604.0       27.12      -385.1
        4004        1656.       321.5       5825.      -600.1       61.80      -434.3
        4005        1733.       309.7       5390.      -600.7       48.73      -480.5
        4006        1981.       348.8       5072.      -639.1      -29.43      -448.9
        4007        2245.       292.6       4863.      -664.1      -41.87      -506.4
        4008        2540.      -46.65       4368.      -674.0      -12.88      -599.4
        4009        2689.       132.1       3904.      -611.4      -24.91      -663.2
        4010        3048.       259.6       3650.      -659.3      -28.42      -585.4
        4011        3361.      -105.1       3424.      -659.1      -50.10      -653.2
        4012        3861.       349.6       3263.      -615.5      -28.20      -653.5
        4013        4221.       254.2       2737.      -554.7      -79.67      -640.1
        4014        4315.       158.2       2533.      -572.2      -66.91      -616.9
        4015        4927.       81.42       2279.      -593.9      -38.42      -612.7
        4016        5461.      -28.06       2105.      -481.7      -40.07      -610.0
        4017        5451.       153.4       1912.      -481.3      -32.11      -666.4
        4018        5861.       141.2       1774.      -432.4      -69.35      -610.7
        4019        6101.       82.89       1363.      -389.8      -70.81      -588.5
        4020        6225.       181.3       1410.      -317.1      -13.14      -571.1
        4021        6662.       139.5       1453.      -268.1      -17.41      -607.7
        4022        6395.       107.7       1042.      -365.0       16.42      -590.9
        4023        7336.      -96.66       1104.      -209.6       1.682      -537.0
        4024        7052.       190.9       774.3      -135.1      -18.49      -551.3
        4025        7376.       55.64       602.3      -51.46      -9.916      -559.3
        4026       -703.2       45.80       4044.       61.27      -109.2      -12.43
        4027       -475.2       228.3       4381.       73.36      -166.8      -72.15
        4028       -428.2       216.4       4144.       81.75      -237.7      -99.75
        4029       -511.6       85.46       4264.       57.57      -332.4      -146.4
        4030       -601.6      -41.75       3589.       75.62      -452.2      -228.9
        4031       -458.5       14.75       3710.       86.94      -509.3      -254.4
        4032       -487.7      -31.23       3585.       98.17      -608.3      -299.4
        4033       -320.5       141.0       3215.       99.98      -682.3      -261.8
        4034       -301.9       146.9       3268.       112.5      -741.0      -267.6
        4035       -127.8       292.7       3033.       99.43      -797.9      -282.8
        4036       -120.2       290.6       2739.       74.50      -842.9      -260.9
        4037       -1.785       295.9       2696.       55.45      -899.1      -275.9
        4038        86.38       265.4       2501.       46.91      -934.5      -260.9
        4039        204.6       173.6       2283.       40.29      -980.6      -277.9
        4040        240.6       298.7       2120.      -18.34      -995.9      -313.7
        4041        488.0       414.9       2046.       5.614      -1038.      -223.1
        4042        568.1       334.7       1721.      -19.74      -1059.      -188.5
        4043        676.1       340.6       1425.      -50.41      -1087.      -143.5
        4044        800.5       242.6       1277.      -91.22      -1096.      -141.1
        4045        1000.       370.9       1192.      -116.8      -1098.      -114.5
        4046        1154.       421.5       916.9      -120.4      -1105.      -76.76
        4047        1350.       356.9       892.5      -120.6      -1100.      -40.78
        4048        1503.       409.1       745.2      -119.0      -1093.      -14.26
        4049        1730.       424.3       625.4      -190.7      -1091.      -2.016
        4050        2219.       331.3       557.3      -205.7      -1044.       8.875
        4051        1999.       374.0       306.6      -220.4      -1055.       23.44
        4052        2044.       193.8       174.8      -261.4      -1042.       54.82
        4053        2332.       167.8       115.5      -247.4      -984.1       77.84
        4054        2656.       282.2       80.80      -255.8      -939.4       74.63
        4055        2858.       229.7      -16.30      -273.1      -890.5       68.12
        4056        3056.       233.2      -155.0      -290.6      -819.8       60.47
        4057        3287.       24.91      -294.1      -223.4      -768.4       65.44
        4058        3208.       262.9      -194.5      -194.9      -707.4       79.34
        4059        3473.       263.9      -205.3      -212.7      -639.6       91.90
        4060        3611.       56.71      -394.4      -165.0      -545.3       74.73
        4061        3504.       19.18      -514.0      -183.6      -459.9       61.26
        4062        3911.       36.89      -483.6      -155.6      -359.6       56.96
        4063        3915.       88.28      -600.5      -118.4      -257.7       47.69
        4064        4049.       74.05      -605.1      -55.48      -166.1       54.09
        4065        3824.       131.0      -509.8      -39.47      -87.05       38.60
        4066        9316.      -99.51       7242.      -626.2       536.6      -777.4
        4067       1.0572E+04   332.7       6920.      -361.5       367.8      -846.8
        4068       1.1107E+04  -202.2       6225.      -309.8       214.5      -810.3
        4069       1.9146E+04   96.06      1.8938E+04  -107.2      -29.53      -24.32
        4070       1.8056E+04   679.0      1.8917E+04  -275.6       31.31       82.57
        4071        7866.       230.7       8113.      -687.0       520.0      -694.5
        4072       1.7516E+04   514.5      1.8828E+04  -357.4       62.61       86.27
        4073       1.6528E+04   467.8      1.7971E+04  -434.5       58.22       28.27
        4074        7283.       161.9       9070.      -741.8       567.4      -541.7
        4075       1.5358E+04   394.2      1.7113E+04  -465.6       53.60      -18.17
        4076       1.4313E+04   408.7      1.6374E+04  -509.4       60.55      -6.255
        4077        6784.       75.05      1.0154E+04  -798.2       444.8      -455.4
        4078       1.3256E+04   355.4      1.5776E+04  -531.2       65.11       13.28
        4079       1.2281E+04   613.1      1.5651E+04  -603.4       97.69       29.11
        4080       1.0526E+04   249.4      1.4083E+04  -650.6       111.9       49.97
        4081        6094.       211.5      1.0923E+04  -798.0       203.3      -256.7
        4082        9117.       332.5      1.2955E+04  -735.7       98.02       42.56
        4083        7466.       203.7      1.1891E+04  -802.6       64.31       15.43
        4084       1.1433E+04  -19.84       6431.      -92.44       145.9      -827.6
        4085       1.0313E+04   120.1       6114.      -388.1       210.6      -773.6
        4086       1.0032E+04   127.2       5999.      -273.5       224.0      -818.4
        4087       1.0001E+04   194.0       6837.      -436.8       403.8      -748.9
        4088        9017.       18.54       6469.      -512.1       410.2      -819.0
        4089        9031.      -102.3       6892.      -488.3       472.8      -788.3
        4090        8526.       72.14       7348.      -724.9       557.7      -689.1
        4091        8131.       65.71       7459.      -683.8       514.0      -691.8
        4092        7513.       100.6       8315.      -693.6       565.6      -683.3
        4093        7400.       282.1       8712.      -706.1       576.1      -650.5
        4094        6797.       104.3       9266.      -715.9       491.2      -528.7
        4095        7046.       10.79       9770.      -752.1       489.8      -563.6
        4096        6586.      -3.112      1.0376E+04  -878.2       400.7      -357.7
        4097        6247.       209.7      1.0325E+04  -886.2       282.7      -282.7
        4098        6142.       159.5      1.0533E+04  -835.5       270.3      -351.3
        4099        6100.       397.5      1.1010E+04  -815.3       140.7      -72.59
        4100       1.8238E+04  -53.03      1.8012E+04   84.02      -35.48      -117.6
        4101       1.9175E+04   899.4      1.8720E+04   65.29      -22.18      -88.22
        4102       1.9066E+04   641.3      1.8691E+04   51.61       37.62      -262.0
        4103       1.8986E+04   504.8      1.8221E+04   44.96       53.75      -308.0
        4104       1.8521E+04   584.5      1.7602E+04   3.657       61.25      -384.1
        4105       1.7098E+04   254.4      1.5913E+04  -6.861       68.75      -502.5
        4106       1.6473E+04   182.1      1.4913E+04   77.80       37.58      -460.0
        4107       1.5887E+04   458.8      1.4025E+04   72.89      -24.10      -521.4
        4108       1.5119E+04   341.6      1.2909E+04   44.39       6.305      -532.7
        4109       1.4956E+04   509.8      1.2343E+04   34.28       59.12      -549.8
        4110       1.4275E+04   388.4      1.0852E+04   33.28       89.43      -651.5
        4111       1.3051E+04   249.3       9407.       37.27       97.58      -704.3
        4112       1.8455E+04   690.4      1.9024E+04  -226.2      -79.57       92.50
        4113       1.8506E+04   193.7      1.8984E+04  -152.1      -30.20       64.94
        4114       2.0332E+04   318.5      1.9674E+04   26.56       120.7      -155.5
        4115       1.7661E+04   298.1      1.8770E+04  -363.7       97.65      -77.17
        4116        9559.     -0.4625      1.3769E+04  -742.2       170.9      -76.18
        4117        7853.      -26.62      1.2012E+04  -802.9       157.8      -104.5
        4118       1.4754E+04   65.96      1.1357E+04  -83.32       133.4      -680.8
        4119       1.6550E+04   268.1      1.4553E+04   48.14       25.42      -538.7
        4120       1.0676E+04   1.148       8837.      -468.1       561.4      -665.0
        4121        9303.       368.4       9468.      -666.8       616.9      -616.6
        4122        8700.       364.3       9795.      -676.0       615.1      -596.6
        4123       1.3500E+04   284.7      1.5935E+04  -535.6       159.7      -85.46
        4124        7553.       196.1      1.1627E+04  -810.8       309.1      -252.2
        4125        5902.       295.0      1.0715E+04  -812.4       21.79      -15.03
        4126       1.9088E+04   442.5      1.9171E+04   30.97      -35.62      -166.9
        4127        9194.       103.5       8471.      -634.3       541.2      -659.4
        4128       1.8020E+04   85.81      1.7579E+04  -53.51       23.24      -304.6
        4129       1.8278E+04   366.1      1.7345E+04  -39.36       175.2      -381.0
        4130       1.1753E+04   137.7       7519.      -303.6       201.5      -772.2
        4131       1.3118E+04  -36.96       9353.      -150.0       164.5      -716.2
        4132       1.8080E+04   129.2      1.8861E+04  -140.7       96.23      -11.21
        4133       1.8337E+04  -108.2      1.8613E+04  -113.0       94.88      -101.7
        4134       1.5729E+04   430.7      1.7254E+04  -479.0       98.72      -128.4
        4135        8194.       310.2      1.0260E+04  -704.1       519.1      -469.3
        4136       1.6437E+04   217.4      1.7688E+04  -432.9       139.1      -90.98
        4137        8210.       347.6      1.0699E+04  -648.0       496.7      -480.5
        4138       1.5143E+04   525.7      1.7292E+04  -505.9       143.5      -127.3
        4139       1.2440E+04   55.17      1.5636E+04  -612.4       197.5      -105.2
        4140       1.0827E+04  -59.92      1.4273E+04  -650.2       236.5      -99.57
        4141        8087.       236.1      1.1659E+04  -719.7       462.9      -316.0
        4142       1.2222E+04   176.1       7818.       8.432       95.47      -760.3
        4143       1.5286E+04   240.0      1.3157E+04   64.85       45.80      -555.3
        4144       1.7618E+04   6.387      1.5685E+04   115.8       30.32      -465.0
        4145       1.7198E+04   370.4      1.6320E+04   34.40       151.7      -396.0
        4146       1.8503E+04   407.1      1.7905E+04  -141.2       175.2      -295.9
        4147        9505.       331.6       9464.      -635.3       589.2      -653.5
        4148        8627.       233.9      1.0190E+04  -682.7       583.4      -509.5
        4149        8280.       124.3      1.1252E+04  -675.4       501.1      -440.6
        4150        7663.       73.18      1.0988E+04  -790.0       389.0      -270.6
        4151        7498.       223.9      1.1414E+04  -769.6       279.2      -253.7
        4152       2.0207E+04   386.3      1.9955E+04  -63.77      -169.6      -269.7
        4153       1.0211E+04   12.59       9069.      -639.4       560.8      -615.0
        4154       1.0136E+04  -7.042       8177.      -454.4       504.7      -734.8
        4155       1.0682E+04   175.5       8183.      -462.4       448.2      -811.4
        4156       1.0495E+04   80.41       7799.      -391.3       420.5      -772.1
        4157       1.1181E+04   275.2       8092.      -324.2       442.9      -767.7
        4158       1.1374E+04   312.1       7998.      -317.4       337.7      -781.7
        4159       1.5106E+04   428.8      1.2470E+04  -6.476       58.24      -593.3
        4160       1.1890E+04   207.4       7609.      -299.9       182.3      -740.3
        4161       1.2773E+04   4.123       8236.      -146.8       160.3      -741.4
        4162       1.9758E+04   237.6      2.0254E+04  -188.5      -9.623       19.29
        4163       1.9003E+04   106.7      1.9733E+04  -266.2      -114.1       79.95
        4164       1.6436E+04   646.4      1.7577E+04  -431.4       197.9      -320.0
        4165        9591.       482.9      1.1857E+04  -608.9       505.2      -421.8
        4166       1.0651E+04   368.9      1.3916E+04  -652.0       261.1      -288.2
        4167       1.6547E+04   275.7      1.4633E+04  -224.4       199.3      -503.1
        4168       1.0486E+04   246.8      1.0348E+04  -578.9       622.4      -643.2
        4169       1.3969E+04   470.7      1.6044E+04  -500.1       242.2      -359.2
        4170        9297.       286.1      1.3035E+04  -718.3       272.2      -331.2
        4171       2.0277E+04   417.4      2.0638E+04  -23.42       275.7       35.78
        4172       1.9295E+04   719.8      1.9098E+04  -243.3       130.4      -296.4
        4173       1.0417E+04   262.5      1.0843E+04  -626.3       636.9      -639.0
        4174       1.6252E+04   330.7      1.3988E+04  -116.6       181.7      -551.2
        4175       1.2949E+04   234.6       9361.      -301.1       200.8      -753.4
        4176       1.8716E+04   622.6      1.9455E+04  -309.0      -15.90      -19.33
        4177       1.9019E+04   803.4      1.8319E+04  -224.7       149.7      -338.0
        4178       1.1576E+04   254.9       9221.      -334.2       481.5      -731.8
        4179       1.1027E+04   248.4       9132.      -515.6       536.6      -599.4
        4180       1.1757E+04   168.0      1.4648E+04  -606.7       308.7      -319.5
        4181       1.7217E+04   363.5      1.5683E+04  -266.2       107.1      -466.0
        4182       1.9459E+04   453.7      1.9927E+04  -194.7      -118.4       26.86
        4183       1.0170E+04   374.9      1.1065E+04  -660.9       635.7      -540.1
        4184       1.5155E+04   721.6      1.6787E+04  -509.8       208.6      -280.1
        4185        9668.       446.3      1.1453E+04  -628.0       539.7      -435.3
        4186        9119.       209.2      1.2525E+04  -645.4       524.3      -359.2
        4187       1.3282E+04   391.5      1.5700E+04  -521.9       282.0      -300.3
        4188        8914.       242.7      1.2438E+04  -721.9       286.6      -272.2
        4189        9017.      -8.990      1.2186E+04  -737.4       430.6      -241.7
        4190       1.5232E+04   150.6      1.2451E+04  -185.7       165.5      -666.5
        4191       1.1296E+04   151.4       9567.      -423.6       567.5      -608.9
        4192       1.7321E+04   495.0      1.6064E+04  -246.1       92.91      -408.3
        4193       1.0883E+04   222.0      1.0306E+04  -538.4       561.3      -630.8
        4194       1.7653E+04   268.3      1.7297E+04  -285.0       141.5      -289.3
        4195       1.0034E+04   445.8      1.1292E+04  -643.4       602.8      -447.8
        4196        9403.       544.3      1.2014E+04  -616.3       525.6      -442.1
        4197       1.8485E+04   206.6      1.8575E+04  -327.4       23.64      -235.4
        4198       1.1167E+04   158.2      1.0165E+04  -437.7       545.8      -615.8
        4199       1.1815E+04   98.92       9511.      -430.0       532.8      -680.7
        4200       1.1762E+04   322.5       9214.      -347.6       444.4      -741.8
        4201       1.4190E+04   225.3      1.1025E+04  -286.1       208.8      -698.0
        4202       1.2413E+04   257.6       9271.      -264.8       346.7      -730.9
        4203       1.8713E+04   514.2      1.8794E+04  -281.9       21.49      -231.7
        4204       1.8834E+04   327.8      1.9396E+04  -209.6      -110.1      -291.9
        4205       1.4701E+04   275.8      1.6613E+04  -490.2       248.9      -172.6
        4206       1.5380E+04   395.1      1.6760E+04  -393.4       280.8      -242.5
        4207       1.6005E+04   437.9      1.4559E+04  -366.1       251.1      -492.8
        4208       1.3313E+04   388.7      1.5252E+04  -502.8       268.5      -236.9
        4209       1.1393E+04   184.3      1.1761E+04  -586.0       586.9      -572.1
        4210       1.0359E+04   378.7      1.3726E+04  -648.5       329.2      -212.7
        4211       1.7283E+04   398.6      1.7141E+04  -216.5       147.0      -351.3
        4212       1.5778E+04   415.0      1.3971E+04  -307.9       285.1      -458.5
        4213       1.4452E+04   144.3      1.1258E+04  -275.7       400.1      -693.6
        4214       1.4470E+04   214.7      1.1767E+04  -235.5       341.4      -658.7
        4215       1.9787E+04   601.3      1.9694E+04  -151.8      -108.5      -290.1
        4216       1.8185E+04   575.0      1.8893E+04  -330.9       9.131      -274.9
        4217       1.2827E+04   518.7      1.5443E+04  -527.3       334.3      -291.9
        4218       1.2454E+04  -13.19      1.0406E+04  -404.3       488.4      -694.8
        4219       1.1389E+04   640.4      1.2246E+04  -631.0       595.0      -455.9
        4220       1.7505E+04   666.3      1.8363E+04  -355.5       170.7      -293.7
        4221       1.2143E+04   422.0      1.1259E+04  -440.5       577.5      -614.2
        4222       1.1479E+04   343.7      1.4281E+04  -586.6       402.3      -245.1
        4223       1.6859E+04   521.9      1.5668E+04  -347.8       198.1      -441.2
        4224       1.0802E+04   594.5      1.2363E+04  -657.8       547.2      -437.2
        4225       1.0538E+04   383.6      1.2264E+04  -619.0       506.2      -417.2
        4226       1.0714E+04   237.5      1.3447E+04  -561.2       433.6      -383.6
        4227       1.1362E+04   73.86      1.4411E+04  -590.7       438.6      -264.9
        4228       1.5630E+04   332.9      1.3416E+04  -275.1       338.3      -523.9
        4229       1.1820E+04   52.48      1.1553E+04  -393.9       555.0      -580.6
        4230       1.6983E+04   434.1      1.6243E+04  -380.3       126.1      -464.4
        4231       1.1890E+04   7.912      1.1945E+04  -514.6       626.8      -679.1
        4232       1.7999E+04   879.5      1.8855E+04  -311.5       209.8      -202.6
        4233       1.1222E+04   859.8      1.2473E+04  -687.5       598.4      -420.9
        4234       1.0413E+04   392.6      1.2683E+04  -619.5       457.0      -437.9
        4235       1.9016E+04   261.9      1.9046E+04  -325.0      -82.39      -345.4
        4236       1.1762E+04   549.8      1.1440E+04  -416.1       561.4      -564.7
        4237       1.2865E+04  -23.85      1.0572E+04  -345.0       388.8      -669.4
        4238       1.3518E+04   297.0      1.0572E+04  -211.9       286.6      -689.4
        4239       1.7754E+04   632.5      1.7424E+04  -188.3       274.6      -213.7
        4240       1.5685E+04   331.9      1.4650E+04  -295.0       296.8      -484.2
        4241       1.4901E+04   377.8      1.6431E+04  -387.5       242.2      -253.6
        4242       1.2323E+04   385.8      1.1066E+04  -445.2       528.7      -544.3
        4243       1.4270E+04   92.70      1.2373E+04  -329.9       346.9      -581.0
        4244       1.1951E+04  -35.70      1.2518E+04  -585.0       519.7      -437.0
        4245       1.7202E+04   460.3      1.7976E+04  -337.4       63.77      -342.5
        4246       1.5542E+04   279.2      1.4025E+04  -261.7       327.8      -469.5
        4247       1.1567E+04   430.5      1.3273E+04  -719.1       474.0      -380.5
        4248       1.1388E+04   201.2      1.2878E+04  -737.7       499.7      -367.0
        4249       1.6651E+04   493.3      1.7718E+04  -329.0       169.5      -367.7
        4250       1.4633E+04   234.1      1.2432E+04  -242.8       386.8      -627.6
        4251       1.3230E+04   287.4      1.4641E+04  -533.4       329.6      -204.4
        4252       1.6247E+04   657.3      1.7431E+04  -389.6       277.5      -371.3
        4253       1.3086E+04   437.6      1.2630E+04  -360.6       464.8      -596.9
        4254       1.1492E+04   498.8      1.4085E+04  -512.6       363.0      -267.8
        4255       1.6297E+04   542.1      1.5775E+04  -231.0       264.6      -459.5
        4256       1.1268E+04   326.0      1.3555E+04  -617.6       332.7      -325.2
        4257       1.2153E+04   396.0      1.4313E+04  -576.5       309.0      -266.7
        4258       1.4958E+04   225.8      1.2922E+04  -294.1       373.7      -496.4
        4259       1.3551E+04   214.0      1.4053E+04  -329.9       546.9      -579.8
        4260       1.6546E+04   580.3      1.6079E+04  -194.6       271.9      -433.1
        4261       1.3048E+04  -45.55      1.3620E+04  -467.9       558.1      -372.6
        4262       1.7346E+04   451.7      1.7751E+04  -255.6       196.5      -193.1
        4263       1.2146E+04   353.0      1.3311E+04  -663.1       522.9      -427.6
        4264       1.1792E+04   225.8      1.3788E+04  -674.2       374.0      -349.1
        4265       1.7737E+04   296.3      1.8415E+04  -258.0       42.48      -360.2
        4266       1.2778E+04   427.1      1.2395E+04  -460.5       488.7      -498.7
        4267       1.4323E+04   255.3      1.2862E+04  -235.6       365.8      -481.7
        4268       1.2690E+04   130.9      1.4003E+04  -599.7       408.3      -335.9
        4269       1.3394E+04   368.7      1.4833E+04  -440.7       395.6      -245.8
        4270       1.5402E+04   167.5      1.6300E+04  -366.9       172.5      -261.1
        4271       1.2645E+04   306.0      1.4639E+04  -671.7       363.6      -240.8
        4272       1.4078E+04   429.5      1.4202E+04  -343.1       434.2      -421.7
        4273       1.5424E+04   680.7      1.5183E+04  -352.0       325.3      -484.0
        4274       1.5803E+04   439.2      1.6560E+04  -338.5       108.5      -241.3
        4275       1.5548E+04   478.0      1.4855E+04  -289.6       371.4      -486.5
        4276       1.2804E+04   260.9      1.3237E+04  -331.8       476.9      -432.8
        4277       1.5342E+04   288.4      1.6400E+04  -342.4       174.2      -275.6
        4278       1.5432E+04   580.5      1.4314E+04  -317.5       376.4      -473.6
        4279       1.6876E+04   670.0      1.6638E+04  -356.9       293.2      -350.3
        4280       1.5194E+04   260.0      1.4979E+04  -395.4       371.9      -436.5
        4281       1.5272E+04   513.6      1.6229E+04  -373.9       188.0      -257.5
        4282       1.4460E+04   783.1      1.4529E+04  -407.1       355.6      -458.4
        4283       1.4498E+04   415.4      1.3576E+04  -342.8       369.3      -494.0
        4284       1.4981E+04   254.3      1.4638E+04  -329.9       377.5      -490.9
        4285       1.6991E+04   288.6      1.7372E+04  -396.7       270.0      -153.6
        4286       1.5674E+04   361.2      1.5743E+04  -394.4       334.1      -467.6
        4287       1.3893E+04   222.6      1.4911E+04  -485.1       348.4      -276.9
        4288       1.2833E+04   13.02      1.3780E+04  -549.0       435.0      -346.5
        4289       1.4263E+04   544.1      1.5588E+04  -410.9       259.0      -293.1
        4290       1.5739E+04   703.5      1.5826E+04  -413.0       361.3      -371.3
        4291       1.6455E+04   212.2      1.6559E+04  -413.8       295.7      -243.8
        4292       1.5113E+04   247.5      1.5658E+04  -380.5       375.5      -263.5
        4293       1.4895E+04   632.4      1.5809E+04  -358.4       249.7      -225.2
        4294       1.1166E+04   20.18       6256.       53.30       41.04      -853.4
        4295       1.2596E+04   412.7       9425.      -269.5       239.9      -728.8
        4296       1.2098E+04   305.5      1.0311E+04  -444.7       554.9      -590.0
        4297       1.3925E+04   304.8      1.5364E+04  -497.3       362.3      -213.1
        4298       1.3214E+04   322.3      1.4741E+04  -551.7       345.0      -228.9
        4299       1.5725E+04   270.2      1.6454E+04  -345.6       145.9      -186.5
        4300       1.3401E+04   192.8      1.1751E+04  -449.7       464.3      -584.8
        4301       1.5042E+04   378.7      1.3561E+04  -316.2       313.9      -497.8
        4302       1.5539E+04  -1.728      1.6093E+04  -439.0       213.4      -199.0
        4303       1.2729E+04   475.5      1.1950E+04  -505.0       552.2      -526.0
        4304       1.4789E+04   343.5      1.3470E+04  -357.9       356.8      -477.7
        4305       1.3856E+04   418.6      1.2498E+04  -504.6       435.9      -543.4
        4306       1.4737E+04   279.8      1.4993E+04  -365.4       349.9      -457.2
        4307       1.5561E+04   697.5      1.5802E+04  -427.3       323.4      -265.5
        4308       1.5056E+04   506.2      1.5453E+04  -317.5       408.0      -383.0
        4309       1.2942E+04   175.4      1.4302E+04  -760.3       414.0      -326.6
        4310       1.4074E+04   179.9      1.4585E+04  -470.9       460.7      -440.5
        4311       1.4237E+04   356.5      1.3114E+04  -434.1       417.1      -503.6
        4312       1.4189E+04   159.8      1.3988E+04  -424.0       389.9      -518.0
        4313        6353.       28.41       2720.      -461.9       113.0      -741.2
        4314        5404.       171.7       3602.      -653.4       157.9      -728.9
        4315        4289.      -8.840       4497.      -660.1       132.5      -681.1
        4316        4032.       190.4       4792.      -712.0       171.8      -690.0
        4317        3218.       101.8       5798.      -761.9       156.6      -524.9
        4318        1658.       90.39       8101.      -634.6       13.49      -47.98
        4319        2763.       179.5       9189.      -741.2       68.30      -122.1
        4320        2777.       42.59       8495.      -727.0       155.8      -268.0
        4321        2687.       114.1       7921.      -759.4       158.7      -336.9
        4322        3250.       71.42       7878.      -762.1       268.6      -388.0
        4323        2430.       208.1       7436.      -693.6       147.4      -380.5
        4324        2801.       24.00       7363.      -745.3       236.6      -451.5
        4325        2152.       429.3       5806.      -719.3       134.4      -507.9
        4326        3623.      -13.01       6775.      -798.2       309.6      -544.5
        4327        3923.       37.11       7428.      -852.1       371.4      -509.9
        4328        2227.       236.0       6456.      -697.5       177.6      -481.0
        4329        2715.       274.7       5853.      -748.7       129.9      -530.9
        4330        4167.       24.06       6544.      -838.5       341.6      -523.2
        4331        3551.      -100.8       5370.      -746.1       167.7      -619.4
        4332        5100.       62.95       7268.      -780.8       322.2      -635.0
        4333        3814.      -173.9       5292.      -705.0       197.0      -673.0
        4334        5245.      -84.61       6497.      -747.8       367.4      -710.6
        4335        5284.       55.23       5566.      -669.3       318.9      -676.0
        4336        5239.      -4.970       6054.      -686.1       314.5      -674.7
        4337        4873.       600.4       4040.      -571.6       145.5      -713.8
        4338        6003.       647.0       5060.      -669.6       339.2      -784.4
        4339        5984.       279.2       5403.      -617.2       302.1      -726.2
        4340        5032.       277.1       4346.      -604.4       149.5      -737.4
        4341        6770.       319.0       5008.      -699.6       318.5      -788.7
        4342        6143.      -104.9       3035.      -483.9       172.5      -694.0
        4343        6672.       201.5       4205.      -584.6       303.5      -801.6
        4344        6089.       12.05       3089.      -583.7       139.3      -727.1
        4345        7161.      -67.79       3989.      -537.8       330.2      -767.8
        4346        7342.      -115.5       2431.      -407.4       52.87      -700.5
        4347        7474.       4.901       3738.      -475.6       238.1      -818.7
        4348        7132.      -101.8       2120.      -249.2       89.69      -658.5
        4349        8538.      -13.56       3377.      -306.2       107.2      -739.3
        4350        8469.       56.23       3596.      -229.9       113.5      -780.7
        4351        8153.       32.32       1748.      -49.49       28.22      -681.6
        4352        8759.       276.5       2805.      -153.8       65.06      -830.9
        4353        1768.       69.32       8127.      -636.4       46.38      -124.8
        4354        7876.       163.6       1844.      -152.3       6.758      -691.7
        4355        2041.       34.45       6627.      -677.0       132.4      -425.4
        4356        7080.      -134.2       1938.      -381.8       68.56      -697.8
        4357        2725.       40.02       8764.      -788.2      0.4691      -25.62
        4358        8804.      -12.18       2995.      -70.88       39.40      -775.7
        4359        8389.      -28.95       1993.      -249.6       57.41      -673.6
        4360        6070.       157.5       1904.      -462.2       30.84      -685.6
        4361        8256.      -304.9       3297.      -322.8       161.3      -764.5
        4362        7813.       50.94       3763.      -431.7       141.6      -808.7
        4363        3858.       279.2       8740.      -811.1       216.0      -300.6
        4364        1698.       132.2       8020.      -644.8       129.6      -215.1
        4365        3143.       104.8       6993.      -747.7       268.7      -486.0
        4366        3087.       271.1       6553.      -751.7       198.8      -537.1
        4367        6730.       99.66       2467.      -444.7       45.89      -724.2
        4368        4384.       188.8      -669.9      -136.5      -209.3       3.340
        4369        3947.       149.3      -597.2      -184.4      -392.5      -7.076
        4370        5841.       124.6       497.7      -332.9      -46.01      -480.3
        4371        3516.       136.5      -490.1      -233.0      -669.2      -36.15
        4372        3431.       136.9      -449.0      -304.7      -734.1      -57.79
        4373        2346.       338.6      -40.54      -308.5      -934.3      -106.3
        4374        1976.       355.7       358.7      -315.8      -986.9      -125.9
        4375        1095.       292.3       834.5      -231.2      -1072.      -225.5
        4376        3044.       150.2       2406.      -551.9      -228.6      -533.5
        4377        940.7       266.3       1004.      -236.2      -1049.      -256.6
        4378        2529.       263.8       2419.      -597.1      -245.7      -579.0
        4379        308.6       299.3       2173.      -81.65      -923.7      -442.7
        4380        1628.       232.1       4087.      -567.6      -202.9      -524.6
        4381       -19.83       213.3       2947.      -242.9      -698.9      -343.5
        4382       -524.7       228.3       3015.       31.39      -733.0      -330.8
        4383       -586.7       199.6       3396.       1.958      -642.2      -278.2
        4384       -803.8       61.03       4058.       38.17      -348.4      -193.2
        4385       -725.2       49.45       4709.       23.55      -148.8      -15.60
        4386       -165.2       56.52       6046.      -395.9      -1.986      -26.06
        4387       -1024.       96.47       4795.       19.97      -75.94       13.36
        4388       -709.2       80.14       5341.      -213.8      -38.12      -5.573
        4389       -865.1       56.81       5151.      -68.72      -171.9      -112.4
        4390       -209.0      -192.4       6320.      -417.3      -35.14      -80.90
        4391       -837.0       10.26       4214.       41.78      -245.5      -180.1
        4392       -914.1       75.09       5002.      -78.49      -201.5      -206.0
        4393        72.01       209.8       6251.      -458.2      -66.71      -241.4
        4394       -905.1      -3.737       5825.      -264.7      -105.7      -89.52
        4395       -808.7       125.1       4673.       30.43      -195.7      -95.61
        4396       -621.3       102.8       5652.      -260.3      -131.4      -226.2
        4397        228.8       173.4       6050.      -418.4      -25.23      -258.8
        4398       -605.0       227.3       4264.       29.52      -405.6      -238.9
        4399        208.3       405.2       6013.      -432.8      -23.35      -314.9
        4400       -357.0       204.2       5109.      -280.1      -125.4      -248.3
        4401       -805.5       119.9       4797.      -150.9      -214.3      -211.3
        4402       -817.7       39.80       4079.       13.34      -509.0      -266.9
        4403       -770.8       181.9       4817.      -216.0      -255.5      -260.0
        4404       -298.1       305.3       5327.      -363.9      -138.2      -258.3
        4405       -600.8       209.8       3583.     -0.4640      -576.3      -288.7
        4406       -710.3       119.7       4128.      -88.30      -483.2      -284.0
        4407        349.2       211.3       5631.      -501.5      -47.16      -307.3
        4408       -475.5       334.5       3693.      -132.8      -604.2      -343.3
        4409       -453.1       216.0       4030.      -197.7      -457.9      -304.3
        4410        367.2       181.2       5216.      -490.8      -152.7      -351.2
        4411        694.4       279.9       5405.      -524.7      -90.96      -357.7
        4412       -360.6       264.5       4920.      -392.5      -224.9      -286.2
        4413       -628.9       272.5       3957.      -28.18      -531.8      -269.3
        4414       -421.0       389.1       3789.      -207.0      -486.1      -459.1
        4415       -308.8       181.0       4617.      -293.1      -376.9      -366.3
        4416        822.9       236.9       5448.      -509.6      -128.1      -423.9
        4417       -296.3       132.4       3036.      -172.7      -679.8      -313.3
        4418        1014.       170.2       4984.      -520.0      -153.5      -451.7
        4419       -516.6       259.3       3185.      -51.10      -740.5      -320.8
        4420       -184.7       157.9       2995.      -195.3      -686.3      -331.9
        4421       -82.00       233.6       3505.      -277.3      -501.5      -350.3
        4422        236.4       166.7       4138.      -408.8      -344.2      -418.3
        4423        114.6       192.6       3492.      -310.2      -521.7      -352.8
        4424        1016.       174.2       4482.      -503.7      -200.6      -450.6
        4425        135.9       229.8       2600.      -204.0      -827.1      -384.9
        4426        212.2       161.5       2888.      -300.1      -691.9      -396.0
        4427        991.2       163.8       4161.      -496.2      -262.4      -446.3
        4428        1417.       156.5       4294.      -576.1      -144.1      -524.0
        4429        592.7       150.7       3943.      -445.3      -388.0      -393.1
        4430        120.0       156.6       3279.      -358.4      -546.4      -361.1
        4431        376.3       228.2       2794.      -324.1      -633.2      -427.3
        4432        970.7       192.3       3517.      -503.7      -365.3      -510.8
        4433        521.4       310.8       1800.      -170.2      -980.2      -305.9
        4434        1510.       318.1       3546.      -588.5      -237.5      -584.4
        4435        699.5       208.0       2650.      -439.7      -500.9      -489.7
        4436        340.1       326.8       2006.      -133.9      -951.5      -358.5
        4437        695.9       363.2       1519.      -206.0      -999.2      -288.0
        4438        761.4       348.4       1914.      -362.0      -775.4      -389.6
        4439        1344.       106.2       2390.      -491.4      -519.1      -451.7
        4440        1840.       56.90       2980.      -545.7      -250.6      -522.3
        4441        860.6       358.6       1283.      -233.6      -1031.      -267.0
        4442        938.4       415.2       1564.      -367.4      -815.7      -366.9
        4443        2378.       339.5       3269.      -530.3      -260.8      -509.7
        4444        1263.       358.0       946.2      -289.6      -940.2      -305.4
        4445        1381.       398.0       1308.      -386.3      -749.5      -440.7
        4446        1973.       251.3       1939.      -531.0      -415.2      -512.8
        4447        1630.       281.1       2279.      -451.1      -555.1      -486.5
        4448        1094.       359.1       1331.      -307.4      -890.9      -333.0
        4449        1337.       416.8       1052.      -309.0      -822.4      -338.8
        4450        1897.       318.6       1477.      -481.3      -610.8      -474.1
        4451        1552.       392.8       670.2      -243.1      -1049.      -151.5
        4452        3207.       41.25       1913.      -548.2      -264.2      -569.7
        4453        2750.       209.0       1922.      -518.2      -401.0      -522.1
        4454        2233.       297.6       1419.      -551.4      -528.7      -566.7
        4455        1353.       405.8       778.5      -231.6      -1072.      -178.0
        4456        1737.       367.7       417.5      -285.8      -1043.      -131.9
        4457        1665.       398.4       659.0      -334.0      -907.4      -282.7
        4458        2796.       295.9       1528.      -499.8      -446.7      -539.9
        4459        1904.       497.4       441.7      -401.4      -880.1      -243.1
        4460        2607.       282.0       296.5      -471.5      -730.6      -276.2
        4461        3730.       248.3       1884.      -543.6      -278.2      -508.4
        4462        2233.       217.8       91.69      -315.2      -958.2      -144.7
        4463        2735.       325.4       78.60      -384.2      -761.9      -273.5
        4464        3351.       307.6       930.0      -499.1      -394.3      -486.2
        4465        2923.       381.5       1061.      -511.9      -460.1      -470.3
        4466        2414.       183.6       186.1      -420.7      -832.2      -210.7
        4467        3118.       333.6       325.7      -369.5      -641.1      -342.2
        4468        3408.       222.8       520.3      -368.9      -581.6      -397.7
        4469        4239.       13.19       1645.      -533.8      -227.3      -527.6
        4470        2966.       317.9      -45.69      -341.7      -768.6      -200.4
        4471        4477.      -69.34       1150.      -427.6      -288.8      -527.0
        4472        3453.       70.56       334.0      -383.0      -493.0      -427.3
        4473        2639.       359.7      -117.9      -301.3      -892.2      -91.25
        4474        2773.       297.6      -425.2      -297.5      -853.1      -77.25
        4475        3163.       131.7      -266.2      -314.3      -730.5      -194.3
        4476        3996.       119.7       323.5      -392.9      -417.9      -413.1
        4477        4265.       298.2       749.5      -413.9      -209.0      -561.4
        4478        3021.       128.1      -402.0      -307.6      -794.6      -65.60
        4479        4044.       42.28      -59.65      -416.1      -517.0      -291.3
        4480        4141.       165.4       162.3      -398.6      -376.7      -407.1
        4481        3902.       91.62      -411.3      -290.7      -544.3      -149.4
        4482        4171.       78.88      -413.8      -318.1      -429.9      -268.8
        4483        4008.       165.9      -110.7      -355.8      -284.2      -392.7
        4484        4865.       143.9       710.9      -443.6      -196.6      -533.5
        4485        4101.       148.4      -279.4      -312.5      -475.8      -275.2
        4486        3922.       20.72      -491.3      -348.2      -642.5      -143.4
        4487        4497.       105.1      -456.5      -273.9      -370.7      -239.3
        4488        4700.       44.03      -207.1      -342.5      -284.2      -381.5
        4489        5220.       89.15       607.0      -402.6      -148.5      -498.1
        4490        4046.       105.9      -669.0      -229.4      -428.9      -123.6
        4491        5573.       119.9       483.4      -278.0      -147.8      -470.7
        4492        4795.       33.19      -601.2      -245.8      -309.9      -238.4
        4493        3630.       198.1      -501.0      -213.7      -598.1      -16.33
        4494        3748.       122.6      -698.8      -195.9      -465.6       7.418
        4495        5155.       267.1      -39.78      -235.9      -166.8      -353.7
        4496        5681.       134.2       411.4      -244.5      -84.52      -513.6
        4497        4438.       106.6      -647.8      -194.9      -369.6      -99.64
        4498        4838.       204.7      -423.1      -206.4      -200.2      -236.1
        4499        5344.       128.5      -83.19      -251.0      -101.0      -342.1
        4500        4440.       303.1      -707.9      -171.6      -223.0      -112.0
        4501        5142.       123.4      -562.6      -202.0      -167.9      -189.8
        4502        6655.      -81.06       267.7      -235.1      -70.63      -429.4
        4503        4298.       201.5      -742.7      -193.1      -296.0      -126.1
        4504        5192.       211.9      -678.5      -160.0      -183.1      -188.1
        4505        5067.       229.8      -722.1      -95.36      -162.7      -81.97
        4506        5659.       187.0      -522.1      -27.40      -78.53      -244.7
        4507        6230.       243.0       104.3      -43.38      -45.35      -407.0
        4508        6547.       59.36      -134.8      -110.8      -71.97      -383.6
        4509        4380.       166.4      -633.4      -85.34      -151.8       31.02
        4510        4429.       144.7      -652.1      -24.42      -90.30       19.26
        4511       -857.3       111.1       4332.      -50.09      -312.3      -224.5
        4512        1630.       405.2       1081.      -384.5      -765.0      -380.6
        4513        5187.       188.3      -891.8      -8.257      -115.8      -84.55
        4514        4636.       268.6      -661.4      -159.0      -177.2      -76.24
        4515        4848.       5.426      -502.6      -203.7      -266.5      -232.0
        4516        4291.       153.3      -607.2      -257.4      -485.3      -133.4
        4517       -855.0       88.52       4417.      -28.90      -241.6      -221.9
        4518       -367.5       254.5       3209.      -161.8      -652.8      -328.0
        4519        1469.       384.6       789.1      -294.0      -928.8      -295.8
        4520        3272.       166.5       76.76      -367.9      -656.9      -320.8
        4521        2744.       341.6      -24.87      -335.3      -772.8      -215.7
        4522        5581.       222.3      -458.3      -102.1      -135.1      -227.5
        4523       -228.6       292.5       3682.      -268.2      -499.0      -399.0
        4524        362.0       187.4       2140.      -292.7      -771.5      -422.2
        4525        4137.       122.7      -608.9      -164.1      -292.6      -21.45
        4526        3873.       271.1      -516.6      -203.1      -547.9       10.92
        4527       -366.9       284.6       2959.      -70.55      -810.3      -281.6
        4528       -244.4       278.5       2796.      -79.50      -844.3      -302.3
        4529       -131.3       306.6       2698.      -72.44      -867.9      -300.9
        4530        43.65       194.3       2647.      -129.7      -858.2      -289.6
        4531        411.9       275.0       3938.      -418.8      -361.7      -392.0
        4532        716.3       164.6       3553.      -427.2      -484.2      -456.6
        4533        3063.       180.4      -318.9      -339.2      -654.7      -177.7
        4534        253.5       156.9       2450.      -225.9      -798.3      -428.9
        4535        3570.       181.3      -69.98      -362.4      -600.5      -291.0
        4536        5530.       175.3      -237.1      -222.3      -119.7      -304.9
        4537        3730.       299.2       936.1      -454.4      -433.0      -468.7
        4538       -769.4       98.11       4191.      -87.21      -389.3      -255.9
        4539       -618.8       126.2       4318.      -182.7      -384.4      -255.5
        4540        4817.       191.1      -200.4      -268.7      -251.2      -349.9
        4541        146.7       347.8       4406.      -390.2      -324.5      -421.2
        4542        4387.       108.6      -467.3      -277.1      -283.0      -322.7
        4543        2330.       427.8       644.1      -499.2      -669.8      -379.0
        4544        2161.       414.0       1166.      -437.0      -665.5      -464.4
        4545        3073.       246.1       608.1      -469.1      -516.5      -477.3
        4546        499.6       144.0       3513.      -367.7      -548.3      -364.3
        4547        3523.       254.7       484.5      -381.7      -522.8      -382.8
        4548        2821.       322.4       499.5      -461.4      -623.5      -383.1
        4549        507.3       3600.      -104.4       74.26      -136.8      -7.643
        4550       -2561.       6723.       378.2       258.4       631.6      -604.5
        4551        169.8       3694.      -55.11       27.58      -34.36      -18.07
        4552       -2273.       7924.       158.8       262.9       1378.      -703.5
        4553       -307.6       3597.      -364.1      -27.06       384.4       50.46
        4554       -982.9       8951.      -1277.      -466.1       1846.      -367.3
        4555       -34.96       3995.       443.2      0.1172      -257.6      -12.50
        4556       -138.0       5137.       252.0       88.24      -89.49      -423.9
        4557       -43.27       6504.      -2613.      -821.1       812.5       828.5
        4558        280.5       4136.      -3694.      -433.7       386.0       412.8
        4559        191.1       3977.      -3138.      -382.7       467.0       771.1
        4560        463.4       7302.      -3248.      -600.9       563.9       405.3
        4561       -22.57       3612.      -2618.      -489.0       413.2       1208.
        4562        90.35       4476.      -2811.      -508.5       495.5       849.0
        4563        132.0       5829.      -3070.      -853.3       743.5       697.9
        4564       -438.1       4144.      -2065.      -470.3       245.5       1175.
        4565       -233.6       3584.      -1806.      -323.4       431.8       1157.
        4566        65.79       4833.      -2403.      -584.0       600.2       966.6
        4567       -61.44       4334.       553.2       68.20      -266.5      -212.4
        4568       -56.06       3774.       797.9       52.26      -358.8      -291.4
        4569        86.81       4092.       1242.       210.4      -633.4      -317.8
        4570       -43.08       3772.       1484.       100.5      -704.3      -20.34
        4571       -68.01       3388.       1891.      -63.96      -808.5       260.3
        4572       -269.5       3134.       2067.      -71.64      -700.0       516.9
        4573       -432.5       3002.       1333.      -196.3      -525.2       857.7
        4574       -335.7       2794.       561.5      -404.9      -283.4       1100.
        4575       -283.3       2820.      -737.4      -304.4       73.75       814.3
        4576       -233.2       3567.      -1765.      -519.9       516.9       867.4
        4577       -90.26       4893.      -2223.      -644.9       692.3       851.4
        4578       -36.47       6742.      -2405.      -778.0       1004.       688.2
        4579       -126.9       4126.       778.5       155.1      -326.1      -587.6
        4580       -39.75       4856.       583.2       231.2      -285.8      -537.3
        4581       -65.88       4981.       394.8       105.5      -160.0      -364.2
        4582        67.95       5761.       247.6       295.0      -139.2      -658.2
        4583       -20.17       4685.      -76.38      -36.30       21.51      -352.2
        4584       -33.38       4095.      -133.1       48.81       61.89      -206.3
        4585       -42.05       3876.       475.0      -22.48      -282.3       13.92
        4586       -37.47       3615.       695.3      -56.53      -417.7       61.47
        4587       -64.75       3443.       832.4      -83.69      -486.7       280.6
        4588       -146.6       3447.       944.7      -169.0      -512.4       352.6
        4589       -179.1       3302.       734.3      -160.2      -444.8       461.9
        4590       -256.8       3020.       694.7      -172.9      -407.8       526.4
        4591       -287.6       2442.      -229.0      -268.9      -108.4       682.4
        4592       -339.9       3300.      -1328.      -411.8       564.0       517.3
        4593       -351.5       3422.      -1640.      -508.3       644.5       584.0
        4594       -307.3       4242.      -1892.      -582.8       790.6       601.2
        4595       -110.6       3647.      -37.92      -93.61       6.952       182.9
        4596       -127.1       3583.      -21.68      -102.8      -22.24       228.9
        4597       -106.7       3465.      -16.04      -115.2      -47.40       243.8
        4598       -180.8       3258.      -154.7      -130.3       31.89       253.4
        4599       -208.3       3119.      -172.7      -172.4       7.762       310.8
        4600       -272.8       2936.      -389.9      -214.9       90.09       379.5
        4601       -371.9       2801.      -661.7      -241.8       284.1       378.1
        4602       -579.3       2942.      -1144.      -291.6       700.5       213.2
        4603       -595.7       3580.      -1463.      -360.5       901.4       227.8
        4604       -532.3       3797.      -1548.      -472.3       924.6       239.7
        4605       -515.7       7258.      -1893.      -750.5       1419.       185.5
        4606       -105.0       7987.      -1777.      -784.2       1288.       398.8
        4607       -336.2       5141.      -1987.      -620.5       1024.       329.7
        4608       -559.6       3615.      -1607.      -454.6       880.1       320.6
        4609       -417.9       3340.      -1394.      -421.5       655.4       388.9
        4610       -356.0       2631.      -792.3      -288.2       240.5       526.6
        4611       -185.8       3090.       152.0      -194.7      -206.6       456.2
        4612       -191.7       3313.       451.6      -175.4      -296.6       302.5
        4613       -78.07       3473.       496.6      -96.16      -333.4       283.1
        4614       -105.0       3529.       332.0      -73.95      -243.8       271.0
        4615       -82.45       3652.       127.9      -115.4      -108.2       199.2
        4616       -55.57       3756.       264.3      -71.37      -174.0       152.5
        4617       -28.89       3871.       288.4      -28.35      -185.1       74.61
        4618       -148.3       3652.      -196.3      -54.82       156.5       106.2
        4619       -191.5       3588.      -242.4      -87.27       176.4       158.3
        4620       -239.7       3397.      -335.6      -113.9       228.3       156.4
        4621       -197.9       3377.      -239.1      -118.3       142.2       206.5
        4622       -269.0       3191.      -290.3      -137.3       172.2       217.1
        4623       -263.4       3079.      -340.9      -161.9       144.6       268.7
        4624       -411.9       2891.      -655.1      -204.4       350.9       290.8
        4625       -499.1       2855.      -933.8      -251.2       527.4       256.0
        4626       -661.0       2890.      -1189.      -256.5       781.3       129.1
        4627       -647.0       3230.      -1362.      -321.4       874.0       136.1
        4628       -696.2       3993.      -1608.      -419.2       1125.       125.2
        4629       -853.4       6714.      -1803.      -597.4       1594.       10.43
        4630       -225.3       3614.      -292.3      -40.56       278.4       48.52
        4631       -252.5       3548.      -360.7      -65.55       290.5       132.7
        4632       -309.4       3390.      -458.6      -55.18       358.0       156.6
        4633       -352.3       3249.      -457.6      -89.32       361.2       159.8
        4634       -371.7       3191.      -515.7      -61.27       391.0       217.3
        4635       -356.2       3076.      -444.8      -154.5       265.8       219.4
        4636       -465.9       2850.      -756.3      -173.0       449.7       230.3
        4637       -573.3       2743.      -841.4      -198.8       557.9       198.2
        4638       -807.7       2801.      -1081.      -186.0       851.4       86.17
        4639       -855.8       3785.      -1390.      -307.5       1111.       27.43
        4640       -828.5       4653.      -1549.      -403.7       1281.       4.739
        4641       -991.5       4818.      -1750.      -386.4       1449.      -53.80
        4642       -872.7       8199.      -1658.      -573.0       1752.      -210.2
        4643       -429.0       3547.      -364.6      -2.244       454.1       27.39
        4644       -391.3       3490.      -430.1      -16.39       461.4       30.16
        4645       -530.7       3314.      -399.2       21.62       485.3       38.47
        4646       -556.0       3124.      -487.9       4.756       508.4       31.50
        4647       -508.7       3264.      -451.5      -71.61       472.4       56.49
        4648       -773.0       2796.      -612.3      -15.61       613.0      0.9970
        4649       -748.0       3028.      -728.5      -42.76       663.4       34.38
        4650       -861.1       3072.      -749.7      -42.11       792.1       2.726
        4651       -1008.       3218.      -924.3      -95.46       1017.      -81.91
        4652       -1191.       3969.      -1263.      -180.9       1339.      -201.3
        4653       -1142.       4153.      -1394.      -268.7       1342.      -198.5
        4654       -1273.       4885.      -1264.      -278.3       1482.      -247.1
        4655       -1198.       9341.      -1077.      -356.9       1873.      -506.9
        4656       -1049.       6807.      -1537.      -439.2       1661.      -303.6
        4657       -938.1       4002.      -1545.      -333.3       1259.      -41.60
        4658       -931.3       3503.      -1353.      -261.2       1128.      -46.85
        4659       -974.6       3177.      -1130.      -196.3       1010.      -58.48
        4660       -890.3       2573.      -923.6      -106.2       763.9       59.45
        4661       -600.4       2827.      -742.6      -124.0       596.1       91.31
        4662       -493.4       2992.      -552.2      -138.0       440.3       139.7
        4663       -425.9       3097.      -523.9      -80.66       415.7       131.5
        4664       -469.8       3322.      -456.6      -51.74       466.9       82.17
        4665       -418.4       3427.      -411.1      -45.22       430.3       90.25
        4666       -322.5       3548.      -355.8      -65.07       352.9       67.84
        4667       -565.6       3281.      -344.4       65.98       482.8       10.29
        4668       -562.4       3158.      -437.4       26.52       500.2      -12.70
        4669       -670.0       3067.      -428.3       104.4       525.9       94.66
        4670       -723.1       2820.      -470.9       50.22       568.2      -3.285
        4671       -930.5       2584.      -737.7       34.66       686.4      -38.81
        4672       -1164.       2598.      -755.6       19.61       872.1      -125.4
        4673       -1106.       2749.      -805.8      -36.65       916.3      -89.98
        4674       -1389.       3185.      -976.2      -109.2       1174.      -230.6
        4675       -1288.       3913.      -1152.      -166.7       1308.      -216.0
        4676       -1510.       6010.      -1143.      -230.3       1608.      -445.5
        4677       -449.7       3601.      -184.9       41.59       332.4      -10.25
        4678       -488.2       3424.      -201.2       94.89       331.0      -9.314
        4679       -519.0       3264.      -222.8       106.8       350.5      -36.31
        4680       -592.2       3099.      -246.6       122.6       370.6      -45.43
        4681       -676.6       2900.      -312.7       133.9       417.1      -65.47
        4682       -847.0       2608.      -301.6       196.7       416.9      -83.52
        4683       -915.6       2506.      -314.6       182.6       480.2      -120.3
        4684       -1220.       2436.      -471.0       172.4       691.4      -182.6
        4685       -1255.       2591.      -587.0       140.2       825.4      -190.8
        4686       -1576.       2897.      -604.9       119.4       1020.      -277.9
        4687       -1648.       3588.      -696.6       68.52       1182.      -361.0
        4688       -1908.       4717.      -657.9       89.93       1389.      -529.6
        4689       -1928.       8046.      -586.7       98.79       1729.      -769.0
        4690       -2012.       8875.      -869.4      -188.3       1784.      -656.3
        4691       -1672.       5196.      -874.3      -78.48       1542.      -480.7
        4692       -1503.       3930.      -855.8      -45.86       1306.      -340.3
        4693       -1481.       3050.      -778.6       23.14       1124.      -260.8
        4694       -1213.       2689.      -768.4       38.65       931.8      -170.7
        4695       -1157.       2478.      -603.7       89.44       784.3      -161.4
        4696       -881.9       2549.      -421.3       132.3       546.1      -100.7
        4697       -779.9       2740.      -360.6       133.3       484.1      -59.62
        4698       -667.9       2965.      -357.3       72.70       458.4      -54.01
        4699       -605.5       3121.      -314.1       80.69       439.3      -41.82
        4700       -573.1       3277.      -282.3       73.99       429.4      -25.34
        4701       -523.0       3456.      -294.4       36.93       440.2      -7.008
        4702       -482.1       3593.      -273.3       25.27       426.9       2.749
        4703       -351.5       3483.      -138.2       115.2       205.7      -13.98
        4704       -308.7       3329.      -124.7       159.4       156.9      -28.69
        4705       -470.3       3143.      -200.1       160.5       268.7      -34.23
        4706       -476.5       2947.      -165.9       203.5       202.4      -56.38
        4707       -606.6       2677.      -190.4       229.1       256.2      -79.34
        4708       -778.0       2522.      -227.0       236.1       329.5      -112.3
        4709       -1080.       2395.      -324.1       235.5       520.9      -140.4
        4710       -1307.       2434.      -406.8       238.5       701.7      -232.0
        4711       -1540.       2769.      -429.3       216.9       852.7      -289.7
        4712       -1674.       3060.      -553.4       161.3       1044.      -343.1
        4713       -2069.       4714.      -561.3       159.9       1359.      -543.3
        4714       -154.2       3610.      -96.94       76.34       78.30      -14.00
        4715       -265.5       3550.      -78.04       111.4       127.7      -3.004
        4716       -214.9       3349.      -87.58       149.3       81.78      -30.79
        4717       -213.3       3126.      -97.99       183.2       65.60      -50.01
        4718       -341.1       2865.      -124.8       222.9       97.85      -53.08
        4719       -512.6       2624.      -154.6       266.0       159.9      -72.72
        4720       -721.9       2373.      -182.6       294.9       235.8      -117.4
        4721       -1018.       2252.      -234.2       292.2       393.4      -148.8
        4722       -1319.       2339.      -286.9       270.1       567.9      -225.5
        4723       -1505.       2569.      -345.0       273.2       734.9      -278.1
        4724       -1977.       3456.      -407.3       250.8       1061.      -457.8
        4725       -2175.       4606.      -377.4       248.9       1222.      -553.2
        4726       -2132.       7925.      -157.3       241.8       1533.      -742.9
        4727        226.0       3653.      -57.90       58.29      -68.83       5.945
        4728        279.2       3511.      -93.71       109.6      -105.1      -6.922
        4729        249.2       3362.      -74.09       143.3      -105.4      -14.78
        4730        124.8       3110.      -117.0       178.9      -85.54      -29.30
        4731        22.50       2798.      -177.7       233.4      -70.95      -20.67
        4732       -37.25       2675.      -134.4       266.3      -58.00      -3.527
        4733       -299.6       2362.      -96.56       285.4       3.923      -42.13
        4734       -619.5       2180.      -168.2       331.2       140.8      -114.4
        4735       -1059.       2085.      -180.7       368.6       307.6      -146.2
        4736       -1560.       2259.      -170.9       344.3       512.8      -255.6
        4737       -1974.       2693.      -168.3       318.6       762.6      -344.5
        4738       -2217.       3718.      -109.6       326.7       812.4      -377.9
        4739       -2521.       6190.      -1.236       280.5       1162.      -655.9
        4740       -2342.       4371.      -217.7       290.4       1094.      -533.6
        4741       -1815.       2811.      -293.6       301.6       824.6      -354.4
        4742       -1612.       2432.      -254.3       337.3       617.7      -274.6
        4743       -1241.       2105.      -187.0       347.5       433.8      -188.3
        4744       -883.5       2203.      -201.6       354.2       266.7      -131.7
        4745       -522.7       2326.      -123.6       290.3       100.4      -89.08
        4746       -399.0       2572.      -114.4       273.2       70.43      -57.32
        4747       -239.8       2814.      -90.67       242.3       14.94      -30.96
        4748       -63.31       3252.      -103.2       165.4       12.03      -51.50
        4749        77.17       3458.      -88.75       146.1      -42.45      -15.25
        4750       -13.85       3448.      -105.9       103.6       16.82      -47.56
        4751        457.9       3513.      -97.33       108.5      -138.5     -0.3400
        4752        466.3       3344.      -75.61       143.6      -147.4      -4.819
        4753        363.3       3111.      -142.3       193.4      -142.4      -12.61
        4754        351.1       3128.      -131.7       232.0      -129.9      -29.97
        4755        304.8       2945.      -109.9       242.4      -128.9      -17.34
        4756       -82.56       2428.      -138.0       257.7      -59.77      -6.566
        4757       -648.2       2105.      -155.7       325.3       96.86      -85.79
        4758       -785.9       2200.      -88.92       297.9       141.0      -93.50
        4759       -1364.       2297.      -74.79       324.6       318.2      -170.9
        4760       -1912.       2638.      -76.18       324.3       482.6      -210.7
        4761       -2325.       3597.      -25.43       306.1       659.3      -321.2
        4762       -2748.       5008.       127.2       270.0       784.8      -500.8
        4763        907.5       3702.      -139.6       32.62      -121.8       20.11
        4764        765.8       3606.      -136.8       83.19      -150.3       9.915
        4765        887.6       3572.      -150.5       88.25      -146.8       14.30
        4766        889.4       3409.      -172.8       106.7      -141.4       26.58
        4767        712.8       2953.      -180.3       156.9      -154.6       46.81
        4768        548.4       2596.      -171.1       151.3      -136.9       39.32
        4769        291.5       2279.      -194.7       118.4      -69.46       42.89
        4770       -15.24       2066.      -152.0       180.5      -63.59       21.00
        4771       -671.6       1675.      -27.89       180.3       39.76      -1.632
        4772       -1030.       1847.      -42.44       189.6       118.1      -69.02
        4773       -1870.       2404.       35.02       187.3       272.9      -157.5
        4774       -2337.       3374.       151.2       189.3       334.8      -243.7
        4775       -2749.       5755.       386.5       136.5       561.5      -440.5
        4776       -2744.       4355.       237.1       217.5       523.5      -409.6
        4777       -1703.       2550.      -34.21       310.0       367.3      -163.9
        4778       -1251.       2111.      -87.91       262.4       230.9      -127.2
        4779       -740.8       1980.      -100.2       251.5       87.00      -41.64
        4780       -141.7       2060.      -142.7       216.6      -55.63       5.599
        4781        202.3       2282.      -173.4       172.0      -93.43       26.43
        4782        507.4       2652.      -179.8       179.3      -140.1       33.03
        4783        523.0       2884.      -169.6       207.9      -156.2       8.525
        4784        668.4       3329.      -119.8       145.0      -166.4       11.16
        4785        616.7       3530.      -123.0       100.9      -154.2      0.9018
        4786        767.2       3704.      -110.2       40.81      -154.5       11.48
        4787        996.9       3596.      -165.2       38.62      -98.06       26.22
        4788        922.6       3237.      -181.9       82.82      -99.63       46.51
        4789        835.7       2856.      -223.4       83.19      -72.77       65.27
        4790        647.3       2539.      -190.0       89.55      -73.26       51.55
        4791        62.58       1949.      -192.5       76.10      -43.31       82.29
        4792       -949.5       1698.      -30.63       111.5       64.43      -51.00
        4793       -1831.       2185.       54.40       95.37       133.0      -129.2
        4794       -2844.       5316.       334.0      -48.70       50.29      -452.2
        4795        276.7       6540.      -3811.      -616.8       407.4       26.17
        4796        288.3       4959.      -4060.      -474.0       243.1       122.9
        4797       -949.6       1563.      -66.83       57.65      -7.762      -9.473
        4798       -362.1       3601.      -363.3      -6.882       422.6       19.95
        4799       -245.6       3598.      -319.0      -7.972       329.0       35.42
        4800       -839.6      1.0265E+04  -1643.      -687.2       1809.      -219.4
        4801       -401.6       9817.      -1737.      -866.9       1578.       202.3
        4802       -94.79       3629.      -705.7      -480.3      -79.30       1259.
        4803       -380.8       4067.      -2758.      -457.7       391.4       1345.
        4804        219.3       4996.       922.3       301.5      -571.0      -808.6
        4805       -52.38       5158.       93.10       246.3      -72.72      -679.8
        4806       -132.2       4398.      -152.8      -1.129       52.93      -92.22
        4807        558.8       6235.       432.9       96.11       52.21      -298.1
        4808       -101.4       5153.       163.0       69.55      -77.40      -189.8
        4809       -47.37       4802.       426.8       48.44      -192.1      -137.9
        4810       -25.80       3713.       176.1      -18.71      -116.6       50.91
        4811       -464.7       3583.      -308.9       8.543       454.9       5.977
        4812       -456.5       3624.      -211.7       10.68       386.4      -5.344
        4813       -305.4       3632.      -117.0       20.08       210.3      -6.276
        4814       -111.6       3648.      -48.33       38.23       70.94     -0.6751
        4815       -209.7       1670.      -145.9       42.53      -15.17       35.15
        4816        151.7       3714.      -50.82       25.02      -45.02     -0.9733
        4817        679.5       2559.      -183.0       49.07      -23.14       66.04
        4818        884.7       2976.      -182.4       48.65      -41.18       78.68
        4819        624.6       3715.      -73.43       25.59      -147.1       2.191
        4820        844.5       3734.      -128.2       19.04      -141.0       20.85
        4821        1011.       3514.      -186.6       22.68      -51.01       32.75
        4822        1042.       3741.      -184.3      0.9682      -43.86       7.614
        4823        1038.       3698.      -170.8       6.609      -47.73       16.09
        4824       -2669.       5834.       98.97      -49.07       153.5      -535.3
        4825       -3132.       5952.       180.4       33.70       327.0      -563.4
        4826       -2777.       7804.       384.7       267.4       680.1      -618.2
        4827       -2717.       7123.       78.31       262.3       1005.      -674.8
        4828       -1016.      1.0348E+04  -1267.      -580.8       1888.      -403.0
        4829       -1291.      1.0788E+04  -934.7      -340.8       1880.      -748.6
        4830       -1811.      1.0781E+04  -764.2      -191.4       1858.      -669.1
        4831       -1923.       9904.      -332.3       146.3       1774.      -827.3
        4832        27.96       9758.      -1781.      -777.1       1399.       445.0
        4833        624.5       4574.      -3530.      -396.1       488.4       487.3
        4834       -49.37       8866.      -2363.      -908.1       1245.       567.3
        4835        25.70       8793.      -2776.      -754.1       943.8       792.7
        4836        325.4       3877.      -2991.      -556.6       381.6       1064.
        4837        253.6       8041.      -3072.      -644.8       755.3       610.8
        4838       -54.13       3523.       810.5      -23.24      -463.8       188.2
        4839       -102.1       3367.       1232.      -104.3      -555.7       272.1
        4840       -188.5       3394.       1075.      -172.3      -564.4       392.0
        4841       -223.2       3073.       998.4      -141.5      -539.8       522.4
        4842       -259.5       2867.       553.6      -203.5      -372.1       633.5
        4843       -11.80       3992.       392.1       4.691      -229.7       13.99
        4844       -93.63       3653.      -85.45      -33.29       74.88       76.59
        4845       -2454.       2571.       75.40       55.90       89.08      -238.7
        4846       -2121.       9407.      -90.25       213.5       1561.      -853.1
        4847       -2276.       9095.       265.2       274.3       1427.      -778.0
        4848        323.6       2159.      -273.9       51.68      -19.74       73.47
        4849        998.0       3747.      -160.1       10.48      -91.41       11.17
        4850        942.8       3733.      -135.2       17.36      -122.3       19.87
        4851        747.9       3712.      -107.5       21.40      -149.8       9.403
        4852        436.2       3660.      -66.15       44.64      -126.4      1.5326E-02
        4853        303.7       3762.      -49.81       21.80      -83.99      -10.72
        4854        18.64       3693.      -42.44       35.80       8.948      0.3302
        4855       -214.6       3595.      -82.50       24.72       138.7      -1.683
        4856       -380.4       3617.      -144.8       22.06       275.0      -5.557
        4857       -439.3       3618.      -183.2       16.09       333.2      -8.220
        4858       -483.2       3625.      -266.7       10.07       425.4       3.489
        4859       -429.1       3593.      -321.7       4.844       462.6       11.16
        4860       -416.6       3569.      -357.8     -1.5175E-02   454.4       20.07
        4861       -312.0       3621.      -347.1      -11.53       381.7       25.95
        4862       -193.2       3611.      -261.8      -10.99       257.5       33.65
        4863       -150.4       3630.      -182.8      -19.09       172.9       43.08
        4864       -35.26       3815.       66.17      -36.51      -28.57       55.84
        4865       -15.82       3888.       273.7      -6.803      -183.8       40.50
        4866       -50.45       4089.       402.9       23.42      -254.9      -30.00
        4867       -34.98       4457.       475.6       46.19      -231.4      -91.38
        4868       -88.32       5015.       329.0       70.01      -137.9      -186.1
        4869       -122.8       5200.       108.2       47.93      -38.68      -175.9
        4870       -130.1       3896.      -166.8      -38.25       55.38      -72.57
        4871       -2668.       3837.       261.0      -27.66       173.8      -364.0
        4872       -1737.       2201.       94.01       40.61       73.07      -143.9
        4873       -1328.       1867.       26.79       31.88       59.94      -78.36
        4874       -505.1       1602.      -112.3       56.64      -12.17       5.695
        4875        19.98       1885.      -207.7       30.82      -28.58       88.22
        4876        577.4       2383.      -208.9       56.92      -18.46       60.93
        4877        874.4       2943.      -201.8       27.71      -29.29       72.38
        4878        976.6       3259.      -154.0       40.05      -46.67       65.36
        4879        988.6       3397.      -210.2       29.40      -51.29       37.59
        4880        1032.       3600.      -182.1       14.32      -50.33       33.28
        4881       -2911.       7094.       384.4       14.65       173.6      -676.3
        4882       -3133.       6568.       181.0       86.44       454.9      -627.2
        4883       -2933.       7350.       139.9       162.4       555.8      -665.0
        4884       -2783.       7371.       32.95       329.0       872.4      -713.8
        4885       -2503.       8149.       92.57       233.2       1159.      -739.7
        4886       -2438.       8522.       104.2       291.9       1315.      -729.0
        4887       -2296.       8953.      -41.75       230.8       1461.      -811.3
        4888       -2079.       9569.      -257.6       176.1       1664.      -830.7
        4889       -2035.       9763.      -661.8       141.8       1824.      -832.7
        4890       -1759.      1.0493E+04  -540.0      -7.653       1856.      -825.4
        4891       -1247.      1.0278E+04  -748.3      -272.9       1788.      -677.0
        4892       -1155.      1.0672E+04  -1056.      -380.6       1934.      -552.0
        4893       -1213.      1.0336E+04  -1329.      -501.7       1932.      -502.7
        4894       -889.5      1.0238E+04  -1446.      -611.2       1843.      -328.0
        4895       -732.9       9978.      -1676.      -730.7       1751.      -140.4
        4896       -650.6       9120.      -1807.      -747.1       1637.       40.11
        4897       -253.9       9850.      -1779.      -887.2       1466.       353.9
        4898        177.1       9506.      -2036.      -907.2       1314.       452.3
        4899       -24.79       8863.      -2525.      -969.0       1161.       649.8
        4900       -9.437       9021.      -2455.      -860.8       1074.       774.8
        4901        120.6       8595.      -2928.      -699.0       860.2       733.9
        4902        387.1       8021.      -3176.      -691.0       624.0       423.0
        4903        362.2       7302.      -3461.      -658.2       550.8       212.0
        4904        310.1       6338.      -3993.      -655.0       209.8      -50.29
        4905        210.9       3997.      -3649.      -382.4       203.0       308.3
        4906        422.2       6638.      -3444.      -561.6       527.9       319.7
        4907       -597.8       6377.      -2041.      -627.3       1415.       120.8
        4908       -305.0       3374.      -1912.      -431.4       413.3       1016.
        4909       -95.44       4873.       568.8       123.9      -253.0      -488.3
        4910       -58.07       4416.       629.3       156.4      -293.4      -437.6
        4911       -39.25       3784.       628.6      -12.29      -378.0      -42.94
        4912        191.4       5212.     -0.9130       69.74       134.8      -238.2
        4913       -36.81       3729.       196.7      -44.13      -125.5       84.19
        4914       -259.3       3609.      -324.1      -38.19       336.3       43.38
        4915       -465.1       3615.      -217.6       37.81       382.2      -2.386
        4916       -396.1       3627.      -146.3       38.98       280.7      -19.09
        4917        278.1       2093.      -265.0       86.80      -45.28       64.75
        4918        610.2       3642.      -109.9       53.53      -153.5       3.565
        4919        849.1       3712.      -128.2       20.87      -143.1       40.17
        4920       -2733.       5563.       109.8       260.9       729.1      -601.7
        4921       -1361.       8912.      -688.1      -244.9       1799.      -539.7
        4922        59.17       4714.      -2351.      -478.0       453.2       1045.
        4923        297.9       6248.      -3326.      -593.9       602.6       545.9
        4924        42.91       7757.      -1971.      -775.9       1201.       506.9
        4925       -349.8       2735.      -1108.      -372.5       337.8       654.4
        4926        63.64       5554.       561.7       309.5      -210.7      -713.6
        4927       -67.71       3581.       518.3      -71.40      -353.1       234.5
        4928       -94.93       3404.       685.7      -145.4      -400.9       353.9
        4929       -179.4       3307.       636.5      -174.2      -389.2       402.4
        4930       -210.5       3235.       387.7      -213.9      -283.7       471.7
        4931       -291.7       2840.       253.3      -193.7      -277.5       557.7
        4932       -238.0       1665.      -208.5       78.09      -27.92       49.41
        4933       -2602.       5228.      -41.76       308.7       1056.      -545.8
        4934        366.9       5816.      -3611.      -520.5       430.6       229.0
        4935       -569.3       1578.      -122.1       95.34       16.65       2.786
        4936       -372.5       3595.      -361.4      -14.85       423.3       48.12
        4937       -936.0       7390.      -1763.      -627.6       1683.      -136.6
        4938       -147.1       4900.      -82.49       25.61     -0.5960      -145.6
        4939        12.76       3612.      -47.31       67.49       1.174      -11.80
        4940        151.7       3630.      -54.97       94.76      -42.72      -8.449
        4941        741.1       2736.      -179.5       75.98      -71.04       82.82
        4942        863.4       3125.      -175.2       58.92      -91.78       33.54
        4943        1000.       3558.      -175.5       44.60      -88.58       29.10
        4944        984.2       3678.      -149.9       28.29      -97.48       16.80
        4945       -2725.       3571.       196.0       58.80       257.6      -356.7
        4946       -2839.       4685.       160.5       66.98       426.1      -410.7
        4947       -1193.       8874.      -1330.      -423.4       1866.      -440.1
        4948       -1239.       9330.      -908.4      -288.0       1871.      -547.1
        4949       -1958.       7873.      -404.1       151.0       1657.      -739.8
        4950       -42.64       7172.      -2183.      -796.1       1114.       592.5
        4951       -77.35       6648.      -2436.      -819.0       908.5       767.4
        4952       -106.3       3698.      -6.508      -65.71       16.04       130.7
        4953       -2110.       2982.       167.7       70.90       129.1      -256.2
        4954       -2048.       7872.      -305.9       190.0       1603.      -738.5
        4955       -2314.       7497.       152.8       252.2       1294.      -700.4
        4956        313.6       3638.      -62.99       72.15      -101.5       4.231
        4957       -323.7       3605.      -121.3       39.42       218.3      -19.10
        4958       -490.5       3571.      -313.3       12.71       452.7       7.717
        4959       -445.9       3573.      -331.1       7.735       463.7       14.24
        4960       -190.1       3602.      -248.8      -48.32       217.5       65.44
        4961       -33.31       3907.       378.9      -13.73      -227.6       41.22
        4962       -9.928       4194.       514.4      -3.592      -266.4      -95.17
        4963       -1360.       1876.       1.638       96.44       90.21      -77.68
        4964        515.3       2380.      -221.9       92.34      -56.92       41.78
        4965        965.4       3386.      -203.5       62.28      -91.14       37.39
        4966       -2745.       6113.       331.2       245.4       579.7      -528.5
        4967       -2121.       8085.      -33.42       260.8       1453.      -721.7
        4968       -2012.       8070.      -789.5      -22.94       1769.      -764.8
        4969       -990.4       8421.      -1486.      -512.2       1788.      -280.4
        4970       -403.1       7320.      -1914.      -795.3       1382.       296.4
        4971       -66.87       6092.      -2897.      -700.5       692.2       813.9
        4972       -36.29       3977.       576.4       17.89      -311.6      -100.1
        4973       -71.58       3638.       406.4      -84.52      -282.9       179.1
        4974        569.3       3602.      -103.6       87.68      -147.4       1.779
        4975       -318.5       3564.      -364.7      -68.25       379.1       42.34
        4976       -2612.       4686.       163.0       254.1       651.3      -451.6
        4977       -1213.       6835.      -1446.      -380.6       1718.      -354.6
        4978       -69.87       4471.      -2098.      -485.1       510.1       974.5
        4979       -411.5       2821.      -1292.      -339.7       493.9       485.0
        4980       -296.8       3136.      -1498.      -441.8       490.6       700.7
        4981       -157.9       3176.       82.44      -185.0      -158.5       375.0
        4982       -364.2       2877.      -766.9      -271.0       297.9       394.8
        4983       -276.6       2971.      -296.3      -228.0       46.60       435.0
        4984       -98.96       3337.       322.1      -132.8      -269.2       346.2
        4985       -93.82       3462.       230.2      -112.0      -189.2       279.4
        4986        102.7       2091.      -205.4       126.2      -50.32       56.54
        4987        655.0       3639.      -133.7       64.64      -154.4       6.353
        4988        237.2       4769.      -3631.      -504.3       530.7       508.5
        4989       -145.1       5063.       151.7       101.9      -65.43      -396.8
        4990       -71.29       4560.       574.5       110.7      -259.0      -348.5
        4991       -2580.       3764.       41.00       247.5       650.1      -403.1
        4992       -1529.       7206.      -1172.      -250.7       1736.      -465.5
        4993       -955.5       1976.      -78.57       144.3       91.63      -54.61
        4994       -608.6       1481.      -152.8       131.7       34.47       5.558
        4995        805.7       3098.      -162.7       108.2      -112.3       55.05
        4996        836.8       3236.      -194.9       114.2      -133.6       36.84
        4997        931.5       3501.      -170.0       71.76      -121.1       27.39
        4998        931.7       3556.      -164.8       62.12      -128.8       20.48
        4999       -2382.       3433.       218.3       169.7       301.6      -295.9
        5000       -2116.       2784.       162.1       163.3       223.5      -202.6
        5001        555.6       2424.      -162.4       127.6      -110.7       46.01
        5002       -211.7       4210.      -1757.      -568.1       644.1       697.6
        5003        704.2       3633.      -130.0       74.78      -145.6       9.995
        5004       -383.8       3564.      -381.0      -33.46       434.8       56.57
        5005       -2472.       4798.       152.9       161.8       439.0      -303.9
        5006       -2450.       4249.      -28.70       300.5       811.8      -464.1
        5007       -1476.       7092.      -1277.      -309.0       1763.      -423.6
        5008        14.41       5787.      -2316.      -842.6       694.0       857.7
        5009       -51.74       4410.       502.8       50.79      -251.3      -162.7
        5010       -431.5       3271.      -1614.      -447.4       718.1       456.1
        5011       -472.8       2924.      -1148.      -316.6       579.3       292.3
        5012       -220.0       1755.      -221.0       125.7      -11.91       51.58
        5013        626.4       2703.      -164.3       169.2      -140.6       59.36
        5014        907.0       3641.      -145.4       55.41      -129.6       8.364
        5015       -1400.       1938.      -76.26       186.0       186.6      -127.7
        5016        928.8       3398.      -183.0       89.67      -122.8       30.62
        5017        544.6       3532.      -112.4       130.4      -152.3      -3.454
        5018       -2205.       3325.       41.27       271.1       538.5      -307.0
        5019       -1298.       5300.      -1455.      -341.8       1568.      -286.1
        5020       -324.7       2957.      -427.4      -196.4       176.1       319.1
        5021       -386.0       2866.      -667.8      -233.0       306.8       332.3
        5022       -473.4       3485.      -360.1      0.8140       460.3       7.642
        5023       -2721.       4443.       219.1       203.2       587.9      -514.0
        5024       -2118.       2976.       41.48       250.1       325.5      -224.3
        5025       -330.2       4658.      -1896.      -620.4       922.4       513.5
        5026       -427.9       2880.      -1254.      -359.5       565.5       349.1
        5027       -1494.       5507.      -1302.      -292.8       1614.      -397.3
        5028       -395.2       3530.      -358.7      -60.87       406.2       68.18
        5029       -2429.       4262.      -143.8       310.2       1009.      -477.4
        5030       -431.9       3539.      -367.8      -22.95       460.0       14.02
        5031       -1360.       6899.      -1421.      -343.8       1743.      -377.1
        5032       -496.0       3524.      -318.5       16.84       452.1       6.297
        5033       -981.5       6545.      -1620.      -489.4       1600.      -166.7
        5034        395.0       3612.      -80.31       88.48      -122.8       1.723
        5035       -279.4       3577.      -352.7      -81.73       340.8       22.30
        5036       -476.0       2914.      -864.7      -228.3       495.8       349.0
        5037       -1597.       7212.      -902.9      -195.8       1728.      -509.9
        5038       -1059.       1831.      -102.4       220.0       131.1      -90.88
        5039        804.3       3174.      -177.9       136.3      -140.6       34.17
        5040        823.5       3556.      -147.2       83.57      -150.0       9.911
        5041       -104.7       5414.      -2063.      -691.1       812.0       726.4
        5042        705.1       3554.      -128.4       111.1      -154.8       3.644
        5043       -2136.       2755.      -117.3       325.7       624.2      -294.6
        5044       -362.4       2046.      -143.8       177.3      -13.48       25.80
        5045        558.4       2855.      -161.5       193.7      -149.2       27.80
        5046       -1407.       1963.      -46.30       210.4       217.6      -132.9
        5047        800.1       3475.      -146.6       113.3      -154.9       16.67
        5048       -1154.       5198.      -1523.      -334.1       1511.      -218.6
        5049       -468.1       3491.      -366.0       5.923       453.5       12.12
        5050       -516.3       3477.      -325.6       26.47       449.8       4.737
        5051       -2309.       4117.      -194.8       364.6       991.3      -340.9
        5052       -1078.       4935.      -1534.      -325.4       1461.      -147.9
        5053       -913.0       6839.      -1562.      -567.0       1643.      -141.3
        5054       -501.3       3536.      -279.0       39.71       428.5       3.717
        5055       -1916.       2318.       7.015       248.7       331.1      -223.8
        5056       -2473.       3945.       255.2       219.8       419.1      -282.2
        5057        853.5       3644.      -138.2       52.95      -138.8       7.257
        5058        369.3       3517.      -88.25       129.1      -125.4      -2.942
        5059        218.5       3591.      -67.43       97.94      -78.41      -6.826
        5060       -307.9       3463.      -415.1     -0.3957       329.6       177.0
        5061       -229.0       3608.      -307.6      -59.91       270.8       84.32
        5062       -1551.       5244.      -1137.      -213.7       1531.      -407.4
        5063       -1811.       6661.      -868.5      -159.3       1682.      -571.5
        5064       -635.6       1865.      -58.58       219.0       40.07      -21.10
        5065        637.5       3046.      -152.3       181.7      -159.2       29.04
        5066        822.0       3297.      -179.1       121.7      -147.0       31.30
        5067        764.1       3528.      -137.6       117.5      -156.6       9.928
        5068       -136.2       6000.      -1948.      -710.9       940.1       591.4
        5069       -842.9       6070.      -1646.      -538.1       1495.      -71.81
        5070        693.9       3418.      -134.1       138.3      -161.0       9.554
        5071        613.0       3414.      -120.1       145.8      -158.9       7.021
        5072       -474.9       3545.      -241.1       57.21       386.1      -10.74
        5073       -212.7       3582.      -288.4      -73.71       226.1       115.7
        5074       -1954.       6240.      -814.6      -14.15       1619.      -599.2
        5075       -2107.       3517.      -162.9       339.3       840.6      -400.7
        5076        47.16       3537.      -77.11       105.1      -30.07      -16.58
        5077        579.7       3104.      -148.8       191.2      -163.9       3.871
        5078       -435.1       3543.      -194.4       61.91       323.9      -20.37
        5079       -681.2       5886.      -1719.      -564.0       1359.       75.71
        5080       -2529.       5580.      -134.6       257.8       1290.      -641.7
        5081       -231.5       3484.      -343.1      -91.46       265.5       154.8
        5082       -1729.       4550.      -771.9       2.721       1388.      -464.6
        5083       -817.8       4853.      -1717.      -467.6       1333.       63.89
        5084        531.0       3326.      -105.9       173.0      -166.1       5.832
        5085       -482.1       3437.      -277.3       72.18       395.8      -14.74
        5086       -145.5       3624.      -130.9      -86.61       94.61       140.9
        5087       -1896.       6357.      -614.3       73.78       1576.      -643.9
        5088        131.7       3503.      -93.67       115.4      -61.68      -17.47
        5089       -2354.       5867.      -189.5       280.8       1311.      -630.1
        5090       -23.39       3587.      -82.58       93.25       9.834      -24.50
        5091        423.0       3026.      -148.3       215.8      -153.7      -1.462
        5092       -447.3       3447.      -155.9       108.8       281.4      -21.56
        5093       -635.6       4761.      -1654.      -523.7       1186.       122.9
        5094       -177.5       3566.      -169.0      -100.0       120.8       191.4
        5095       -1817.       3635.      -631.2       117.2       1205.      -411.5
        5096       -366.5       3550.      -196.6       13.22       285.4      -74.62
        5097       -108.0       3495.      -109.0       112.8       67.22      -25.09
        5098       -463.8       5230.      -1971.      -625.3       1162.       78.69
        5099       -2167.       6139.      -414.7       212.4       1465.      -669.9
        5100       -125.1       3662.       48.37      -62.52      -33.40       177.5
        5101       -2032.       6370.      -531.1       151.9       1520.      -681.0
        5102       -2038.       3483.      -317.9       283.5       989.2      -441.6
        5103        224.7       3125.      -117.1       197.5      -108.4      -34.18
        5104       -496.9       5167.      -1901.      -597.9       1176.       245.0
        5105       -347.8       3571.      -149.2       61.39       234.2      -27.22
        5106        344.4       2755.      -161.1       230.0      -149.1      -4.249
        5107        447.9       2708.      -169.8       211.5      -132.7       13.72
        5108       -54.55       3484.      -113.9       128.7       53.19      -30.52
        5109       -2153.       4712.      -456.6       193.4       1311.      -563.2
        5110        313.7       3335.      -89.46       161.5      -119.1      -10.22
        5111       -62.54       3724.       130.6      -69.79      -100.9       150.2
        5112        217.7       3113.      -97.96       238.3      -91.31      -3.921
        5113        399.5       2461.      -205.0       164.9      -124.1       28.10
        5114       -418.5       4728.      -1816.      -468.7       1040.       360.1
        5115       -309.3       3443.      -113.0       132.3       157.7      -26.22
        5116        273.5       2505.      -180.1       202.2      -118.7       29.85
        5117       -78.07       3679.       101.0      -94.00      -87.72       186.5
        5118       -289.1       6181.      -1967.      -721.9       1147.       395.8
        5119       -168.6       6140.      -1973.      -701.7       1059.       474.3
        5120       -42.74       3827.       285.7      -48.61      -180.1       113.2
        5121       -42.81       3874.       378.1      -37.08      -229.9       81.49
        5122       -55.30       3813.       382.1      -56.69      -230.4       118.9
        5123       -39.41       4106.       516.2       23.70      -272.8      -97.31
        5124        420.9       3535.      -3270.      -535.9       271.4       402.5
        5125       -107.0       3628.      -104.0      -40.76       34.43      -118.1
        5126       -279.1       2861.      -1527.      -333.7       197.7       1078.
        5127       -271.4       3650.       2242.      -56.46      -828.3       351.5
        5128       -146.2       4311.      -136.5       11.76       50.90      -194.8
        5129       -194.1       3349.       1131.      -140.0      -570.6       448.8
        5130       -244.5       3562.      -88.46       40.86       152.5      -22.68
        5131       -66.83       3707.       86.50      -55.72      -61.73       101.1
        5132       -67.73       4670.       479.7       81.83      -222.9      -262.1
        5133       -117.6       4827.      -27.24       68.56      -18.29      -289.7
        5134       -121.1       4510.      -169.3      -45.69       20.53      -177.4
        5135        41.28       4998.      -3375.      -608.1       564.8       709.0
        5136       -291.2       3080.      -1216.      -389.3       289.0       877.9
        5137       -43.74       4114.       657.7       82.01      -297.3      -256.5
        5138       -186.5       3670.      -2035.      -403.6       388.0       1161.
        5139       -223.4       3194.       823.3      -153.8      -465.1       491.8
        5140       -47.46       3790.       226.5      -52.42      -144.8       114.5
        5141       -264.8       3584.      -328.7      -62.40       310.0       52.69
        5142       -298.2       3579.      -113.0       80.64       178.8      -21.69
        5143       -220.4       3481.      -94.45       122.1       105.6      -30.33
        5144       -349.2       2813.      -841.5      -336.0       268.7       600.2
        5145       -330.8       2712.      -271.2      -217.1      -28.34       575.0
        5146       -56.65       3830.       524.1      -28.99      -301.7       64.65
        5147       -66.97       3704.       256.4      -82.92      -171.6       178.5
        5148       -225.6       3468.      -63.26      -93.55       68.94       243.3
        5149       -1812.       2252.       15.93       150.4       182.3      -177.9
        5150       -1484.       1749.      -71.31       152.0       139.7      -92.90
        5151        456.4       2403.      -220.9       128.7      -91.39       21.09
        5152        662.7       2756.      -165.5       123.6      -114.1       90.53
        5153        857.0       3118.      -194.3       106.2      -114.0       39.18
        5154       -2345.       5533.       8.341       265.8       1138.      -567.2
        5155       -235.3       2994.       399.4      -183.0      -325.9       533.0
        5156       -279.4       2905.       23.95      -196.0      -168.1       525.1
        5157       -291.2       3550.      -349.9      -65.22       317.6       91.95
        5158       -93.03       3588.       246.4      -110.5      -175.0       220.8
        5159       -141.2       3284.       44.00      -130.4      -115.9       300.2
        5160       -345.7       3472.      -96.63       131.1       158.3      -3.312
        5161        199.5       3499.      -84.99       126.3      -84.45      -11.56
        5162        882.6       3479.      -166.9       96.31      -140.9       23.53
        5163       -54.11       3715.       384.8      -82.46      -253.2       147.5
        5164       -77.90       3692.       283.8      -101.2      -167.6       163.5
        5165       -81.78       3741.       529.3      -53.49      -263.4       83.57
        5166       -397.4       3505.      -171.5       101.2       264.1      -2.720
        5167       -312.0       6326.      -1848.      -728.5       1187.       288.9
        5168       -2267.       5968.      -316.6       248.1       1391.      -656.5
        5169        102.2       3437.      -69.73       165.4      -65.15       6.157
        5170        113.9       3345.      -72.06       164.1      -62.96      -26.59
        5171       -2942.       4432.       196.7       244.7       585.4      -621.1
        5172        30.42       3517.      -99.33       125.7      -13.49      -29.53
        5173       -59.43       3395.      -94.57       151.5       12.90      -15.64
        5174       -161.9       3362.      -40.89       157.7       19.52      -15.71
        5175       -222.4       3081.       408.7      -196.2      -310.4       485.1
        5176       -263.8       2995.       131.2      -201.0      -146.9       479.0
        5177       -334.2       4200.      -1652.      -528.7       795.4       466.1
        5178       -418.8       2937.      -1090.      -262.1       491.8       491.9
        5179       -353.1       3454.      -149.1       122.2       222.2      -27.91
        5180       -375.4       3325.      -179.9       134.3       232.8      -34.54
        5181       -385.0       3487.      -445.2      -28.61       457.5      -11.27
        5182       -429.0       3482.      -429.7      -48.17       451.9       33.44
        5183       -2416.       5779.      -161.1       286.2       1269.      -604.2
        5184       -1805.       2584.      -144.0       338.8       569.9      -280.4
        5185       -738.2       3795.      -1531.      -346.0       1095.       94.10
        5186       -1634.       2169.      -156.9       364.3       432.2      -223.6
        5187       -2156.       2526.      -66.03       297.6       506.7      -244.8
        5188       -2558.       3403.       111.1       243.9       530.5      -333.8
        5189       -337.3       3178.      -398.9      -79.59       304.2       242.6
        5190       -383.2       3107.      -411.9      -131.0       308.5       201.6
        5191       -377.7       2932.      -562.7      -174.2       295.0       263.6
        5192       -286.5       2823.      -362.3      -220.0       50.61       455.6
        5193       -363.5       3135.      -149.6       184.0       170.5      -42.37
        5194       -309.0       2795.      -321.5      -228.9       31.59       493.5
        5195        765.4       3405.      -151.6       124.6      -154.2       14.98
        5196        24.12       3331.      -96.64       155.7      -21.81      -33.12
        5197       -444.9       2974.      -530.6      -145.2       370.8       176.4
        5198       -455.0       2862.      -568.3      -163.0       396.4       195.6
        5199       -613.1       2769.      -773.1      -147.3       586.1       136.7
        5200        736.7       3176.      -179.3       144.4      -152.4       16.85
        5201        735.1       3333.      -154.5       125.9      -149.5       15.46
        5202       -2110.       3396.      -251.9       306.3       929.4      -419.3
        5203       -1824.       2960.      -235.0       319.7       749.4      -335.8
        5204       -472.0       3426.      -397.6       26.24       467.2       36.97
        5205       -951.7       4981.      -1501.      -338.3       1403.      -36.86
        5206       -1383.       5515.      -1385.      -324.5       1595.      -327.2
        5207       -1615.       5583.      -1028.      -162.8       1579.      -500.0
        5208       -368.8       2738.      -761.9      -272.7       278.3       436.4
        5209       -457.9       3027.      -527.0      -114.7       404.7       177.1
        5210       -1347.       1990.      -159.0       363.3       364.4      -189.1
        5211       -1892.       2884.      -171.7       340.7       706.9      -338.9
        5212       -1705.       2450.      -104.9       336.2       337.2      -164.0
        5213       -1090.       1957.      -137.4       345.0       245.4      -140.8
        5214       -2224.       3314.       147.6       234.5       385.6      -278.4
        5215        832.8       3479.      -156.0       116.8      -153.6       12.24
        5216        832.2       3402.      -165.1       114.9      -147.3       16.31
        5217       -422.8       3282.      -224.8       59.35       288.3      -99.39
        5218        675.7       3206.      -166.1       174.8      -179.7       13.29
        5219       -467.5       2817.      -861.7      -187.2       474.1       256.5
        5220       -587.7       3305.      -369.6       61.10       471.1       140.5
        5221       -394.3       3479.      -343.9      -50.41       364.1       98.75
        5222       -766.8       3143.      -1315.      -266.9       940.8       86.59
        5223       -71.31       3050.      -75.55       216.6      -24.69      -26.98
        5224       -60.61       3200.      -79.56       213.9      -26.31       6.896
        5225       -569.2       2945.      -205.0       165.6       296.4      -47.09
        5226       -610.9       2837.      -1029.      -225.1       659.5       181.8
        5227       -435.8       4699.      -2002.      -620.3       1022.       408.8
        5228       -480.2       3901.      -1582.      -505.9       872.2       373.1
        5229       -346.8       4588.      -1704.      -513.2       931.5       394.2
        5230        822.2       3346.      -171.4       109.6      -140.3       26.35
        5231       -639.3       3067.      -498.8      -12.50       553.2       32.09
        5232       -644.6       3396.      -229.5       11.11       426.9      -51.00
        5233       -547.2       3384.      -338.0       57.02       453.3       15.58
        5234       -506.2       2984.      -584.7      -90.67       450.9       141.5
        5235       -545.3       2863.      -589.7      -126.6       470.9       95.77
        5236       -543.9       2840.      -651.7      -137.3       472.2       130.9
        5237       -1063.       4085.      -1450.      -300.4       1290.      -105.8
        5238       -2237.       4438.      -302.7       267.2       1146.      -540.3
        5239       -162.0       2694.      -109.8       256.6      -33.13      -19.64
        5240       -1306.       4889.      -1288.      -234.7       1471.      -258.0
        5241       -1401.       4821.      -1178.      -194.5       1464.      -321.1
        5242       -1533.       5114.      -950.5      -162.3       1500.      -371.0
        5243       -1488.       4761.      -893.6      -52.12       1459.      -394.9
        5244       -376.3       1929.      -133.8       225.2      -8.727       2.621
        5245       -12.57       2248.      -154.8       213.5      -76.08       3.944
        5246        543.2       2799.      -181.2       210.0      -150.8       29.49
        5247        454.8       2533.      -194.2       149.7      -140.5       56.01
        5248        119.4       2424.      -128.5       189.0      -75.95       42.08
        5249       -587.4       3132.      -370.3       52.93       479.4      -30.86
        5250       -1586.       2588.      -292.2       316.7       681.9      -283.9
        5251       -831.0       3224.      -1248.      -237.0       987.9       23.26
        5252       -677.4       2785.      -258.1       182.9       345.6      -68.59
        5253       -1930.       3804.      -554.1       158.0       1207.      -461.2
        5254       -844.5       2012.      -162.2       355.7       191.8      -118.3
        5255       -747.0       3024.      -763.2      -95.53       699.1       50.43
        5256       -673.3       2686.      -897.9      -181.8       684.2       106.8
        5257       -888.6       2726.      -1142.      -153.8       871.4       15.40
        5258       -615.4       2754.      -638.6      -111.6       506.0       104.6
        5259       -1385.       2156.      -236.3       317.4       553.5      -212.1
        5260       -744.9       2805.      -955.3      -218.1       730.4       127.8
        5261       -299.7       2613.      -79.54       233.7      -1.590      -26.24
        5262       -567.2       3115.      -529.8      -63.82       491.5       97.61
        5263       -694.0       2881.      -667.6      -93.01       585.4       58.97
        5264       -1023.       1862.      -135.0       266.4       95.94      -69.45
        5265       -450.1       1989.      -107.9       264.4       31.17      -35.32
        5266       -267.9       2205.      -134.9       256.8      -21.55      -13.05
        5267       -584.0       2962.      -606.3      -74.49       519.5       99.97
        5268        111.4       2734.      -105.1       258.9      -87.78       5.693
        5269       -1349.       2259.      -262.8       309.1       538.5      -206.1
        5270       -1790.       2935.      -380.9       275.6       886.2      -357.6
        5271       -624.8       3043.      -409.0       18.76       482.3      -86.37
        5272       -1473.       4208.      -1040.      -124.4       1376.      -295.1
        5273       -1071.       3602.      -1261.      -210.0       1169.      -95.51
        5274       -1197.       3427.      -1223.      -166.8       1178.      -145.0
        5275       -1250.       2891.      -864.0      -34.35       1048.      -164.3
        5276       -558.5       2175.      -138.6       314.7       57.30      -77.62
        5277       -408.1       2338.      -127.8       290.1       26.84      -42.22
        5278       -901.4       3252.      -795.7      -55.36       892.4      -14.58
        5279       -926.3       2669.      -762.6      -1.838       734.7      -4.989
        5280       -1772.       3547.      -472.4       232.2       1075.      -374.1
        5281       -514.3       2083.      -133.1       317.7       57.10      -81.20
        5282       -271.6       2393.      -139.3       286.3       4.101      -34.97
        5283       -725.0       2937.      -399.7       62.46       508.2      -49.43
        5284       -653.5       3006.      -444.2       55.14       506.6      -24.31
        5285       -831.1       2720.      -518.9       19.71       615.4      -46.74
        5286       -539.9       3404.      -545.8       38.33       549.2       144.4
        5287       -641.6       3100.      -634.8      -60.11       568.2       35.21
        5288       -1404.       2772.      -707.6       84.18       982.7      -224.1
        5289       -1926.       4281.      -438.1       184.2       1234.      -539.0
        5290       -1294.       3982.      -996.3      -129.4       1297.      -239.3
        5291       -1774.       2900.      -448.5       245.6       903.8      -354.8
        5292       -1108.       3248.      -1088.      -147.3       1058.      -86.85
        5293       -1061.       2105.      -211.8       332.4       392.9      -152.1
        5294       -222.0       2558.      -106.5       281.1       4.486      -1.292
        5295       -1161.       3490.      -1070.      -125.2       1175.      -151.8
        5296       -803.6       2758.      -494.0       179.7       585.9       46.89
        5297       -879.0       2630.      -528.7       89.50       619.0      -57.85
        5298       -942.8       2640.      -562.8     -5.5990E-02   652.4      -132.1
        5299       -1031.       2517.      -554.5       85.25       680.8      -92.76
        5300       -958.3       2384.      -276.4       239.7       414.0      -112.9
        5301       -1021.       2594.      -746.2       27.39       795.8      -56.39
        5302       -1048.       2552.      -661.7       76.85       745.2      -60.51
        5303       -1048.       2726.      -746.3       5.739       839.5      -27.41
        5304       -1425.       2556.      -551.1       168.5       862.8      -240.7
        5305       -1063.       2511.      -723.2       63.77       800.9      -132.0
        5306       -1216.       2313.      -331.9       218.6       549.7      -176.5
        5307       -1220.       2374.      -393.8       224.2       625.4      -177.7
        5308       -1111.       2355.      -341.4       307.1       527.7      -135.1
        5309       -1279.       2532.      -505.0       217.4       760.9      -226.4
        5310       -1019.       2433.      -408.1       179.4       574.3      -135.1
        5311       -1005.       2507.      -449.7       130.3       629.0      -115.9
        5312       -1119.       2480.      -505.4       100.8       687.4      -194.0
        5313        93.27      -626.6      -1752.       419.6      -18.72       186.3
        5314        210.4      -699.0      -1203.       500.8      -41.85       345.8
        5315        317.3      -300.3      -510.5       733.3      -111.6       427.2
        5316        726.5       883.8       1077.       874.0      -181.9       234.3
        5317        697.3       3670.       1032.       788.6      -166.8      -50.15
        5318        537.5       5555.       954.2       709.3      -25.11      -171.1
        5319        878.6       8497.       851.5       384.9       49.18      -56.96
        5320        546.9       8286.       601.0      -7.058       53.05       265.7
        5321        590.2       7507.       521.3      -248.5      -67.68       442.6
        5322        551.5       4740.       521.6      -422.8      -122.2       510.7
        5323        492.2       2698.       729.0      -558.8      -145.1       407.9
        5324        65.75       48.09       159.7      -555.8      -150.3       164.9
        5325        166.6      -302.4       77.70      -558.9      -94.50       48.83
        5326       -291.0      -1374.      -1043.      -465.2      -69.38       42.85
        5327       -333.1      -634.3      -1354.      -386.1      -44.33      8.7894E-02
        5328        123.7       1368.       467.1      -179.6      -197.9      -125.3
        5329        260.8       1490.       70.63       43.55      -84.75       3.126
        5330        25.89       1535.      -107.0      -9.222      -82.52       24.64
        5331       -192.1      -211.8      -41.55      -384.4      -206.1      -216.9
        5332       -398.7       834.2       5.291      -358.4      -204.1      -167.7
        5333       -181.0       596.9      -2332.       38.25      -340.6      -2.513
        5334        120.0       82.71      -4782.      -715.2      -36.47      -204.5
        5335        41.10       689.6      -4361.      -480.7      -71.17      -134.4
        5336       -193.0       65.12      -3789.      -334.8      -158.5      -173.6
        5337        224.3       463.1      -2900.      -242.9      -261.7      -100.9
        5338       -329.5       963.9      -1443.       370.7      -318.1       60.35
        5339        163.6       179.6      -1817.       425.3      -302.5       238.3
        5340       -43.31       1595.      -209.8       319.9       51.85      -39.64
        5341       -92.77       2056.      -162.1       169.2       78.01      -4.895
        5342        28.19       3242.      -125.0       133.2       35.51       4.045
        5343        49.88       4006.      -58.42       126.0       31.02       9.477
        5344        4.193       4519.      -28.71       111.6       24.79       11.02
        5345       -24.64       4834.      -15.11       92.94       22.71       31.73
        5346       -22.89       4942.       82.63       66.69       5.344       49.20
        5347       -5.755       4868.       77.11       46.13      -5.715       44.92
        5348       -16.10       4647.       101.0       24.90      -8.894       46.65
        5349        29.49       4485.       139.9      -7.934      -15.88       40.17
        5350        19.15       4361.       131.9      -6.527      -15.31       32.16
        5351       -16.61       4211.       89.50      -2.973      -1.914       21.36
        5352       -34.09       4097.       56.11       6.683       7.983       22.56
        5353       -20.03       4090.       48.56       24.30       19.30       30.47
        5354       -80.30       3865.      -15.15       38.28       34.35       39.52
        5355       -76.32       3840.      -4.926       29.58       37.91       31.91
        5356       -70.30       3808.      -14.36       23.83       41.00       27.22
        5357       -56.97       3775.      -29.43       20.64       42.62       28.29
        5358       -34.11       3854.       30.05       31.40       46.71       30.51
        5359       -65.05       3826.      -36.68       41.59       47.31       30.03
        5360       -39.43       3656.      -40.71       47.62       44.69       32.92
        5361       -48.22       3550.      -41.33       46.67       38.07       41.13
        5362       -35.82       3645.      -30.34       45.11       33.64       47.78
        5363       -7.031       3649.      -29.71       52.64       27.08       49.21
        5364        3.509       3646.      -21.05       58.94       20.55       45.96
        5365        16.06       3497.      -41.71       48.31       12.98       45.24
        5366        59.74       3706.      0.2767       41.95       11.08       46.89
        5367        70.37       3716.      -38.18       48.92       7.508       48.79
        5368        91.77       3677.      -32.34       54.78       1.386       55.33
        5369        111.2       3657.      -18.14       52.19      -5.067       60.21
        5370        155.7       3737.      -15.18       48.34      -10.93       58.93
        5371        184.8       3725.      -2.146       40.35      -8.213       55.34
        5372        212.1       3733.      -4.321       43.05      -14.57       75.00
        5373        226.6       3705.       22.73       46.11      -20.40       73.56
        5374        271.1       3806.       1.251       33.65      -23.41       57.88
        5375        282.9       3779.       7.095       26.99      -20.78       52.33
        5376        297.0       3761.      -5.022       19.13      -18.26       43.51
        5377        290.2       3702.      -40.36       10.78      -14.48       49.22
        5378        367.0       3915.       78.92       8.738      -8.415       59.08
        5379        289.1       3645.      -23.69       9.463      -1.934       55.88
        5380        320.2       3817.      -21.34      -1.031       194.4       4.729
        5381        339.0       3792.      -6.317      -6.565       196.8       12.45
        5382        415.1       3851.       22.85      -10.22       182.6       26.65
        5383        396.2       3801.       19.77      -18.10       176.8       28.29
        5384        482.3       3931.       75.98      -20.57       190.4       28.36
        5385        523.1       3839.       36.04       8.295       185.0       34.96
        5386        498.9       3556.       1.692      -26.31       156.5       62.61
        5387        460.5       3515.      -26.60      -50.44       138.1       53.31
        5388        429.2       3724.       6.030      -68.63       143.1       65.72
        5389        468.8       3859.       49.87      -53.51       162.2       66.78
        5390        406.7       3894.       22.98      -7.309       180.7       66.02
        5391        100.0       3381.      -18.60      -21.41       164.1       44.02
        5392        54.17       3510.       32.15      -37.09       151.0       39.22
        5393       -456.0       3072.      -35.34      -41.41       155.5       9.217
        5394       -871.5       3219.       61.27      -51.52       141.1       16.06
        5395       -1311.       3107.       52.25      -5.164       97.16      -49.46
        5396       -1777.       2961.       6.607      -39.44       94.09      -130.0
        5397       -2385.       2851.      -46.43      -44.82       68.19      -218.2
        5398       -3075.       2403.      -62.61      -81.24       72.00      -319.4
        5399       -3732.       3062.      -317.3      -26.97       50.71      -541.1
        5400       -4356.       2469.       335.3       72.06      -30.10      -711.1
        5401        447.7       4421.      -389.4      -89.09       163.9       395.5
        5402        402.6       4678.      -504.5      -191.6       182.7       384.0
        5403       -258.3       892.7      -1496.      -157.2       59.38      -64.70
        5404       -133.1       1861.      -824.3      -204.5       133.3      -210.5
        5405       -36.09       4101.      -1277.      -127.6       131.5      -186.3
        5406        91.10       5366.      -1514.      -140.3       205.3       113.9
        5407        216.7       5755.      -1063.      -115.9       454.7       417.6
        5408        381.7       5536.      -859.9      -125.3       287.9       437.9
        5409        423.5       5013.      -100.8      -91.54       149.0       406.2
        5410        255.7       4809.      -304.1      -120.5       291.0       295.0
        5411        300.3       5616.      -406.5      -78.67       184.2       257.6
        5412        294.3       5664.      -371.3      -4.502       145.2       368.4
        5413        149.2       5382.      -42.17       27.20      -32.24       591.9
        5414        132.5       2611.       435.8       56.62      -76.33       455.6
        5415        174.4       876.2       865.7       171.9      -73.12       163.8
        5416        9.832       3865.       88.39       60.88       70.87      -5.864
        5417       -4580.       199.6      -578.4       728.7       819.5      -698.6
        5418        206.9       3794.       30.49       24.50      -2.031      -26.34
        5419       -3875.       917.1      -1050.       860.4       1408.      -930.5
        5420        196.8       3885.       252.1       23.48      -284.2      -14.61
        5421       -2109.       2766.      -2511.      -640.9       1865.       9.841
        5422        30.05       4771.      -272.0      -34.92       212.5       85.60
        5423        130.2       4375.      -194.8      -9.640       116.3       212.6
        5424       -649.9       1452.      -4275.      -668.7       1066.       696.2
        5425       -433.5      -694.1      -3652.      -382.5       272.2      -96.15
        5426       -358.9       1548.      -2926.      -306.9       318.3      -16.88
        5427       -522.6      -888.3      -4907.      -519.7       406.0       16.07
        5428        18.21       4589.      -2151.      -188.5       404.0       79.32
        5429       -282.1       2596.      -3064.      -382.8       478.1       264.5
        5430       -240.9       641.7      -4463.      -690.1       798.9       296.9
        5431        26.35       5454.      -1993.      -139.1       680.5       402.1
        5432       -247.6       4570.      -2118.      -195.3       776.1       548.5
        5433       -415.2       3107.      -3411.      -457.7       804.0       610.5
        5434        103.7       4827.      -352.2      -37.88       216.8       127.2
        5435        78.29       5017.      -585.3      -102.6       314.0       177.9
        5436        158.9       5137.      -684.3      -97.34       344.7       177.2
        5437        179.9       4990.      -433.8      -28.38       366.9       192.1
        5438        256.1       4920.      -187.6      -171.7       405.4       242.6
        5439        373.9       4963.      -451.0      -68.38       479.0       441.3
        5440        364.7       5119.      -595.0      -79.19       590.6       530.6
        5441        289.0       5556.      -885.1      -150.4       640.9       680.5
        5442       -103.9       5365.      -1621.      -331.1       746.7       1031.
        5443       -382.0       4519.      -2575.      -512.0       900.3       952.6
        5444       -417.7       3240.      -3364.      -622.0       985.8       894.1
        5445       -781.5       1581.      -4224.      -765.9       1312.       928.5
        5446        123.4       5155.      -620.8      -94.55       285.6       354.5
        5447        198.3       5016.      -453.2       63.53       205.3       318.5
        5448        103.4       4761.      -297.1      -43.06       151.2       139.6
        5449        240.8       4900.      -222.3      -31.28       128.5       350.1
        5450        198.0       2349.       182.0      -90.03      -34.02       288.2
        5451        197.7       1089.       160.0       32.41       38.90       139.4
        5452        38.06       4742.      -363.8      -54.79       246.3       98.69
        5453        59.05       4821.      -491.3      -58.61       293.7       81.38
        5454        81.29       4762.      -84.79      -20.32       258.5       99.20
        5455        84.46       4816.       26.60      -102.9       292.7       203.2
        5456        115.3       4844.       35.48      -143.9       324.2       501.9
        5457        123.2       5003.      -182.2      -179.0       457.8       731.0
        5458       -70.04       5377.      -1072.      -313.2       620.0       978.6
        5459       -446.4       5197.      -1927.      -606.7       953.4       1140.
        5460       -510.1       4709.      -2342.      -616.6       1052.       1120.
        5461       -658.9       3900.      -2903.      -705.2       1155.       1090.
        5462        20.86       4341.       92.56       16.01       35.25      -12.74
        5463        44.68       4459.       135.9       25.57       45.38     -0.7483
        5464        83.63       4562.       216.7      -5.513       11.86       57.56
        5465        110.3       4699.       329.7      -71.28      -32.71       193.2
        5466        72.75       4944.       289.9      -177.1       52.46       395.5
        5467        14.10       5180.       109.3      -313.6       188.1       671.5
        5468       -109.7       5490.      -244.2      -436.2       394.8       910.0
        5469       -398.0       5791.      -660.1      -571.3       610.7       866.6
        5470       -646.1       5562.      -1328.      -671.0       910.0       996.2
        5471       -726.8       5233.      -1789.      -756.4       1081.       1046.
        5472       -1363.       2640.      -3453.      -958.3       1661.       899.1
        5473       -1214.       1982.      -3910.      -993.8       1639.       940.2
        5474       -873.7       4083.      -2910.      -819.6       1278.       1100.
        5475       -721.8       4791.      -2014.      -698.6       1113.       1111.
        5476       -511.9       5388.      -1693.      -688.4       942.5       1143.
        5477       -207.0       5419.      -992.2      -457.6       699.4       1124.
        5478        60.87       5016.       63.78      -238.5       242.4       654.6
        5479        44.99       4833.       232.6      -152.5       204.5       280.8
        5480        69.80       4743.       59.56      -20.66       185.9       90.19
        5481        39.41       4635.       8.884       18.33       188.3       79.77
        5482        18.64       4523.       13.48      -10.19       124.5      -24.71
        5483        2.972       4567.      -169.2      -15.02       197.8       20.31
        5484      -0.1572       4519.      -156.2      -13.16       171.5       32.03
        5485        62.87       4182.       193.1       22.26      -87.41      -9.605
        5486        79.67       4210.       241.8       32.27      -115.0      -21.92
        5487        146.6       4364.       322.1      0.1537      -176.4      -1.761
        5488        124.0       4506.       331.7      -11.26      -109.6       64.66
        5489        115.1       4676.       389.3      -69.88      -98.38       168.8
        5490        98.05       4917.       316.0      -157.7      -13.99       332.2
        5491       -45.87       5402.       31.71      -340.8       198.7       661.4
        5492       -234.1       5667.      -335.5      -471.8       411.0       804.0
        5493       -417.0       5794.      -537.5      -492.9       541.4       710.0
        5494       -580.8       5666.      -1073.      -610.4       797.8       864.0
        5495       -892.1       5235.      -1711.      -720.5       1140.       904.3
        5496       -1671.       2891.      -2911.      -856.0       1712.       665.2
        5497        105.1       4018.       252.2       10.31      -190.0      -17.80
        5498        166.1       4109.       286.4       47.86      -212.7      -15.01
        5499        245.9       4263.       283.9       72.89      -256.4       16.15
        5500        246.2       4456.       380.1       31.19      -244.6       37.09
        5501        242.5       4615.       354.4       49.43      -246.6       148.7
        5502        94.81       4887.       338.4      -141.2      -68.65       266.8
        5503       -30.36       5407.       67.62      -285.9       135.7       541.9
        5504       -132.8       5589.      -93.08      -365.4       254.0       610.5
        5505       -411.3       5822.      -436.8      -378.4       460.3       562.4
        5506       -778.0       5669.      -1149.      -562.4       896.3       650.5
        5507       -1046.       5204.      -1666.      -695.7       1190.       695.7
        5508       -1341.       4306.      -2062.      -655.8       1339.       588.3
        5509       -1907.       2658.      -2828.      -782.3       1828.       276.2
        5510        282.0       3805.       264.8       35.81      -339.4      -10.56
        5511        353.4       3954.       246.2       54.18      -345.6      -35.04
        5512        382.1       4188.       330.2       102.9      -357.8      -15.42
        5513        406.0       4678.       337.8       89.68      -320.0     -0.9738
        5514        221.2       4419.       349.3       12.34      -282.7       8.517
        5515        230.6       4888.       208.5       47.25      -186.4       18.87
        5516        134.3       5274.       172.9      -1.409      -96.63       129.6
        5517       -77.26       5425.      -46.66      -8.399       62.03       139.3
        5518       -411.6       5885.      -352.2      -126.4       399.3       167.6
        5519       -1070.       5399.      -1113.      -244.4       906.3       110.2
        5520       -1100.       5383.      -1219.      -403.3       1029.       258.5
        5521       -1424.       5135.      -1377.      -378.1       1151.       126.7
        5522       -2486.       2390.      -2257.      -397.7       1883.      -258.9
        5523       -1698.       3793.      -2180.      -626.7       1570.       254.5
        5524       -946.6       5413.      -1385.      -587.0       1082.       607.9
        5525       -746.7       5798.      -966.2      -480.7       822.3       475.0
        5526       -527.3       5896.      -546.5      -342.0       552.3       365.0
        5527       -96.62       5757.      -65.72      -150.8       164.8       265.4
        5528        58.61       5328.       173.4      -136.3      -44.74       243.4
        5529        163.1       4836.       379.7      -96.81      -191.6       151.3
        5530        275.6       4587.       340.9       8.183      -256.3       76.95
        5531        273.1       4257.       335.5       47.82      -313.4       5.996
        5532        270.0       4014.       319.4       52.28      -314.0       1.560
        5533        165.1       3963.       299.3       20.25      -249.6      -31.47
        5534        419.8       4142.       273.9       124.8      -363.2      -22.92
        5535        439.5       4318.       274.3       95.01      -358.1      -41.61
        5536        360.3       4592.       305.1       199.5      -324.4       73.23
        5537        403.7       4910.       287.2       160.8      -282.6      -28.83
        5538        176.8       5395.       122.5       108.0      -83.48     -0.7569
        5539       -155.9       5759.      -122.0       131.6       128.8      -64.27
        5540       -267.8       5814.      -207.2       39.09       188.8       24.69
        5541       -787.3       5782.      -580.5       35.45       689.7      -108.3
        5542       -954.4       5393.      -923.0      -90.25       865.7      -13.39
        5543       -1820.       4252.      -1538.      -109.9       1375.      -300.1
        5544        427.0       3725.       137.8       41.48      -288.3      -10.86
        5545        465.1       3907.       169.1       123.0      -289.9      -20.14
        5546        514.5       4112.       161.8       165.8      -279.3      -59.84
        5547        503.0       4347.       192.6       214.0      -280.9      -86.23
        5548        501.4       4588.       189.8       250.4      -261.6      -109.3
        5549        402.5       4938.       150.1       380.5      -179.9      -149.6
        5550        348.6       5190.       117.0       413.9      -116.9      -189.8
        5551        28.66       5641.      -32.32       494.5       98.42      -271.0
        5552       -246.0       5692.      -173.0       448.4       226.0      -264.5
        5553       -700.0       5591.      -401.5       521.2       483.7      -399.2
        5554       -1097.       5417.      -639.6       449.0       719.0      -439.0
        5555       -1881.       4222.      -1007.       518.7       1066.      -646.2
        5556       -3167.       2058.      -1611.       384.1       1658.      -831.0
        5557       -2824.       2520.      -1722.       61.86       1746.      -734.0
        5558       -1931.       4241.      -1336.       149.3       1235.      -459.5
        5559       -1190.       5339.      -827.8       157.0       837.1      -288.8
        5560       -796.8       5677.      -513.8       288.0       593.7      -268.0
        5561       -210.9       5788.      -177.8       222.7       262.6      -164.2
        5562       -15.08       5678.      -28.29       285.5       101.0      -183.0
        5563        369.4       5169.       153.4       313.9      -156.9      -151.9
        5564        428.7       4903.       206.3       271.0      -231.2      -101.5
        5565        491.2       4516.       244.9       173.3      -308.9      -100.4
        5566        501.0       4302.       221.9       162.6      -322.9      -76.88
        5567        469.7       4077.       232.8       127.0      -342.1      -51.79
        5568        447.5       3890.       228.5       93.75      -358.4      -47.21
        5569        404.2       3674.       183.9       52.78      -341.3      -12.70
        5570        440.2       3846.       98.88       110.6      -195.7      -8.543
        5571        469.9       4064.       99.27       190.3      -154.1      -39.46
        5572        531.6       4238.       119.9       232.2      -215.1      -62.96
        5573        512.0       4493.       120.6       333.9      -158.3      -102.2
        5574        497.9       4747.       122.6       420.1      -150.0      -152.8
        5575        434.3       5069.       123.3       488.6      -114.7      -206.2
        5576        186.6       5394.       53.58       559.5      -2.744      -244.0
        5577       -193.0       5567.      -129.3       665.0       225.8      -374.0
        5578       -551.2       5550.      -259.6       720.8       398.1      -458.5
        5579       -910.0       5495.      -470.8       674.8       600.1      -497.0
        5580       -2069.       4045.      -949.0       682.5       1084.      -727.4
        5581        349.7       3829.       78.27       77.21      -109.8      -9.582
        5582        375.7       3828.       94.07       109.3      -158.2      -4.187
        5583        396.7       3984.       81.48       174.3      -112.3      -39.97
        5584        465.8       4255.       97.19       262.9      -99.29      -82.35
        5585        494.9       4529.       127.7       363.5      -106.8      -101.3
        5586        482.7       4842.       102.8       473.4      -80.02      -147.2
        5587        366.7       5076.       94.84       603.4      -35.11      -227.2
        5588        211.2       5333.       51.32       674.9       23.15      -274.2
        5589       -128.0       5477.      -52.67       732.6       166.5      -385.3
        5590       -484.5       5478.      -222.9       832.4       350.9      -474.3
        5591       -1528.       4647.      -561.1       900.4       769.1      -660.9
        5592       -2252.       3746.      -811.2       956.5       1020.      -791.7
        5593       -3585.       1564.      -1188.       851.4       1506.      -975.0
        5594        148.6       3802.       48.87       52.51       19.35       2.205
        5595        181.1       3928.       88.69       102.8       31.70      -8.099
        5596        247.5       4045.       89.63       149.4       18.47      -21.14
        5597        344.3       4190.       106.1       247.3      0.1985      -49.11
        5598        400.5       4436.       124.3       367.7       5.395      -59.60
        5599        381.5       4541.       105.8       476.8       17.84      -74.29
        5600        319.5       4829.       90.65       539.6       8.754      -123.6
        5601        268.4       5073.       41.38       717.9       61.68      -238.0
        5602       -97.00       5192.      -22.79       874.0       184.3      -318.5
        5603       -764.1       4932.      -173.2       998.6       367.2      -453.9
        5604       -1505.       4251.      -377.5       988.7       646.5      -551.7
        5605       -2203.       3537.      -442.9       1042.       742.8      -566.1
        5606       -3817.       1376.      -767.4       945.3       1210.      -816.0
        5607       -2535.       3196.      -695.6       1029.       961.0      -727.4
        5608       -995.7       5087.      -344.6       956.2       546.9      -582.8
        5609       -712.8       4977.      -242.5       981.3       389.1      -487.8
        5610       -250.6       5202.      -85.06       893.6       233.8      -370.4
        5611        173.3       5193.       24.01       770.5       88.10      -272.6
        5612        382.3       4941.       98.94       576.1      -11.79      -181.5
        5613        417.2       4708.       135.2       472.1      -51.12      -130.0
        5614        446.4       4507.       120.0       390.4      -67.39      -81.46
        5615        392.3       4057.       65.79       216.6      -51.15      -71.45
        5616        292.0       3955.       80.47       146.2      -12.17      -21.41
        5617        352.9       3879.       61.38       111.9      -40.42      -51.61
        5618        82.12       3942.       105.8       108.8       67.87      -8.296
        5619        147.6       4053.       94.60       151.2       55.76      -14.61
        5620        260.0       4203.       141.6       210.2       41.44      -23.98
        5621        359.8       4528.       147.4       317.9       32.44      -48.84
        5622        273.8       4505.       130.5       432.2       46.24      -63.19
        5623        196.0       4492.       91.55       578.5       64.73      -105.3
        5624        117.9       5224.       59.93       761.3       111.7      -208.5
        5625       -155.7       4934.       24.16       799.5       181.0      -231.6
        5626       -792.8       4663.      -115.1       946.6       310.6      -335.4
        5627       -1623.       4003.      -233.7       985.2       447.0      -400.7
        5628       -2486.       3070.      -415.5       989.5       639.5      -503.9
        5629       -3878.       1152.      -592.2       924.2       836.7      -664.7
        5630       -233.5       3865.       138.8       39.47       81.65       25.48
        5631       -117.0       3916.       134.3       70.36       87.20       6.328
        5632       -119.4       3975.       174.5       88.98       70.15       3.994
        5633       -39.63       4073.       196.7       108.4       61.88       18.47
        5634        157.0       4343.       204.5       204.6       53.45       9.826
        5635        227.2       4492.       217.1       264.7       60.26       4.440
        5636        161.1       4645.       201.2       282.7       65.15       4.327
        5637        177.5       4812.       165.8       449.1       71.61      -40.48
        5638       -288.3       4624.       97.08       535.4       131.3      -95.62
        5639       -669.6       4467.      -38.29       573.9       173.4      -160.9
        5640       -1573.       3582.      -85.59       653.3       287.5      -214.9
        5641       -2856.       2460.      -218.4       731.0       329.5      -326.2
        5642       -4580.      -504.2      -328.5       651.6       520.7      -541.0
        5643       -3786.       1773.      -382.3       783.3       587.8      -596.4
        5644       -1246.       4209.      -161.7       913.3       355.0      -304.3
        5645       -758.2       4450.      -80.09       852.9       260.9      -271.7
        5646       -221.3       4678.       37.71       720.3       176.5      -154.4
        5647        97.69       4859.       125.6       549.5       92.75      -78.34
        5648        226.7       4728.       178.0       401.6       71.25      -30.64
        5649        267.8       4515.       208.6       305.9       73.41      -9.737
        5650        259.8       4396.       180.9       259.1       62.20      -17.31
        5651        41.01       4064.       143.4       159.3       71.08     -0.2490
        5652       -12.73       3942.       127.8       93.92       82.76      -2.952
        5653       -149.5       3856.       124.2       45.90       83.80       6.159
        5654       -205.8       3913.       174.2       54.85       42.93       15.88
        5655       -21.01       4096.       215.5       80.64       44.91       32.83
        5656        53.55       4228.       236.8       86.07       39.72       18.49
        5657        179.0       4522.       237.5       126.8       37.78       22.46
        5658        57.25       4608.       189.9       228.7       53.52       14.79
        5659       -898.8       4333.       94.63       313.7       99.04      -87.65
        5660       -1868.       3368.      -122.8       300.9       138.2      -205.2
        5661       -4443.       489.2      -477.9       469.9       31.43      -474.3
        5662       -456.8      -3390.      -5685.      -654.6       334.4      -55.83
        5663       -262.2      -2883.      -4701.      -567.9       153.2      -93.11
        5664       -923.8       4349.       47.20       154.9       16.93      -45.13
        5665        232.4       3834.       256.4       14.86      -313.8      -5.269
        5666        136.9       3967.       258.2       20.11      -230.9      -2.184
        5667       -2282.       888.2      -3483.      -877.9       2129.       217.1
        5668       -1679.       529.6      -4033.      -1112.       1956.       673.6
        5669        178.7       5691.      -1405.      -131.3       611.5       801.3
        5670        98.27       5251.      -2113.      -143.7       523.8       175.0
        5671        311.2       5249.      -719.4      -111.2       152.1       191.1
        5672        257.7       3382.       55.47      -58.13       8.040       315.7
        5673        123.8       2185.      -88.47      -14.50       14.64       83.83
        5674        219.7       330.1       340.3      -35.62       22.24       124.8
        5675        113.5       4427.      -248.5      -15.22       122.9       73.14
        5676        92.24       4830.      -263.8      -14.28       162.6       45.37
        5677       -15.56       4439.      -63.69      0.6857       112.1       4.048
        5678        377.5       3736.       222.5       32.95      -354.2      -4.102
        5679        421.5       3663.       153.1       18.50      -317.6      -4.657
        5680        401.2       3657.       77.68       22.75      -199.4      -8.193
        5681        305.3       3701.       36.89       39.29      -96.22     -0.1481
        5682       -144.9       4623.       248.2       150.5       27.36      -21.46
        5683        178.8       3795.       47.92       22.41      -6.513      -6.308
        5684        116.8       4413.       210.8       26.67       11.28       25.42
        5685        61.71       4205.       251.6       44.35       17.63       50.46
        5686       -77.42       3847.       78.94       24.97       74.23     -0.9380
        5687       -232.3       3800.       131.2       20.01       84.84       19.15
        5688       -183.1       3894.       218.7       29.63       15.09       19.30
        5689       -327.8       3855.       161.3       4.950       25.75       3.795
        5690       -300.0       3860.       139.7       18.77       29.43       13.95
        5691       -4284.       734.0      -470.8       267.4       118.7      -542.6
        5692       -5504.      -1991.      -407.6       478.2       387.0      -682.2
        5693       -5373.      -1255.      -315.2       629.6       902.4      -688.6
        5694       -4729.      -311.4      -725.1       854.9       1149.      -854.5
        5695       -2531.       615.7      -3130.      -658.1       2148.      -74.16
        5696       -3172.       811.5      -2571.      -358.1       2134.      -452.3
        5697       -3451.       6.789      -2208.      -13.10       2041.      -776.2
        5698       -3866.       456.1      -1557.       507.5       1861.      -941.4
        5699       -1394.      -157.5      -4682.      -995.9       1829.       808.3
        5700       -283.1       969.7      -2416.      -216.9       200.8      -123.9
        5701       -1412.      -814.3      -5242.      -933.4       1619.       834.6
        5702       -914.0      -1144.      -5495.      -799.7       1217.       572.9
        5703       -240.7       2816.      -2376.      -273.7       301.7       67.69
        5704       -519.7      -1069.      -5444.      -574.0       812.8       228.3
        5705        84.89       4821.      -351.4       6.430       282.7       104.5
        5706        87.68       5000.      -151.8      -60.43       354.5       146.1
        5707        175.5       4943.      -61.93      -139.3       317.4       274.2
        5708        243.9       5085.      -278.6      -139.6       412.3       565.4
        5709        154.4       5383.      -599.7      -179.6       492.9       742.3
        5710        30.15       4662.      -178.9      -1.354       171.5       31.45
        5711        21.99       4210.       117.7       14.12      -16.20     -0.7171
        5712       -2615.       2610.      -94.72       149.0       127.4      -267.3
        5713       -4366.      -285.4      -1387.       734.2       1740.      -996.1
        5714       -4832.      -897.8      -1145.       776.1       1589.      -967.5
        5715        123.9       4569.       185.3       91.76       9.292       31.92
        5716       -290.4       3909.       149.2       18.20       50.25       12.02
        5717       -273.4       3823.       144.8       18.79       72.91       15.26
        5718       -154.9       3854.       108.4       20.33       89.67       3.956
        5719        25.16       3854.       75.93       36.78       57.63      -2.538
        5720        98.70       3709.       27.89       27.64       30.30      -11.28
        5721        262.9       3779.       43.34       31.00      -54.65      -1.054
        5722        357.8       3681.       49.29       31.30      -142.6      -4.604
        5723        421.4       3710.       106.2       22.40      -247.1     -0.1754
        5724        426.2       3702.       134.5       16.49      -284.7      -6.333
        5725        388.2       3707.       189.7       24.59      -340.7      -8.914
        5726        327.2       3792.       237.9       27.21      -349.2      -1.116
        5727        279.2       3790.       261.3       23.77      -336.5      -2.420
        5728        163.6       3930.       267.2       11.97      -280.3      -3.080
        5729        78.01       4056.       231.8       16.49      -167.1      0.6000
        5730        41.04       4120.       191.4       10.94      -93.46      9.7508E-02
        5731       -5.429       4346.       12.25      -3.068       54.21      -1.882
        5732        4.967       4531.      -123.0      -1.043       152.3       20.16
        5733        77.11       4802.      -232.4      -6.194       174.9       62.27
        5734        47.18       4798.      -235.7      -7.574       167.7       57.46
        5735        101.5       4739.      -245.2      -7.746       141.5       57.71
        5736        115.5       3927.      -278.9      -8.966       88.31       96.34
        5737        157.1       1045.       1.684      -53.20       6.664       80.24
        5738       -3299.       1690.      -94.49       136.6       120.6      -356.7
        5739       -1938.       3477.      -107.3       154.5       77.42      -203.9
        5740       -1152.       4146.      -36.10       183.1       69.18      -115.2
        5741       -431.4       4545.       192.9       145.5       25.64       9.239
        5742        28.25       4769.       249.7       147.8       26.53       2.084
        5743        119.6       4493.       232.2       47.33      0.7974       36.16
        5744        115.2       4448.       224.9       35.18       25.84       53.59
        5745       -44.48       4041.       219.7       60.25       33.22       35.35
        5746       -109.4       4021.       239.3       44.79       13.34       25.03
        5747       -220.8       3904.       182.8       24.31       20.60       18.82
        5748       -5578.      -2287.      -567.4       248.3       175.8      -838.5
        5749       -5624.      -1478.      -652.4       589.8       560.1      -668.2
        5750       -5442.      -1380.      -647.1       614.5       703.2      -624.1
        5751       -5155.      -1514.      -675.2       704.9       1056.      -844.5
        5752       -4760.      -526.4      -806.0       898.7       1306.      -974.6
        5753       -4845.      -878.9      -982.3       868.1       1483.      -940.7
        5754       -4585.      -905.2      -1386.       746.3       1672.      -1001.
        5755       -4150.       87.74      -1429.       642.7       1801.      -987.0
        5756       -3739.       365.6      -1834.       348.3       1921.      -872.1
        5757       -3714.      -140.9      -1879.       135.0       1971.      -806.9
        5758       -3321.       894.8      -2258.      -103.2       2063.      -540.3
        5759       -2843.       978.3      -2536.      -473.5       2163.      -277.4
        5760       -2580.       979.3      -2674.      -626.6       2152.      -198.2
        5761       -2507.       677.4      -3355.      -757.2       2134.       72.35
        5762       -2056.       964.7      -3650.      -1013.       2052.       365.7
        5763       -1800.       1402.      -3723.      -1016.       1967.       616.8
        5764       -1486.       150.5      -4406.      -1042.       1915.       756.1
        5765       -1314.      -377.6      -5030.      -991.1       1746.       850.5
        5766       -1015.      -185.5      -5089.      -892.3       1526.       787.7
        5767       -907.3      -969.6      -5288.      -815.4       1380.       711.7
        5768       -753.9      -865.2      -5555.      -677.5       1069.       418.3
        5769       -477.7      -2130.      -5642.      -596.6       614.8       60.32
        5770       -498.7      -2937.      -5718.      -612.6       460.8      -10.50
        5771       -363.8      -4134.      -5513.      -641.5       191.9      -9.099
        5772       -334.8      -757.0      -3607.      -389.6       139.1      -119.9
        5773       -509.3      -1791.      -4983.      -496.6       412.2      -23.40
        5774       -1358.       2825.      -3240.      -919.6       1601.       852.0
        5775       -292.1       4803.      -2261.      -335.9       793.5       771.6
        5776        144.9       4930.      -377.5      -23.87       125.2       207.9
        5777        85.78       4967.      -507.1      -59.81       260.7       236.0
        5778        73.91       4844.      -546.5      -80.14       295.5       104.6
        5779        261.7       1321.       222.3      -101.3       47.87       320.5
        5780       -2.234       4459.      -76.93      -9.756       132.9       13.19
        5781        137.1       3964.       268.8       11.95      -241.2      -18.21
        5782        419.7       3723.       160.1       48.82      -313.6      -8.094
        5783        428.4       3718.       110.9       32.08      -250.0      -18.12
        5784        110.3       4625.       206.3       182.5       42.09       18.88
        5785       -71.39       3852.       100.1       50.30       78.81       3.985
        5786       -209.3       3838.       124.7       45.00       84.49       48.52
        5787       -4189.       954.0      -536.4       810.3       863.5      -747.8
        5788       -2842.       2231.      -2017.      -39.92       1823.      -544.3
        5789       -252.4       3446.      -2690.      -330.4       572.1       340.8
        5790       -405.1       22.76      -4495.      -466.0       497.7       87.89
        5791       -1028.       1776.      -4052.      -960.5       1560.       949.6
        5792       -262.8       5359.      -1746.      -477.6       888.1       1099.
        5793        262.4       5364.      -567.6      -121.3       249.2       351.1
        5794        63.92       4692.      -118.5      -2.356       245.1       43.01
        5795        95.11       4826.       170.2      -66.65       214.4       186.7
        5796        90.01       4878.       170.5      -156.2       258.6       407.6
        5797        73.58       4946.       28.77      -224.0       328.4       582.2
        5798        13.87       5212.      -439.0      -252.8       516.1       903.9
        5799       -132.0       4759.       130.4       282.9       68.79       7.022
        5800       -3610.       1482.      -749.9       997.1       1062.      -715.3
        5801       -448.3      -2295.      -4798.      -495.4       277.4      -84.00
        5802       -373.9       4700.       114.0       293.5       84.43      -52.27
        5803        237.0       3881.       273.7       39.91      -311.2      -5.912
        5804       -1840.       2688.      -2906.      -842.8       1822.       479.2
        5805        127.0       3040.      -170.0      -11.70       38.38       94.41
        5806        284.2       3792.       69.16       55.73      -49.41      -12.06
        5807        216.1       3840.       47.29       68.19      -3.097     -0.8449
        5808        119.2       4379.       202.8       104.0       34.76       47.49
        5809        32.94       4287.       245.9       58.55       47.03      -14.93
        5810       -145.4       3956.       220.8       60.95       43.45       13.91
        5811       -242.5       3909.       157.1       39.71       60.25       10.55
        5812       -3409.       1338.      -117.5       404.7       242.2      -434.4
        5813       -4181.       310.0      -459.5       584.3       438.4      -573.2
        5814       -2253.       2536.      -2336.      -527.5       1883.      -110.5
        5815       -2687.       1859.      -2082.      -211.7       1868.      -386.4
        5816       -3220.       2204.      -1431.       575.8       1610.      -904.2
        5817       -820.2       1949.      -4055.      -891.5       1447.       919.6
        5818       -752.8       1414.      -4247.      -718.5       1223.       847.6
        5819        8.742       4337.       86.55       14.54       42.64      -2.997
        5820       -2491.       2916.      -162.4       315.2       194.0      -297.4
        5821       -3352.       2050.      -1287.       735.9       1560.      -963.8
        5822       -3963.       853.1      -946.2       873.4       1312.      -921.9
        5823        102.3       3816.       51.83       68.69       38.49       1.946
        5824        399.6       3678.       76.07       44.64      -205.6      -18.28
        5825        380.7       3757.       231.6       48.72      -355.3      -21.96
        5826        337.9       3799.       247.7       41.90      -354.4      -16.93
        5827        72.45       4102.       225.6       8.869      -135.3      -14.62
        5828        16.75       4612.      -222.7      -23.42       197.5       55.90
        5829        111.9       4791.      -270.2      -64.56       174.6       70.02
        5830       -1209.       4171.       2.209       322.6       119.4      -123.8
        5831        123.9       4471.       208.6       139.8       34.24       22.81
        5832       -80.43       4053.       223.7       69.80       43.86       26.34
        5833       -4713.      -749.2      -296.8       666.0       648.2      -617.1
        5834       -3745.       1175.      -1092.       870.8       1447.      -963.7
        5835       -3032.       2198.      -1728.       209.3       1716.      -804.3
        5836       -1963.       2809.      -2655.      -723.4       1854.       127.6
        5837       -1313.       2038.      -3719.      -1003.       1676.       923.7
        5838       -446.7       1661.      -4168.      -597.2       829.7       501.2
        5839        62.74       4809.      -438.6      -61.20       253.9       133.5
        5840        29.78       4661.      -216.7      -23.53       254.8       9.955
        5841       -5.897       3878.       95.72       82.60       77.94      -2.094
        5842        194.4       3948.       286.6       6.265      -277.0      -43.20
        5843       -3536.       1602.      -488.3       853.4       706.2      -625.3
        5844       -1931.       3225.      -2197.      -542.6       1596.       106.0
        5845       -388.0       3767.      -2811.      -434.4       768.7       706.8
        5846       -416.7       5328.      -1557.      -541.0       874.7       1180.
        5847       -405.1       4768.      -2278.      -544.1       944.9       1093.
        5848        95.63       4948.       220.5      -190.6       126.8       457.3
        5849       -178.4       5548.      -563.5      -498.6       511.1       1030.
        5850       -19.40       5257.      -59.41      -351.3       290.0       823.0
        5851        85.11       4763.       214.7      -66.57       125.3       227.8
        5852        61.19       4678.       175.9      -17.78       107.0       98.02
        5853        119.6       4750.       180.0       330.4       74.62      -8.735
        5854       -40.84       3886.       124.3       72.40       84.72       5.362
        5855       -418.2      -175.9      -3951.      -394.6       362.0      -18.35
        5856        149.9       3801.      -176.5      -2.693       39.71       224.3
        5857        133.7       4884.      -371.9      -26.92       201.1       132.9
        5858       -3034.       2782.      -395.7       953.5       674.0      -560.6
        5859       -2403.       2777.      -1931.      -173.1       1612.      -381.6
        5860       -726.6       4330.       17.70       453.8       150.9      -121.3
        5861       -361.1       4729.       101.3       425.8       110.2      -74.25
        5862        104.2       4284.       211.4       132.9       55.99       6.486
        5863       -22.88       4102.       209.6       111.1       46.29       23.48
        5864       -122.7       3974.       194.9       85.63       54.20       17.70
        5865       -164.3       3964.       186.4       74.61       57.99       9.132
        5866       -3016.       2026.      -81.80       525.1       329.7      -363.9
        5867       -2408.       2854.      -167.0       476.0       272.8      -280.9
        5868        201.8       4490.       238.3       208.9       51.57       23.57
        5869       -449.3       4149.      -2730.      -607.1       1024.       1067.
        5870       -70.81       3895.       130.9       63.99       94.39       8.828
        5871        268.9       3936.       292.3       35.83      -316.6      -17.95
        5872       -3420.       1632.      -79.75       630.1       428.5      -510.6
        5873       -2948.       2942.      -466.8       993.5       857.9      -638.4
        5874       -2186.       3132.      -1988.      -310.2       1616.      -215.7
        5875       -444.9       2666.      -3662.      -773.5       944.5       731.2
        5876        65.00       4799.      -282.7      -22.86       183.6       85.06
        5877       -595.8       4728.      -2103.      -665.3       1037.       1156.
        5878       -352.7       5685.      -826.2      -596.3       663.1       1012.
        5879       -47.18       4647.       146.4       378.4       90.24      -28.80
        5880        172.5       4341.       212.3       240.8       55.22       17.21
        5881       -189.9       3914.       152.2       59.55       73.21      -2.684
        5882       -1017.       4200.       62.65       620.0       223.1      -199.3
        5883       -61.76       4062.       206.3       90.17       51.12       22.55
        5884        58.25       3935.       113.1       122.0       71.73      -6.122
        5885       -2314.       3335.      -291.2       919.3       556.6      -459.3
        5886       -1610.       4468.      -1687.      -454.2       1358.       152.9
        5887        20.03       5152.       158.8      -275.2       112.1       552.0
        5888       -103.8       5417.      -137.1      -399.2       294.0       782.2
        5889        355.6       3869.       268.8       51.19      -355.0      -36.80
        5890       -4082.       161.1      -161.7       682.7       614.2      -669.0
        5891       -2239.       3101.      -108.5       663.1       314.9      -314.9
        5892       -797.7       3896.      -2942.      -758.6       1253.       1100.
        5893       -437.2       5470.      -1224.      -630.2       797.0       1130.
        5894       -1840.       4230.      -1659.      -212.1       1383.      -160.2
        5895        219.2       4046.       336.1       32.68      -296.5      -21.35
        5896       -2666.       3114.      -572.3       1007.       955.7      -653.3
        5897        307.6       3857.       290.1       29.09      -349.1      -32.25
        5898       -2045.       3365.      -2066.      -438.4       1616.      -60.38
        5899        389.8       3802.       238.7       68.26      -357.7      -34.60
        5900       -1550.       4142.      -2171.      -690.9       1531.       413.4
        5901        78.81       3864.       75.43       89.18       53.42      -4.404
        5902        155.5       3962.       274.6      -26.41      -247.6      -49.76
        5903       -280.6       5615.      -461.4      -439.1       497.1       919.3
        5904       -2434.       2670.      -1776.      -24.46       1557.      -487.7
        5905       -578.1       4636.       10.76       701.8       203.1      -185.2
        5906        73.72       4229.       202.2       150.9       51.93       11.35
        5907       -125.7       3949.       161.0       80.82       78.81       1.960
        5908       -600.7       3376.      -3384.      -732.2       1141.       1001.
        5909       -29.99       3967.       139.5       98.36       84.55     -9.5986E-02
        5910       -1898.       3875.      -306.8       1036.       599.1      -485.2
        5911       -47.94       4731.       117.4       487.6       98.83      -74.50
        5912        187.8       4385.       187.1       259.8       62.86      -11.55
        5913       -985.6       4440.      -51.37       743.0       277.5      -249.6
        5914       -75.94       3998.       171.4       106.3       75.47       6.988
        5915       -1420.       4728.      -1689.      -555.5       1306.       295.3
        5916        357.0       3877.       260.0       68.40      -347.2      -41.48
        5917        393.2       3879.       260.1       84.44      -356.4      -36.00
        5918       -2434.       2945.      -664.8       1090.       842.8      -551.7
        5919       -1373.       4472.      -1762.      -596.1       1268.       444.7
        5920       -1639.       3640.      -2416.      -815.9       1581.       460.4
        5921        424.2       3793.       205.1       78.54      -344.9      -22.35
        5922       -1676.       3840.      -160.4       826.0       380.7      -326.7
        5923       -3267.       2254.      -148.9       768.3       428.5      -433.2
        5924       -169.2       3914.       137.0       51.22       87.54       1.323
        5925        165.9       3983.       103.0       131.1       43.12      -3.832
        5926        167.7       3865.       59.49       84.11       15.67      -1.188
        5927        215.6       4141.       282.9       117.5      -236.2       53.88
        5928        115.7       4050.       255.7       19.59      -185.0      -25.14
        5929       -1645.       4679.      -1339.      -80.11       1153.      -272.2
        5930       -2346.       3530.      -1481.       168.9       1485.      -567.8
        5931       -290.0       4747.       59.97       636.6       158.9      -133.9
        5932        124.7       4209.       162.6       213.0       62.57       5.114
        5933       -13.38       4091.       179.8       130.5       62.51       20.88
        5934       -61.92       3974.       148.9       101.2       80.28       2.291
        5935       -738.9       3126.      -3437.      -777.3       1282.       1056.
        5936       -1386.       4255.      -2243.      -766.4       1506.       592.6
        5937       -3.885       4034.       146.7       134.8       76.82      -2.734
        5938        24.83       4019.       126.1       139.0       74.50      -3.510
        5939        450.5       3762.       161.9       72.82      -313.0      -20.76
        5940        100.3       4142.       253.2       24.15      -151.4      -25.53
        5941       -2382.       3541.      -1341.       340.3       1415.      -648.2
        5942       -1844.       4157.      -435.9       1069.       717.7      -629.1
        5943        260.6       3860.       67.90       102.9      -25.27      -12.48
        5944        139.1       4157.       144.1       224.8       66.02      -15.79
        5945        453.7       3741.       125.0       73.19      -273.2      -26.22
        5946       -1226.       4191.      -2513.      -851.2       1533.       814.1
        5947       -3435.       1686.      -916.7       927.7       1238.      -845.4
        5948        164.1       4252.       313.4       35.09      -202.5      -17.27
        5949       -1605.       4908.      -957.6       327.6       1060.      -509.3
        5950       -1189.       4451.      -2120.      -747.5       1338.       755.3
        5951        102.0       4043.       111.8       177.1       57.06      -11.95
        5952        488.2       3893.       171.8       113.2      -317.1      -35.02
        5953        30.32       4258.       169.2       8.783      -31.11      -21.15
        5954       -2426.       3495.      -1275.       468.5       1381.      -719.8
        5955        252.0       3954.       93.00       113.2      0.4728      -14.64
        5956       -3083.       2330.      -956.5       961.6       1210.      -858.2
        5957        313.9       3809.       73.30       85.60      -54.69      -21.68
        5958        233.2       4337.       169.2       257.8       54.93      -13.87
        5959        470.9       3910.       140.9       121.8      -260.1      -24.83
        5960       -1008.       4654.      -2136.      -832.6       1289.       929.9
        5961        69.64       4331.       258.0       29.15      -69.79      -8.933
        5962       -1337.       5122.      -688.8       590.1       798.2      -556.8
        5963        473.1       3742.       81.42       17.63      -233.1      -87.21
        5964        370.6       3825.       46.98       98.02      -80.39      -21.91
        5965       -1014.       4104.      -2779.      -945.1       1356.       966.0
        5966       -2822.       2785.      -1128.       813.0       1310.      -852.9
        5967       -1.434       4396.       55.26       27.25       92.18       6.335
        5968       -2674.       2989.      -1267.       637.8       1353.      -791.3
        5969       -1629.       4409.      -528.5       1008.       759.0      -671.5
        5970        279.1       4231.       106.0       284.9       21.05      -60.09
        5971       -1000.       4029.      -2709.      -901.2       1369.       1053.
        5972        437.7       3741.       88.29       69.37      -209.9      -27.44
        5973        249.8       4445.       166.4       322.7       46.23      -39.07
        5974        269.5       4563.       174.8       322.3       69.66      -25.24
        5975        386.1       3877.       52.90       137.8      -58.82      -38.76
        5976       -2273.       3759.      -915.4       844.2       1075.      -765.5
        5977        231.6       4176.       110.2       183.2       34.22      -26.25
        5978        9.260       4458.      -54.83      -1.398       129.7       4.905
        5979        295.7       4402.       90.41       405.7       26.93      -73.02
        5980        193.7       4548.       188.4       337.8       61.48      -17.91
        5981       -902.7       4132.      -2525.      -738.9       1223.       1167.
        5982        412.4       3883.       87.18       142.1      -165.3      -25.05
        5983        279.3       4598.       157.7       384.0       53.55      -36.95
        5984        5.192       4462.      -30.75       3.066       125.5      -9.705
        5985       -1005.       2444.      -3475.      -891.9       1428.       1013.
        5986       -918.1       2783.      -3468.      -830.9       1373.       1030.
        5987        6.986       4562.      -168.5      -12.86       192.4       31.32
        5988        11.93       4599.      -270.6      -27.15       224.3       62.11
        5989        19.73       4667.      -270.4      -32.72       247.5       52.12
        5990        61.35       4808.      -324.2      -42.71       221.6       109.7
        5991       -138.0       513.1      -2576.      -232.0       137.1      -85.63
        5992        146.1       148.9       53.50      -30.15      -2.330       67.58
        5993       -86.45       5362.      -1918.      -204.3       695.6       736.5
        5994        296.0       4814.      -264.5      -113.3       445.6       350.5
        5995        126.0       1642.       12.79      -63.25      -7.937       145.1
        5996        195.5       4948.      -213.7      -119.0       359.0       431.8
        5997        379.3       3715.       64.98       57.28      -157.7      -21.61
        5998        9.133       4394.       5.812      -4.574       92.66     -0.1506
        5999        117.5       4938.      -295.4      -15.08       171.1       93.59
        6000        120.5       2870.      -84.03      -27.82      -10.87       174.6
        6001        116.9       2140.      0.6439      -70.42      -19.10       175.5
        6002       -374.1       1120.      -3812.      -497.0       476.4       176.3
        6003       -194.5       5210.      -2054.      -398.4       824.2       984.1
        6004        71.42       4891.      -499.8      -52.75       271.9       163.9
        6005       -188.5       4557.      -2493.      -284.3       654.9       438.7
        6006        127.0       4937.      -85.63      -157.9       387.6       593.2
        6007        10.34       4477.      -101.8      -3.793       165.1       17.60
        6008        136.1       4005.       271.2       3.763      -217.0      -31.38
        6009        418.6       3764.       91.65       83.11      -181.4      -20.19
        6010        394.1       3836.       75.70       124.8      -132.6      -31.25
        6011       -227.0       5414.      -1361.      -455.1       803.6       1121.
        6012       -80.60       5400.      -777.6      -362.0       595.5       1068.
        6013        41.13       4724.      -427.2      -43.40       298.9       105.2
        6014        2.113       4561.      -155.3      -8.520       207.3       13.00
        6015        12.59       4416.       290.3       35.97      -5.922       46.02
        6016       -1568.       3736.      -92.16       477.2       213.3      -196.7
        6017       -1145.       4044.       36.00       472.6       179.7      -161.0
        6018        182.4       4599.       229.1       249.5       56.48     -0.6469
        6019        140.2       4285.       206.6       176.1       44.60       30.90
        6020        97.05       4241.       228.0       94.74       50.62       18.06
        6021       -3182.       2032.      -776.3       973.7       1053.      -798.9
        6022        70.18       5074.      -203.4      -240.1       404.5       828.4
        6023       -6.573       5163.      -346.3      -295.9       441.6       920.5
        6024        168.4       4046.       295.2       28.41      -223.6      -24.88
        6025        31.57       4611.       45.75      -9.204       149.8       3.476
        6026        96.60       4754.       280.1      -75.20       46.46       225.4
        6027        388.2       3843.       105.7       121.5      -180.5       4.383
        6028        222.5       3980.       99.37       126.4       9.056      -17.75
        6029       -110.0       3997.       187.6       99.59       65.76       13.93
        6030        24.02       4687.      -277.0      -37.17       257.5       27.49
        6031       -11.54       4588.      -83.65      -30.00       209.6       4.257
        6032       -11.12       4717.      -335.1      -62.17       333.6       64.11
        6033        452.3       3806.       104.4       109.1      -230.5      -2.990
        6034       -1071.       3224.      -3131.      -941.6       1441.       996.1
        6035       -3059.       2285.      -1088.       931.6       1256.      -873.7
        6036        241.8       3979.       92.60       163.9      0.4545      -1.715
        6037        285.1       3990.       75.05       190.6      -11.01      -40.38
        6038       -4288.       314.5      -485.4       800.4       689.0      -751.9
        6039        322.2       3895.       80.89       132.1      -31.42      -33.18
        6040        356.0       3940.       76.35       170.3      -50.76      -28.85
        6041        375.0       4044.       118.0       176.5      -108.8      -22.71
        6042        76.47       5014.      -50.02      -232.7       361.0       716.2
        6043        8.115       5145.      -70.17      -303.5       361.7       840.7
        6044       -637.4       4603.      -2439.      -704.2       1128.       1107.
        6045       -376.8       5395.      -1272.      -472.7       804.0       1150.
        6046        456.6       3888.       91.41       135.8      -202.8      -28.34
        6047        516.2       4063.       104.4       182.9      -197.3      -52.89
        6048        391.5       3929.       207.8       22.62      -345.8      -68.60
        6049        323.6       4059.       302.7       29.68      -338.4      -39.60
        6050       -3255.       1888.      -950.7       935.5       1188.      -832.4
        6051       -1208.       4592.      -203.6       1026.       486.5      -480.4
        6052       -840.6       5296.      -1445.      -630.9       989.3       792.1
        6053       -891.9       4755.      -170.8       998.2       388.6      -402.6
        6054       -1758.       3864.      -236.4       964.4       483.5      -396.2
        6055       -3027.       2111.      -415.3       853.5       565.9      -511.8
        6056        175.3       4573.       394.2       44.39      -198.7       130.5
        6057        121.9       4651.       397.4      -49.92      -163.8       159.4
        6058        33.78       5150.       218.2      -229.1       44.95       455.0
        6059       -66.52       5271.      -256.7      -390.2       406.4       951.4
        6060        495.1       4230.       101.6       261.3      -156.3      -71.05
        6061       -86.68       5420.      -482.6      -387.4       514.2       1038.
        6062       -17.81       4054.       163.1       126.5       79.15       3.043
        6063        341.6       3996.       72.66       179.8      -23.65      -44.75
        6064        112.9       4859.       363.3      -119.6      -135.6       209.3
        6065        57.95       5080.       269.8      -197.4      -20.34       357.1
        6066       -46.21       5505.       93.71      -229.0       81.76       389.1
        6067        62.98       4178.       183.3       170.9       66.85      -1.326
        6068        4.771       4070.       162.0       143.5       79.58      -1.002
        6069       -1717.       4277.      -499.4       1045.       739.1      -670.6
        6070       -1174.       4766.      -343.1       1022.       545.7      -558.8
        6071        375.1       3987.       250.6       107.9      -344.7      -22.65
        6072       -1189.       4994.      -1639.      -578.4       1241.       553.4
        6073       -1727.       4259.      -1656.      -335.8       1377.       2.443
        6074       -1844.       4302.      -1403.       18.85       1352.      -384.8
        6075       -224.5       5554.      -813.3      -500.6       623.1       1099.
        6076        173.7       4736.       378.4      -34.75      -219.4       134.8
        6077       -504.2       4983.      -78.72       960.2       284.0      -367.9
        6078       -1319.       4386.      -332.2       1047.       550.0      -538.7
        6079       -1195.       4402.      -149.0       995.7       318.9      -351.2
        6080       -248.5       5177.      -13.44       890.8       238.5      -299.3
        6081       -2565.       2609.      -302.0       817.4       394.9      -428.8
        6082       -96.63       4001.       185.2       110.4       68.82     -0.3584
        6083       -35.15       4050.       181.0       118.5       75.18       7.100
        6084        545.6       4014.       106.6       108.8      -241.5      -129.3
        6085        93.06       4136.       157.9       212.3       55.11      0.8442
        6086       -88.84       5519.      -110.2      -369.3       271.0       700.4
        6087        280.4       4481.       428.7       154.2      -335.1       99.72
        6088        174.5       4104.       350.5       37.31      -260.0      -4.276
        6089       -567.7       5704.      -841.4      -532.8       702.0       697.3
        6090        386.8       4306.       105.9       303.0      -46.22      -62.29
        6091        323.2       4192.       112.4       250.1      -26.56      -11.47
        6092        529.7       4427.       149.8       285.5      -227.7      -95.18
        6093       -280.8       5727.      -300.2      -431.9       391.7       674.4
        6094       -902.1       3781.      -2908.      -793.7       1305.       1098.
        6095       -697.1       4984.      -2113.      -703.0       1161.       1112.
        6096       -754.1       4287.      -2547.      -738.9       1175.       1135.
        6097        5.707       4037.       166.2       125.6       80.14       15.90
        6098        319.8       4888.       342.4       81.25      -283.0       7.574
        6099        354.7       3961.       325.7       54.65      -389.5      -85.63
        6100        390.8       3988.       269.2       110.1      -353.6      -15.10
        6101        223.0       4706.       349.2      -11.08      -243.6       102.3
        6102        188.2       4825.       391.5      -94.45      -219.5       91.16
        6103        115.4       5057.       306.1      -157.6      -101.2       248.7
        6104       -1025.       5415.      -1260.      -499.9       1041.       456.5
        6105       -2327.       3622.      -728.9       1009.       973.5      -761.8
        6106        403.4       4626.       113.6       420.1      -22.71      -77.64
        6107       -1339.       5269.      -1297.      -293.6       1137.       34.01
        6108       -1300.       5219.      -1193.      -152.4       1112.      -129.2
        6109       -1521.       4824.      -1177.       22.34       1112.      -299.1
        6110       -1355.       4991.      -1098.       123.4       1111.      -301.1
        6111       -44.58       4808.       88.35       594.9       117.4      -105.7
        6112        197.5       4785.       133.3       502.7       78.49      -68.15
        6113        146.4       4417.       193.6       296.5       58.34      -9.362
        6114        324.3       4513.       179.7       318.1       51.85       14.93
        6115        273.6       4591.       138.0       415.4       91.30      -36.43
        6116        457.6       4287.       257.8       120.2      -345.1      -58.32
        6117       -636.2       5281.      -233.5       912.5       374.0      -473.2
        6118       -565.5       5779.      -699.9      -427.3       615.3       527.6
        6119        499.6       4691.       149.7       339.9      -208.9      -128.8
        6120       -1535.       4849.      -685.2       754.0       867.4      -646.8
        6121       -17.77       5078.       33.29       826.9       143.2      -270.7
        6122        59.12       5811.       100.0      -89.20       17.61       196.3
        6123       -150.7       5713.      -11.25      -343.9       245.2       483.9
        6124       -345.0       5879.      -301.4      -277.8       341.7       371.5
        6125        137.5       4959.       294.2      -91.44      -167.3       178.3
        6126       -381.2       5347.      -124.9       903.6       304.6      -399.2
        6127       -341.1       5760.      -248.5      -400.8       366.2       576.3
        6128        393.3       4675.       120.2       433.0      -41.75      -104.4
        6129        214.8       4640.       368.6       17.49      -252.7       64.12
        6130        153.0       5461.       274.9      -67.79      -126.0       136.5
        6131       -397.1       4648.      -14.56       849.4       156.8      -199.2
        6132       -3.365       4717.       71.53       684.9       133.0      -153.6
        6133        128.1       4659.       87.95       624.9       100.3      -123.7
        6134        224.4       4801.       347.2      -30.38      -228.1       111.5
        6135        314.4       4774.       101.4       525.8       36.17      -70.92
        6136       -230.7       5344.      -113.5       844.5       227.7      -388.6
        6137       -964.4       5256.      -357.3       892.6       549.6      -579.9
        6138        477.4       4394.       229.1       92.42      -332.7      -127.2
        6139       -1265.       5392.      -1030.       48.00       962.3      -156.0
        6140       -822.5       5798.      -882.0      -366.1       759.1       320.0
        6141       -754.6       6057.      -796.7      -228.9       691.6       200.9
        6142       -402.2       5917.      -324.4       90.41       419.9      -95.58
        6143       -43.01       4807.       40.31       785.9       145.6      -202.3
        6144        158.6       4974.       74.11       693.3       101.8      -160.9
        6145       -237.9       5760.      -151.6      -56.01       208.4       153.5
        6146        112.8       5304.       87.74       63.81      -34.24       71.87
        6147       -1211.       5029.      -578.8       784.9       669.8      -583.6
        6148        263.1       4988.       72.81       674.5       50.16      -187.3
        6149        291.3       5116.       106.6       623.3       74.75      -136.2
        6150        423.1       4634.       241.6       154.1      -304.4      -93.55
        6151        457.0       4566.       294.1       124.8      -329.7      -37.03
        6152        305.5       5237.       269.5       126.6      -207.7      -62.19
        6153        312.8       4700.       301.0       146.7      -247.0       136.1
        6154        219.5       5230.       262.9       6.911      -198.9       67.91
        6155       -491.3       5841.      -315.4       376.0       398.2      -269.8
        6156       -1728.       4568.      -747.7       806.4       910.3      -743.5
        6157       -954.6       5591.      -826.0      -23.89       840.8      -104.5
        6158       -899.2       5450.      -382.0       850.6       528.6      -561.6
        6159       -711.3       5837.      -557.9      -233.0       520.1       265.1
        6160        42.06       5331.      -18.23       811.7       129.7      -305.9
        6161        278.2       5097.       55.46       546.2       78.29      -80.06
        6162       -623.7       5754.      -660.4      -108.6       631.2       74.52
        6163        411.4       5014.       145.8       322.1      -231.0       40.30
        6164        339.9       5236.       195.7       242.4      -188.2      -98.65
        6165        216.4       5282.       195.1       69.32      -131.4      -121.6
        6166        186.0       5417.       113.7       234.1      -88.73      -105.0
        6167        283.5       5218.       99.39       530.1      -74.49      -217.1
        6168       -51.32       5676.      -15.47       113.0       27.29       22.64
        6169        85.81       5551.       69.13       191.1      -36.59      -10.91
        6170       -134.8       5587.       31.58       75.57       84.62       97.18
        6171       -396.8       5694.      -226.7       565.3       319.3      -370.3
        6172        35.66       5633.      -95.19       183.8       71.95      -106.9
        6173       -3.658       5452.       4.593       618.9       84.57      -324.1
        6174        18.74       5574.      -30.13       590.9       105.5      -301.1
        6175        133.8       5472.      -54.24       685.7       56.97      -252.6
        6176       -187.8       5645.      -205.9       601.7       210.3      -361.9
        6177        224.8       5439.       82.84       457.7      -27.13      -229.0
        6178        238.3       5455.       114.4       353.3      -67.95      -173.9
        6179        66.14       5510.       22.09       322.0       38.61      -272.8
        6180       -76.31       417.0       431.7       265.0      -5.342      -5.107
        6181        46.16       407.3       88.75       316.4      -6.899      -273.2
        6182       -68.72       2841.      -104.0       227.2      -42.88      -618.8
        6183       -82.24       4170.      -66.33       280.7      -55.00      -706.1
        6184       -210.6       4481.      -147.2       203.2      -79.74      -350.0
        6185       -298.1       4853.      -127.6      -10.55      -47.21       39.08
        6186        6.120       6684.       716.8      -115.3      -94.97       402.0
        6187       -199.2       5824.       408.0      -76.65      -77.89       431.8
        6188       -332.2       6562.       175.1      -100.1       22.22       491.4
        6189        47.90       6928.      -22.33      -89.06       64.14       562.2
        6190       -126.6       5522.      -22.32      -167.0       10.26       726.3
        6191        208.4       4743.       395.8      -155.5      -14.85       810.4
        6192        25.54       2967.       920.6      -207.7      -51.54       776.9
        6193       -28.83       1212.       734.7      -212.3      -91.66       513.1
        6194        69.07       883.8       1792.      -254.3      -75.53       183.2
        6195       -328.5       625.3      -284.1       226.4      -3.107      -76.50
        6196       -94.19       2362.      -431.1       115.6       63.00      -324.2
        6197       -53.83       3573.      -601.2       111.6       47.86      -411.5
        6198       -139.0       4793.      -841.5       166.5       72.60      -196.7
        6199       -49.64       5389.      -857.3       64.61       125.0       184.8
        6200        133.1       6079.       4.073      -51.24       131.0       477.3
        6201        81.34       4903.      -50.74      -90.17       106.9       431.8
        6202        62.89       4580.      -116.2      -58.23       8.468       327.6
        6203       -63.64       4557.      -69.57      -106.0      -3.712       291.2
        6204       -7.273       5321.      -45.00      -38.26       4.014       211.5
        6205        79.02       5961.       33.45      -93.43     -0.2568       274.5
        6206        71.16       6131.      -19.86      -153.0      -59.85       490.5
        6207        88.56       5032.       419.7      -200.9      -69.52       685.2
        6208       -56.82       2487.       902.0      -140.5      -132.3       538.7
        6209       -3.892       1098.       1363.      -155.9      -111.8       210.2
        6210        240.5       3373.      -4480.      -1016.       233.2       26.62
        6211        651.9       2231.      -4967.      -896.9       173.8      -28.77
        6212        155.4      -485.1      -5490.      -907.4       72.46       13.30
        6213        279.3       2485.      -4870.      -1037.       358.4      -21.57
        6214        881.4       1271.      -4960.      -896.4       336.8       14.74
        6215        409.0      -78.15      -5304.      -918.7       206.3       16.22
        6216        125.7       3101.      -4675.      -1001.       456.7      -117.6
        6217        168.2       1360.      -4960.      -962.1       516.0      -24.59
        6218        377.8       1334.      -5122.      -843.1       483.5       60.53
        6219        304.3       4445.      -4411.      -1045.       622.7      -102.1
        6220       -84.95       1621.      -5043.      -1042.       677.5      -36.50
        6221        365.4       3065.      -4667.      -936.7       727.2       147.1
        6222       -129.1       3737.      -4683.      -1036.       751.5       11.09
        6223       -68.67       3710.      -4668.      -1066.       828.8       72.03
        6224        149.5       2137.      -4813.      -1008.       906.5       213.4
        6225        4.788       4034.      -4440.      -1038.       893.2       95.64
        6226       -250.8       3793.      -4512.      -1051.       1040.       156.0
        6227       -36.16       2095.      -4768.      -997.0       1067.       246.1
        6228        72.79       4108.      -4458.      -1021.       1066.       114.0
        6229       -187.4       2437.      -4590.      -1102.       1239.       224.6
        6230       -209.7       2689.      -4518.      -1006.       1252.       335.6
        6231        452.9       5506.      -3787.      -1017.       1184.       112.0
        6232       -127.9       2074.      -4516.      -1066.       1335.       258.3
        6233       -407.8       2110.      -4649.      -1112.       1425.       405.2
        6234       -518.5       4034.      -4477.      -1090.       1315.       112.7
        6235        348.7       4454.      -3832.      -1060.       1440.       237.4
        6236       -187.0       4063.      -4087.      -1071.       1549.       456.1
        6237       -23.23       3424.      -4186.      -1164.       1449.       73.64
        6238       -204.4       4623.      -3695.      -1109.       1605.       242.6
        6239       -270.0       3335.      -3751.      -1088.       1617.       466.3
        6240       -597.8       3515.      -3872.      -1196.       1520.       60.66
        6241       -390.2       5024.      -3228.      -1168.       1722.       265.5
        6242       -346.9       4437.      -3594.      -1125.       1793.       428.7
        6243       -644.7       3093.      -4086.      -1175.       1689.       46.92
        6244       -495.1       4580.      -3246.      -1191.       1827.       190.6
        6245       -238.0       3793.      -3335.      -1158.       1888.       333.2
        6246       -958.0       2296.      -4196.      -1147.       1809.      -24.34
        6247       -467.1       4899.      -2965.      -1131.       1926.       191.7
        6248       -601.6       3940.      -3373.      -1094.       1971.       247.3
        6249       -1001.       4515.      -3158.      -1132.       1885.      -92.58
        6250       -565.3       4867.      -2821.      -1140.       2010.       64.68
        6251       -824.2       4294.      -3206.      -1092.       2014.       144.0
        6252       -826.9       5781.      -2568.      -1080.       1896.      -163.7
        6253       -851.7       4539.      -2714.      -1111.       2067.      -52.90
        6254       -1016.       4207.      -3075.      -1162.       2064.       20.27
        6255       -739.7       6294.      -2320.      -1011.       1936.      -256.3
        6256       -1112.       4971.      -2661.      -1101.       2103.      -185.7
        6257       -1111.       4510.      -2785.      -1125.       2133.      -111.7
        6258       -1241.       5351.      -2437.      -994.7       2013.      -326.2
        6259       -980.4       5465.      -2212.      -1019.       2101.      -302.6
        6260       -1368.       4561.      -2603.      -1020.       2174.      -232.5
        6261       -1184.       5619.      -2161.      -954.2       2078.      -401.5
        6262       -881.0       5818.      -1966.      -961.5       2200.      -411.9
        6263       -1264.       4193.      -2367.      -889.6       2235.      -402.8
        6264       -1314.       5580.      -2048.      -806.0       2091.      -530.6
        6265       -1784.       4175.      -2372.      -869.3       2240.      -507.1
        6266       -1667.       4773.      -2062.      -835.8       2244.      -411.8
        6267       -1567.       6457.      -1649.      -690.4       2085.      -707.2
        6268       -1432.       5786.      -1416.      -649.2       2231.      -647.2
        6269       -2102.       4929.      -2073.      -757.0       2284.      -508.7
        6270       -1883.       5234.      -1669.      -721.8       2117.      -773.2
        6271       -1501.       5366.      -1361.      -629.4       2242.      -753.5
        6272       -1634.       5394.      -1658.      -627.1       2296.      -706.1
        6273       -2399.       3886.      -1899.      -644.0       2126.      -785.2
        6274       -1979.       5193.      -1494.      -644.4       2234.      -868.7
        6275       -1816.       5478.      -1399.      -456.5       2213.      -796.7
        6276       -2070.       6045.      -1259.      -498.4       2083.      -842.3
        6277       -2981.       4034.      -1848.      -497.6       2223.      -932.2
        6278       -2313.       4019.      -1318.      -334.0       2240.      -822.6
        6279       -2792.       5221.      -1573.      -368.5       2049.      -866.4
        6280       -2659.       3850.      -1393.      -328.9       2110.      -935.9
        6281       -2342.       4956.      -1700.      -300.4       2166.      -955.7
        6282       -2556.       5361.      -909.5      -286.4       2008.      -960.1
        6283       -2433.       5192.      -1021.      -270.2       2047.      -983.2
        6284       -2574.       5113.      -565.9      -190.6       2091.      -916.7
        6285       -3056.       4129.      -1025.      -203.5       1959.      -1063.
        6286       -2726.       4504.      -710.9      -131.2       2043.      -995.4
        6287       -2794.       4633.      -622.5      -63.70       2022.      -1004.
        6288       -3170.       4344.      -693.1      -209.5       1853.      -1097.
        6289       -2379.       5503.      -76.06      -72.05       2018.      -1085.
        6290       -3223.       3541.      -965.5       57.64       2040.      -1116.
        6291       -3436.       4040.      -717.3      -222.1       1787.      -1062.
        6292       -3160.       4077.      -147.1      -44.87       1939.      -1110.
        6293       -3417.       3323.      -671.0       101.2       1972.      -1133.
        6294       -3715.       4476.      -733.6      -131.2       1723.      -1067.
        6295       -3385.       3704.      -68.70      -4.304       1871.      -1101.
        6296       -3429.       3508.      -672.7       139.6       1883.      -1069.
        6297       -3797.       4251.      -700.8      -63.78       1660.      -1087.
        6298       -3890.       2830.      -338.1       106.3       1730.      -1102.
        6299       -3590.       4233.      -90.60       284.8       1747.      -1012.
        6300       -3844.       3700.      -415.7       131.6       1521.      -1034.
        6301       -4001.       3700.      -294.6       170.3       1556.      -1081.
        6302       -3829.       3592.      -319.9       332.9       1633.      -1064.
        6303       -3230.       5543.       208.7       142.7       1324.      -1087.
        6304       -3988.       3439.      -453.9       286.0       1444.      -1121.
        6305       -4056.       3401.      -218.4       348.4       1516.      -1059.
        6306       -4369.       3656.       158.3       153.2       1199.      -1080.
        6307       -4455.       2616.      -437.9       292.7       1351.      -1119.
        6308       -4017.       3383.       40.96       387.9       1384.      -1032.
        6309       -4405.       3369.       85.39       164.9       1058.      -1108.
        6310       -4108.       3438.       158.4       255.6       1177.      -1086.
        6311       -4126.       3319.       292.1       359.3       1211.      -988.3
        6312       -4393.       3287.       22.47       55.44       924.9      -1098.
        6313       -4601.       2658.      -49.91       211.2       1060.      -1054.
        6314       -4525.       2598.       293.3       259.2       1085.      -1037.
        6315       -4532.       3883.      -234.5       79.27       838.0      -1033.
        6316       -4622.       2757.       247.4       159.9       936.0      -1047.
        6317       -5006.       1127.      -147.6       229.8       954.9      -1025.
        6318       -4516.       3445.       187.1       184.6       712.6      -1054.
        6319       -4371.       3392.       486.2       185.8       760.4      -1028.
        6320       -5113.       884.8      -124.6       233.5       752.4      -977.4
        6321       -4708.       3343.       339.8       110.3       538.2      -1065.
        6322       -4497.       3537.       296.9       211.1       552.3      -988.6
        6323       -5010.       1138.       159.0       231.6       526.0      -948.1
        6324       -4666.       3934.       332.0       1.573       330.4      -1015.
        6325       -4708.       2714.       386.1       124.4       358.1      -926.7
        6326       -4709.       1730.       653.7       333.9       310.8      -901.6
        6327       -4920.       3080.       338.9      -29.26       141.0      -1022.
        6328       -5593.       630.6       124.1       14.29       158.8      -939.8
        6329       -4729.       2301.       575.9       234.9       159.1      -820.7
        6330        3.958      -1530.      -6976.      -16.81       30.95       1165.
        6331       -28.51      -2354.      -6500.      -33.75       46.34       2175.
        6332        12.37      -3499.      -5400.      -43.55       44.37       2886.
        6333        26.81      -4930.      -4294.      -46.54       39.99       3121.
        6334       -35.39      -6164.      -3195.      -43.05       21.52       2800.
        6335        57.37      -7095.      -2325.      -24.63       15.25       1995.
        6336       -26.47      -7852.      -1687.      -20.53     -0.2442       890.7
        6337        43.59      -7886.      -1468.      -17.51      -4.973      -184.8
        6338       -41.00      -7943.      -1669.       6.877       12.79      -1185.
        6339       -14.86      -7349.      -2344.       26.83       15.24      -2108.
        6340        24.79      -6038.      -3277.       43.59       15.72      -2814.
        6341        23.03      -4708.      -4427.       52.51       39.53      -3079.
        6342       -8.419      -3444.      -5587.       38.77       43.27      -2831.
        6343       -19.13      -2355.      -6510.       23.87       33.00      -2118.
        6344        9.467      -1600.      -7067.       18.68       18.72      -1129.
        6345       -35.77      -2575.      -6593.      -11.71       12.81       826.8
        6346        21.11      -2956.      -6152.      -15.42       14.10       1542.
        6347       -43.17      -3885.      -5457.      -19.52       25.96       2041.
        6348        28.76      -4459.      -4584.      -31.68       23.94       2209.
        6349       -43.09      -5527.      -3877.      -27.88       27.98       2028.
        6350       -20.14      -6016.      -3206.      -19.54       6.830       1608.
        6351        25.52      -6195.      -2814.      -13.84      -4.049       983.1
        6352       -12.68      -6426.      -2553.      0.8413      -13.20       302.3
        6353        5.494      -6638.      -2473.       2.854       8.196      -458.3
        6354       -12.99      -6427.      -2828.       20.17      -1.532      -1178.
        6355       -27.72      -5676.      -3621.       28.28       19.34      -1837.
        6356       -55.30      -5089.      -4334.       29.57       14.64      -2194.
        6357       -28.80      -4056.      -5242.       21.83       23.70      -2150.
        6358       -13.81      -3144.      -6112.       15.01       12.18      -1675.
        6359        24.29      -2485.      -6625.       6.458       3.966      -903.0
        6360       -116.2      -1843.      -7229.      -43.91       41.37       1170.
        6361       -19.42      -2288.      -6599.      -66.71       61.32       2203.
        6362        14.39      -3411.      -5592.      -72.54       61.93       2911.
        6363       -28.07      -4760.      -4503.      -85.71       60.44       3138.
        6364        3.482      -6115.      -3223.      -72.70       44.63       2803.
        6365        16.64      -7131.      -2181.      -50.97       29.21       1996.
        6366       -16.35      -7722.      -1721.      -52.45       15.44       896.2
        6367       -19.41      -7932.      -1515.      -11.21       11.84      -149.4
        6368        62.18      -7470.      -1564.       20.29       16.86      -1162.
        6369        26.01      -7002.      -2346.       76.13       23.44      -2085.
        6370        41.22      -5870.      -3306.       84.73       42.41      -2812.
        6371       -5.259      -4791.      -4462.       83.57       56.21      -3091.
        6372       -37.27      -3480.      -5639.       71.90       71.69      -2859.
        6373       -35.87      -2351.      -6638.       55.56       57.78      -2146.
        6374       -92.72      -1803.      -7206.       52.02       32.78      -1143.
        6375       -38.20      -2541.      -6646.      -34.82       4.659       834.8
        6376       -61.28      -3081.      -6273.      -36.07       13.57       1560.
        6377       -63.17      -3807.      -5547.      -40.47       25.82       2051.
        6378       -40.54      -4606.      -4746.      -45.15       28.68       2213.
        6379        21.04      -5284.      -3882.      -29.75       22.26       2045.
        6380        6.682      -5879.      -3251.      -13.81       8.325       1597.
        6381        52.25      -6183.      -2775.      -4.788      -11.89       969.8
        6382        27.70      -6483.      -2488.      -7.239      -1.049       282.8
        6383       -17.70      -6533.      -2552.       2.345       13.62      -451.7
        6384        10.21      -6303.      -2814.       25.08       7.352      -1189.
        6385       -13.89      -5646.      -3585.       39.19       3.654      -1831.
        6386       -38.06      -4999.      -4375.       34.95       11.91      -2211.
        6387       -71.44      -4066.      -5356.       26.34       15.16      -2161.
        6388       -37.55      -3274.      -6123.       36.95       9.556      -1687.
        6389       -55.97      -2587.      -6669.       33.59      0.8465      -913.0
        6390       -73.93      -1683.      -7276.      -91.87       46.77       1181.
        6391        4.394      -2310.      -6665.      -97.87       75.60       2219.
        6392       -18.42      -3456.      -5665.      -106.5       75.69       2927.
        6393       -1.875      -4729.      -4548.      -117.8       63.78       3145.
        6394        55.38      -6059.      -3203.      -102.0       55.72       2821.
        6395        36.59      -7133.      -2191.      -79.66       34.68       2005.
        6396        41.92      -7663.      -1665.      -49.19       18.64       934.1
        6397        78.22      -7809.      -1497.      -3.297       12.75      -132.7
        6398        97.38      -7542.      -1680.       37.92       25.81      -1134.
        6399        94.13      -7013.      -2272.       76.09       35.08      -2091.
        6400        10.96      -6027.      -3305.       109.3       40.33      -2816.
        6401        32.28      -4757.      -4461.       101.8       66.19      -3114.
        6402       -26.85      -3457.      -5752.       105.6       85.79      -2883.
        6403        12.47      -2291.      -6692.       91.66       74.34      -2161.
        6404       -13.83      -1707.      -7244.       91.25       48.25      -1157.
        6405       -81.40      -2590.      -6614.      -73.07      -1.812       839.3
        6406       -119.9      -3088.      -6298.      -60.71       1.746       1566.
        6407       -36.10      -3745.      -5553.      -46.84       2.115       2060.
        6408       -13.65      -4548.      -4731.      -41.11       2.173       2231.
        6409        2.822      -5248.      -3996.      -15.19     -0.2813       2062.
        6410        63.65      -6000.      -3143.      -4.883      -5.096       1604.
        6411        43.22      -6226.      -2779.      -4.540       1.822       969.4
        6412        42.11      -6513.      -2476.      -6.552       11.24       263.0
        6413        8.128      -6541.      -2514.       10.79       12.05      -453.5
        6414        25.24      -6284.      -2838.       17.20       15.41      -1195.
        6415       -9.720      -5822.      -3471.       30.45      -11.80      -1856.
        6416       -29.42      -5029.      -4334.       26.37      -11.08      -2228.
        6417       -76.24      -4081.      -5357.       32.15      -9.512      -2176.
        6418       -79.97      -3232.      -6156.       54.50     -0.6659      -1698.
        6419       -64.84      -2571.      -6731.       69.77      -5.757      -915.7
        6420       -68.16      -1644.      -7350.      -133.5       45.41       1185.
        6421        28.82      -2386.      -6653.      -134.6       75.72       2222.
        6422        18.67      -3544.      -5659.      -139.2       79.79       2938.
        6423        26.82      -4697.      -4563.      -127.3       63.48       3157.
        6424        56.57      -6058.      -3238.      -128.1       28.21       2839.
        6425        99.50      -7047.      -2234.      -86.81       26.40       2036.
        6426        36.80      -7807.      -1533.      -39.01       12.97       958.8
        6427        137.8      -7641.      -1480.       20.97       14.59      -115.7
        6428        157.2      -7471.      -1638.       42.34       30.16      -1124.
        6429        143.0      -6907.      -2317.       83.12       35.15      -2086.
        6430        96.04      -5967.      -3294.       103.4       23.26      -2840.
        6431        44.72      -4781.      -4498.       120.9       59.00      -3144.
        6432        28.11      -3437.      -5802.       128.2       71.92      -2897.
        6433        52.21      -2349.      -6754.       133.3       73.10      -2180.
        6434       -74.20      -1832.      -7286.       131.0       48.21      -1164.
        6435       -155.6      -2609.      -6722.      -119.3      -7.994       842.6
        6436       -181.8      -3120.      -6266.      -93.20      -10.43       1568.
        6437       -99.92      -3765.      -5582.      -62.36      -22.68       2068.
        6438       -102.3      -4525.      -4824.      -34.08      -20.30       2259.
        6439        21.02      -5346.      -3965.      -17.79      -33.63       2081.
        6440        34.99      -5983.      -3202.       4.632      -27.11       1617.
        6441        90.95      -6304.      -2727.       10.52       9.635       963.1
        6442        49.70      -6524.      -2511.       3.299       12.62       257.1
        6443        35.48      -6548.      -2494.       8.934       14.40      -459.3
        6444        13.05      -6346.      -2875.      -3.561      -1.605      -1206.
        6445       -58.49      -5827.      -3503.       4.320      -31.26      -1883.
        6446       -75.04      -5005.      -4445.       17.78      -47.28      -2240.
        6447       -60.95      -4180.      -5271.       48.85      -35.69      -2195.
        6448       -107.0      -3244.      -6176.       75.44      -27.26      -1700.
        6449       -134.6      -2630.      -6713.       106.6      -16.00      -914.5
        6450       -9.177      -1633.      -7377.      -180.2       49.42       1180.
        6451        71.21      -2325.      -6816.      -177.7       52.62       2215.
        6452        167.3      -3392.      -5673.      -164.2       63.94       2939.
        6453        142.6      -4797.      -4449.      -153.5       44.36       3185.
        6454        153.1      -6057.      -3189.      -134.7       1.129       2866.
        6455        191.8      -7068.      -2241.      -87.33       7.190       2051.
        6456        184.2      -7374.      -1743.      -30.15       8.504       997.0
        6457        144.6      -7865.      -1456.       25.63       15.22      -105.3
        6458        141.8      -7588.      -1696.       50.65       19.68      -1118.
        6459        110.6      -7168.      -2271.       89.77       20.74      -2089.
        6460        171.0      -6099.      -3173.       103.2       20.31      -2853.
        6461        211.1      -4943.      -4326.       137.0       33.86      -3167.
        6462        78.35      -3374.      -5857.       158.0       38.93      -2930.
        6463        61.24      -2407.      -6788.       172.6       52.63      -2210.
        6464        85.29      -1622.      -7384.       172.1       43.09      -1165.
        6465       -254.1      -2610.      -6825.      -155.8      -22.36       836.6
        6466       -149.3      -3060.      -6287.      -131.7      -33.90       1575.
        6467       -132.9      -3825.      -5612.      -89.27      -45.67       2086.
        6468       -72.31      -4593.      -4796.      -39.04      -52.14       2275.
        6469        31.74      -5381.      -3952.      -17.45      -61.34       2114.
        6470        21.90      -6067.      -3142.       14.20      -42.70       1630.
        6471        69.12      -6429.      -2723.       30.84      -5.208       970.2
        6472        28.38      -6565.      -2514.       20.75       5.125       246.4
        6473        43.96      -6539.      -2503.      -7.995       10.35      -455.2
        6474        6.920      -6361.      -2881.      -29.90      -28.68      -1228.
        6475       -142.7      -5853.      -3560.      -13.53      -56.85      -1911.
        6476       -129.7      -5057.      -4467.       18.66      -71.23      -2267.
        6477       -100.3      -4089.      -5410.       69.78      -76.59      -2214.
        6478       -207.5      -3281.      -6249.       103.6      -55.27      -1712.
        6479       -240.3      -2650.      -6760.       150.2      -33.67      -915.6
        6480        160.5      -1536.      -7305.      -225.7       41.85       1180.
        6481        180.0      -2301.      -6933.      -230.4       42.06       2222.
        6482        217.2      -3321.      -5701.      -210.6       50.51       2935.
        6483        240.1      -4732.      -4459.      -194.1       18.10       3199.
        6484        247.5      -5974.      -3236.      -148.6      -2.511       2889.
        6485        189.6      -7200.      -2396.      -99.85      -15.52       2086.
        6486        196.2      -7540.      -1796.      -25.87      -2.844       1023.
        6487        192.0      -7905.      -1486.       16.15       4.332      -89.04
        6488        237.7      -7524.      -1758.       50.88       11.12      -1102.
        6489        265.2      -7141.      -2193.       88.63       4.569      -2091.
        6490        248.4      -6125.      -3232.       136.0      -6.267      -2864.
        6491        233.2      -4914.      -4475.       172.7       1.207      -3194.
        6492        224.7      -3549.      -5832.       202.3       15.65      -2955.
        6493        169.5      -2449.      -6792.       221.1       35.31      -2232.
        6494        204.6      -1664.      -7421.       231.9       28.33      -1173.
        6495       -437.5      -2694.      -6877.      -202.8      -37.03       826.6
        6496       -296.1      -3068.      -6323.      -168.9      -66.30       1578.
        6497       -298.2      -3793.      -5770.      -119.0      -77.55       2097.
        6498       -205.6      -4628.      -4882.      -64.97      -97.07       2306.
        6499       -97.74      -5394.      -3981.      -9.680      -95.40       2135.
        6500       -35.62      -6047.      -3189.       30.06      -66.29       1646.
        6501        52.18      -6563.      -2686.       39.89      -28.35       972.5
        6502       0.6997      -6696.      -2511.       14.63      -5.182       241.3
        6503       -30.12      -6745.      -2459.      -21.20      -11.85      -459.5
        6504       -11.32      -6467.      -2828.      -48.76      -49.00      -1249.
        6505       -121.3      -5816.      -3522.      -19.45      -82.37      -1943.
        6506       -93.28      -5112.      -4355.       32.63      -109.5      -2302.
        6507       -230.5      -4103.      -5516.       95.64      -117.3      -2239.
        6508       -221.3      -3296.      -6217.       148.3      -78.32      -1729.
        6509       -325.6      -2667.      -6783.       195.7      -37.83      -917.0
        6510        257.1      -1658.      -7456.      -283.4       12.48       1172.
        6511        308.5      -2258.      -6864.      -296.6       25.28       2210.
        6512        400.9      -3424.      -5700.      -266.3       25.62       2943.
        6513        375.3      -4739.      -4479.      -231.7      -6.252       3205.
        6514        305.4      -6086.      -3335.      -187.0      -22.57       2906.
        6515        326.4      -7180.      -2264.      -118.0      -39.31       2120.
        6516        259.6      -7668.      -1804.      -45.62      -30.47       1060.
        6517        302.8      -7837.      -1477.       21.56      -26.20      -75.24
        6518        384.9      -7828.      -1507.       61.00      -12.57      -1086.
        6519        340.6      -7110.      -2209.       120.1      -22.17      -2086.
        6520        252.3      -6256.      -3346.       182.8      -32.37      -2872.
        6521        369.2      -4935.      -4460.       224.5      -27.70      -3212.
        6522        394.8      -3477.      -5731.       253.3     -0.6021      -2972.
        6523        270.2      -2360.      -6893.       281.2       15.78      -2236.
        6524        303.9      -1720.      -7341.       292.7       11.11      -1171.
        6525       -473.8      -2588.      -6744.      -259.3      -54.09       829.1
        6526       -330.7      -3123.      -6343.      -219.6      -86.36       1600.
        6527       -296.4      -3815.      -5706.      -163.4      -108.5       2114.
        6528       -72.43      -4677.      -4728.      -87.65      -128.1       2329.
        6529       -137.9      -5441.      -4001.      -21.56      -124.3       2162.
        6530       -57.76      -6131.      -3186.       24.01      -95.20       1671.
        6531        17.26      -6662.      -2670.       31.84      -58.72       970.6
        6532       -113.1      -6921.      -2487.      0.3640      -26.01       229.2
        6533       -144.5      -6879.      -2486.      -33.24      -34.11      -456.3
        6534        6.362      -6636.      -2769.      -56.73      -76.76      -1268.
        6535       -203.1      -5872.      -3607.      -21.04      -138.0      -1990.
        6536       -322.2      -5116.      -4546.       60.66      -158.2      -2334.
        6537       -262.6      -4072.      -5558.       141.6      -134.5      -2255.
        6538       -251.9      -3309.      -6165.       207.0      -97.93      -1734.
        6539       -459.3      -2669.      -6706.       244.1      -43.44      -920.4
        6540        290.0      -1707.      -7384.      -342.1      -7.081       1164.
        6541        482.2      -2240.      -6815.      -334.7       4.327       2202.
        6542        558.9      -3316.      -5832.      -338.1      -17.44       2921.
        6543        471.6      -4720.      -4549.      -270.0      -24.09       3191.
        6544        516.8      -5869.      -3190.      -222.6      -51.81       2899.
        6545        476.1      -7127.      -2323.      -139.4      -70.64       2140.
        6546        356.9      -7725.      -1750.      -73.91      -72.44       1079.
        6547        419.5      -7872.      -1503.       15.34      -52.00      -60.34
        6548        492.3      -7839.      -1485.       78.75      -41.28      -1051.
        6549        444.3      -7158.      -2282.       178.5      -69.08      -2075.
        6550        536.8      -6181.      -3063.       235.5      -41.51      -2863.
        6551        527.9      -4950.      -4422.       284.7      -46.09      -3196.
        6552        545.1      -3466.      -5813.       321.5      -24.24      -2966.
        6553        636.4      -2410.      -6872.       334.5      -4.331      -2232.
        6554        392.4      -1593.      -7381.       348.8       6.056      -1168.
        6555       -653.0      -2671.      -6724.      -294.9      -52.19       844.0
        6556       -582.3      -3046.      -6294.      -284.9      -109.8       1598.
        6557       -419.4      -3878.      -5741.      -216.9      -130.2       2125.
        6558       -296.8      -4718.      -4868.      -143.3      -136.3       2343.
        6559       -219.4      -5625.      -3996.      -63.58      -149.8       2184.
        6560       -103.2      -6257.      -3125.      -8.668      -126.8       1683.
        6561       -114.1      -6888.      -2653.       12.68      -94.37       977.3
        6562       -121.7      -6994.      -2481.      -13.71      -50.38       223.5
        6563       -183.5      -6962.      -2463.      -50.87      -55.46      -451.5
        6564       -46.94      -6790.      -2717.      -40.82      -120.7      -1289.
        6565       -378.5      -5921.      -3730.       3.671      -189.3      -2024.
        6566       -379.9      -5166.      -4515.       102.9      -187.5      -2379.
        6567       -339.6      -4013.      -5658.       202.4      -154.0      -2267.
        6568       -441.8      -3315.      -6121.       262.8      -104.1      -1737.
        6569       -745.9      -2726.      -6726.       295.1      -52.20      -921.9
        6570        638.7      -1670.      -7041.      -375.8      -21.81       1147.
        6571        729.7      -2310.      -6648.      -365.2      -27.41       2142.
        6572        712.3      -3339.      -5585.      -375.0      -26.41       2846.
        6573        658.1      -4494.      -4515.      -328.1      -44.66       3140.
        6574        674.9      -5843.      -3336.      -268.7      -88.31       2855.
        6575        667.0      -7187.      -2140.      -188.4      -102.8       2120.
        6576        556.6      -7784.      -1686.      -88.58      -99.95       1090.
        6577        621.4      -7978.      -1407.       15.67      -89.89      -38.00
        6578        507.7      -7961.      -1673.       111.1      -94.87      -1001.
        6579        574.8      -7146.      -2176.       229.8      -108.7      -2048.
        6580        685.5      -6197.      -3113.       303.2      -76.29      -2819.
        6581        736.4      -4773.      -4487.       355.3      -77.68      -3159.
        6582        804.7      -3441.      -5608.       384.2      -52.82      -2921.
        6583        759.1      -2442.      -6758.       374.4      -23.46      -2190.
        6584        602.5      -1642.      -7263.       363.4      -15.04      -1148.
        6585       -778.7      -2614.      -6637.      -336.8      -44.34       836.8
        6586       -785.7      -3063.      -6139.      -321.5      -93.67       1567.
        6587       -494.0      -3766.      -5642.      -270.9      -117.6       2109.
        6588       -382.9      -4747.      -4786.      -209.1      -152.7       2322.
        6589       -286.5      -5790.      -3917.      -136.2      -163.0       2185.
        6590       -149.7      -6406.      -3107.      -65.77      -142.8       1689.
        6591       -277.3      -6896.      -2753.      -22.50      -117.3       980.8
        6592       -334.5      -7152.      -2538.      -29.50      -89.46       199.5
        6593       -213.5      -7178.      -2366.      -57.81      -90.96      -436.0
        6594       -169.9      -6753.      -2749.      -5.531      -169.4      -1303.
        6595       -336.4      -6145.      -3500.       62.74      -217.6      -2026.
        6596       -459.1      -5211.      -4523.       167.8      -205.5      -2385.
        6597       -548.4      -4073.      -5452.       261.0      -172.5      -2252.
        6598       -555.1      -3338.      -6261.       306.3      -108.4      -1716.
        6599       -780.8      -2780.      -6756.       323.4      -54.88      -915.6
        6600        873.5      -1519.      -6693.      -349.1      -27.41       1097.
        6601        772.1      -2210.      -6305.      -373.1      -25.03       2036.
        6602        816.7      -3200.      -5531.      -364.9      -38.17       2738.
        6603        1065.      -4380.      -4190.      -363.2      -58.19       3009.
        6604        931.4      -5727.      -3186.      -322.2      -85.21       2756.
        6605        929.2      -6903.      -2132.      -247.8      -111.2       2074.
        6606        868.7      -7648.      -1473.      -107.2      -108.2       1074.
        6607        690.1      -7939.      -1449.       29.04      -116.7      -22.01
        6608        758.3      -7720.      -1538.       151.0      -114.8      -938.6
        6609        927.1      -7206.      -2119.       288.9      -121.9      -1960.
        6610        930.4      -5817.      -2937.       365.9      -109.3      -2707.
        6611        751.5      -4563.      -4371.       393.9      -86.58      -3040.
        6612        945.7      -3462.      -5454.       392.6      -54.05      -2796.
        6613        922.6      -2558.      -6715.       380.9      -68.57      -2090.
        6614        926.0      -1581.      -6850.       351.8      -28.65      -1093.
        6615       -1072.      -2611.      -6392.      -331.5      -27.72       807.0
        6616       -935.5      -3127.      -5984.      -323.5      -55.33       1515.
        6617       -719.8      -3688.      -5614.      -320.4      -91.71       2044.
        6618       -438.6      -4669.      -4669.      -282.5      -116.0       2272.
        6619       -494.3      -5771.      -3862.      -228.4      -148.4       2147.
        6620       -145.9      -6316.      -3071.      -139.4      -131.2       1680.
        6621       -394.9      -7052.      -2691.      -89.91      -115.7       960.7
        6622       -460.8      -7325.      -2502.      -57.69      -103.8       183.9
        6623       -320.8      -7262.      -2401.      -53.20      -117.8      -420.3
        6624       -285.1      -6886.      -2739.       45.23      -185.2      -1292.
        6625       -501.8      -6090.      -3492.       135.5      -227.3      -1995.
        6626       -587.2      -5100.      -4404.       238.5      -208.4      -2327.
        6627       -748.7      -4035.      -5384.       308.2      -145.0      -2171.
        6628       -869.9      -3099.      -5912.       328.5      -101.1      -1644.
        6629       -1304.      -2745.      -6430.       342.1      -52.74      -867.9
        6630        638.9      -1684.      -6600.      -276.1      -20.55       1013.
        6631        1307.      -2074.      -5915.      -301.5      -49.78       1915.
        6632        947.1      -3058.      -5193.      -313.0      -46.73       2551.
        6633        1244.      -4252.      -4103.      -331.6      -54.07       2827.
        6634        992.5      -5268.      -3150.      -328.2      -63.54       2577.
        6635        1023.      -6443.      -2135.      -282.5      -88.33       1970.
        6636        1173.      -7170.      -1381.      -140.8      -92.76       1034.
        6637        908.8      -7611.      -1431.       72.43      -103.1      -3.021
        6638        1151.      -7284.      -1433.       203.8      -93.56      -845.1
        6639        996.5      -6463.      -1970.       343.6      -102.4      -1826.
        6640        1168.      -5552.      -2826.       399.2      -105.1      -2519.
        6641        981.4      -4344.      -4122.       404.8      -72.00      -2808.
        6642        1216.      -3240.      -5147.       360.5      -44.24      -2582.
        6643        1073.      -2179.      -6162.       327.7      -62.88      -1927.
        6644        1288.      -1482.      -6160.       290.7      -72.71      -1005.
        6645       -1083.      -2541.      -6043.      -270.9      -3.973       765.2
        6646       -1251.      -3142.      -5605.      -286.5     -0.6766       1413.
        6647       -908.1      -3732.      -5252.      -317.3      -2.324       1900.
        6648       -630.3      -4515.      -4483.      -340.2      -38.59       2148.
        6649       -572.4      -5591.      -3805.      -308.4      -61.61       2049.
        6650       -329.0      -6223.      -3019.      -252.9      -73.79       1628.
        6651       -505.3      -7154.      -2700.      -174.7      -75.68       923.1
        6652       -465.7      -7290.      -2376.      -63.48      -85.55       153.5
        6653       -281.4      -7052.      -2360.      -29.16      -104.6      -389.0
        6654       -473.4      -6760.      -2744.       115.8      -161.8      -1240.
        6655       -676.5      -6041.      -3370.       225.0      -187.3      -1902.
        6656       -590.0      -4814.      -4221.       294.3      -161.5      -2194.
        6657       -690.6      -4006.      -5261.       312.2      -84.60      -2026.
        6658       -1159.      -3098.      -5712.       282.5      -69.11      -1522.
        6659       -1231.      -2742.      -6239.       246.2      -50.17      -793.9
        6660        1444.      -1310.      -5725.      -130.8      -39.99       909.1
        6661        1182.      -2046.      -5651.      -102.9      -42.02       1681.
        6662        949.8      -2955.      -4772.      -119.8      -33.54       2252.
        6663        1426.      -4068.      -3935.      -196.7      -30.83       2476.
        6664        1121.      -4929.      -2882.      -218.2       1.951       2257.
        6665        1168.      -5962.      -2190.      -174.1       14.32       1745.
        6666        1445.      -6183.      -1382.      -72.26       33.73       916.6
        6667        1363.      -6651.      -1328.       116.8       34.59       28.73
        6668        1300.      -6509.      -1447.       190.0       41.77      -685.4
        6669        1308.      -6141.      -1930.       317.3       36.77      -1563.
        6670        1153.      -4863.      -2717.       349.9       18.04      -2162.
        6671        1525.      -3770.      -3497.       318.6       22.09      -2424.
        6672        1301.      -2946.      -4731.       207.4      -23.84      -2242.
        6673        1319.      -2185.      -5550.       107.6      -78.43      -1672.
        6674        872.6      -1795.      -6087.       88.49      -63.25      -890.0
        6675       -1318.      -2553.      -5549.      -118.9       23.03       649.3
        6676       -1672.      -3040.      -5118.      -165.8       75.60       1216.
        6677       -908.8      -3539.      -5020.      -262.0       108.1       1645.
        6678       -912.1      -4272.      -4333.      -352.9       100.6       1898.
        6679       -554.6      -5275.      -3612.      -388.5       70.27       1830.
        6680       -302.5      -6259.      -2951.      -331.4       25.23       1481.
        6681       -317.5      -6679.      -2612.      -204.8       9.495       845.6
        6682       -224.0      -6827.      -2291.      -49.31      -8.154       143.1
        6683       -255.4      -6905.      -2431.      -7.640      -39.79      -332.3
        6684       -508.1      -6422.      -2746.       166.8      -76.57      -1117.
        6685       -736.1      -5855.      -3372.       296.2      -80.55      -1688.
        6686       -686.1      -4503.      -4016.       330.6      -57.52      -1921.
        6687       -954.0      -3806.      -4854.       226.6      -21.82      -1760.
        6688       -1464.      -3058.      -5372.       161.4      -50.11      -1298.
        6689       -1332.      -2601.      -5637.       108.0      -62.74      -699.6
        6690        1301.      -1435.      -4979.       231.0      -69.17       739.3
        6691        1333.      -1729.      -4698.       251.5      -42.15       1359.
        6692        1462.      -2641.      -3959.       209.7      -15.95       1807.
        6693        1498.      -3100.      -3029.       154.5       70.22       1903.
        6694        1355.      -3876.      -2374.       73.73       144.5       1693.
        6695        1131.      -4529.      -1872.       61.89       219.9       1305.
        6696        1416.      -4931.      -1310.       79.28       273.2       723.0
        6697        1345.      -5316.      -1187.       189.4       299.0       53.98
        6698        1285.      -4748.      -1260.       125.2       291.6      -480.9
        6699        1186.      -4474.      -1687.       154.8       289.7      -1112.
        6700        1445.      -3797.      -2210.       125.0       235.1      -1543.
        6701        1528.      -3143.      -2920.      -8.240       160.7      -1784.
        6702        1307.      -2604.      -3927.      -181.5       45.11      -1672.
        6703        1519.      -1921.      -4582.      -283.7      -19.73      -1288.
        6704        1670.      -1800.      -4927.      -295.4      -34.83      -706.1
        6705       -1495.      -2685.      -5047.       198.6       62.06       539.4
        6706       -1496.      -3280.      -4818.       146.6       138.9       964.5
        6707       -1002.      -3126.      -4556.       18.10       203.5       1312.
        6708       -897.7      -3902.      -3819.      -139.9       269.5       1504.
        6709       -319.9      -4670.      -3401.      -192.3       331.4       1508.
        6710       -150.3      -5481.      -2969.      -184.4       309.6       1213.
        6711       -23.66      -5979.      -2599.      -79.14       348.6       704.4
        6712       -31.58      -5728.      -2384.       19.82       316.4       91.60
        6713        20.86      -5630.      -2279.      -11.39       280.1      -190.6
        6714       -244.1      -5363.      -2579.       95.98       280.9      -847.9
        6715       -516.5      -4781.      -3105.       158.5       200.8      -1332.
        6716       -754.1      -4353.      -3857.       97.27       181.5      -1465.
        6717       -1192.      -3876.      -4616.      -69.56       103.4      -1347.
        6718       -1380.      -3041.      -4708.      -202.6       36.49      -1006.
        6719       -934.8      -2543.      -5125.      -275.4      -17.20      -551.8
        6720        799.0      -1312.      -4483.       685.5      -75.32       557.4
        6721        908.9      -1793.      -4446.       710.1      -83.18       988.8
        6722        1048.      -1418.      -3187.       693.0      -18.72       1280.
        6723        1022.      -2086.      -2440.       624.1       140.2       1315.
        6724        917.7      -2208.      -1693.       481.4       279.1       1189.
        6725        920.9      -2148.      -1081.       346.6       358.5       922.1
        6726        1118.      -1609.      -388.0       260.0       432.6       584.2
        6727        866.8      -3128.      -700.5       172.1       425.5       75.25
        6728        790.5      -2681.      -697.8       66.72       455.8      -254.5
        6729        1042.      -1548.      -728.2      -34.40       449.0      -706.3
        6730        761.9      -2215.      -1511.      -241.2       384.4      -980.3
        6731        1081.      -1398.      -1904.      -478.0       277.4      -1126.
        6732        778.1      -1699.      -2919.      -637.9       135.0      -1102.
        6733        865.3      -1526.      -3303.      -711.1       43.01      -888.8
        6734        395.3      -1247.      -3380.      -755.6       21.74      -484.8
        6735       -1125.      -2776.      -4406.       664.3       76.77       395.2
        6736       -717.0      -2568.      -4023.       612.0       179.7       661.9
        6737       -1019.      -3151.      -4329.       516.4       301.0       835.1
        6738       -565.5      -2740.      -3540.       364.3       420.8       881.9
        6739       -44.36      -2949.      -3075.       258.2       495.5       891.7
        6740        131.4      -2169.      -2467.       199.2       556.0       705.1
        6741        455.5      -3047.      -1421.       156.4       583.5       434.7
        6742        78.51      -4241.      -1828.       94.02       593.8       41.44
        6743        219.8      -2696.      -1590.      -42.83       615.4      -57.91
        6744       -242.9      -3102.      -1928.      -152.1       537.0      -412.2
        6745        3.928      -2142.      -2196.      -250.6       483.5      -662.3
        6746       -459.1      -2913.      -2984.      -393.6       393.7      -678.3
        6747       -550.4      -2532.      -3472.      -581.4       227.8      -645.2
        6748       -720.8      -2317.      -3465.      -730.4       125.3      -482.8
        6749       -678.8      -2170.      -3267.      -778.7       76.43      -286.4
        6750       -52.66      -538.9      -6145.      -887.8      -39.01      -30.05
        6751       -473.2      -781.7      -5927.      -886.7      -160.4      -85.04
        6752       -281.9      -721.7      -5939.      -806.9      -168.7      -141.3
        6753       -231.4      -425.8      -5472.      -751.4      -171.8      -110.2
        6754       -195.2      -568.3      -5213.      -816.1      -279.5      -155.7
        6755       -964.1      -931.4      -5703.      -701.4      -300.7      -167.8
        6756       -872.0      -558.3      -4694.      -661.7      -345.1      -279.2
        6757       -981.6      -905.6      -4934.      -597.3      -431.6      -305.6
        6758       -1189.      -490.2      -4247.      -573.7      -416.4      -300.8
        6759       -1439.      -286.6      -3287.      -555.1      -432.6      -314.5
        6760       -2434.      -897.9      -3928.      -527.0      -404.2      -375.1
        6761       -2559.      -649.9      -3242.      -441.2      -404.1      -404.5
        6762       -3145.      -706.6      -3018.      -461.3      -389.7      -454.0
        6763       -3240.      -717.5      -2516.      -389.7      -381.3      -494.8
        6764       -3204.      -603.0      -2034.      -360.5      -378.7      -509.6
        6765       -3665.      -546.3      -1510.      -321.4      -407.7      -549.8
        6766       -4320.      -706.5      -1396.      -295.9      -389.7      -584.7
        6767       -4874.      -964.9      -1513.      -284.3      -336.8      -585.1
        6768       -5091.      -814.8      -1309.      -218.4      -301.4      -638.3
        6769       -4417.      -448.5      -555.1      -215.7      -298.4      -722.0
        6770       -4975.      -518.2      -227.0      -198.1      -242.9      -732.0
        6771       -5561.      -601.2      -315.8      -175.6      -213.0      -764.9
        6772       -5589.      -720.0      -831.9      -80.58      -160.7      -786.0
        6773       -5837.      -535.6      -131.0      -52.97      -144.6      -855.2
        6774       -6325.      -780.9      -395.7      -66.61      -32.24      -863.8
        6775        2956.       1236.      -4636.      -1578.       144.9       38.06
        6776        2874.       1115.      -4882.      -1618.       206.4       107.8
        6777        3038.       1085.      -4794.      -1615.       153.4       133.6
        6778        2328.       1048.      -4241.      -1556.       189.7       161.9
        6779        2871.       1136.      -3715.      -1446.       299.5       255.6
        6780        2363.       1047.      -3544.      -1439.       353.4       202.3
        6781        2730.       1223.      -2994.      -1396.       335.4       180.0
        6782        1812.       816.4      -2801.      -1275.       413.5       125.3
        6783        2252.       851.9      -2105.      -1223.       385.8       49.53
        6784        1698.       906.5      -1626.      -1106.       401.8       39.03
        6785        1261.       820.8      -1196.      -1004.       306.4      -75.29
        6786        1050.       738.8      -1007.      -845.8       319.2      -185.9
        6787        923.9       643.0      -451.4      -728.3       324.7      -286.3
        6788        503.2       690.9       25.59      -638.6       352.1      -400.1
        6789        195.9       743.9      -9.974      -535.4       351.0      -528.7
        6790        81.56       905.8       636.1      -417.9       322.6      -653.4
        6791       -622.6       467.1       913.0      -307.5       305.2      -773.5
        6792       -834.3       841.4       1354.      -185.6       336.9      -919.5
        6793       -1345.       790.0       1560.      -116.7       381.8      -1006.
        6794       -1472.       894.8       1743.      -42.31       428.7      -1062.
        6795       -2385.       842.6       1753.       23.97       449.6      -1209.
        6796       -2401.       940.7       2037.       119.2       452.2      -1289.
        6797       -2893.       989.3       2278.       112.5       459.8      -1331.
        6798       -3377.       953.0       2196.       152.6       426.1      -1409.
        6799       -3635.       1125.       2509.       138.2       334.3      -1411.
        6800       -4023.       1068.       2719.       124.2       289.5      -1468.
        6801       -4613.       977.5       2780.       144.1       255.4      -1548.
        6802       -4266.       1198.       2897.       62.19       186.3      -1585.
        6803       -4664.       1180.       2955.       42.71       110.2      -1535.
        6804        2219.       1360.      -5006.      -1373.       150.3       32.06
        6805        2308.       1699.      -4790.      -1386.       238.8       7.659
        6806        2888.       2249.      -4340.      -1382.       328.2      -2.517
        6807        2378.       1995.      -4557.      -1430.       463.8       19.76
        6808        2250.       1956.      -4473.      -1464.       589.5       1.079
        6809        2417.       2067.      -4112.      -1453.       693.8      -72.54
        6810        2285.       1861.      -4090.      -1496.       790.5      -100.9
        6811        2112.       2255.      -3837.      -1438.       901.3      -80.67
        6812        1864.       1999.      -3626.      -1400.       1038.      -143.6
        6813        1782.       2066.      -3219.      -1428.       1104.      -173.8
        6814        1303.       2058.      -3330.      -1421.       1205.      -213.8
        6815        740.7       954.3      -3326.      -1388.       1276.      -321.6
        6816        1415.       2754.      -2559.      -1358.       1359.      -403.6
        6817        1269.       2898.      -1980.      -1332.       1475.      -462.0
        6818        932.5       2189.      -2178.      -1254.       1555.      -563.4
        6819        785.7       2369.      -1728.      -1167.       1630.      -633.2
        6820        627.3       2744.      -1223.      -1142.       1689.      -683.4
        6821        171.3       2389.      -1210.      -1085.       1707.      -740.3
        6822        114.1       2637.      -866.7      -1038.       1734.      -810.4
        6823       -137.4       2563.      -448.6      -966.7       1751.      -884.2
        6824       -453.9       2574.      -106.5      -860.9       1752.      -962.4
        6825       -910.7       2495.      -138.6      -789.3       1726.      -1028.
        6826       -1280.       2068.      -1.349      -774.1       1726.      -1065.
        6827       -1266.       2266.       327.1      -719.9       1722.      -1112.
        6828       -1738.       1944.       522.1      -589.4       1680.      -1176.
        6829       -2152.       2563.       652.0      -490.9       1609.      -1222.
        6830       -2268.       2665.       747.2      -471.4       1532.      -1270.
        6831       -2602.       2984.       1374.      -440.8       1452.      -1295.
        6832       -3092.       2577.       1579.      -429.6       1369.      -1325.
        6833       -3450.       2115.       1571.      -341.2       1259.      -1321.
        6834       -3339.       2481.       1674.      -261.9       1204.      -1341.
        6835       -3661.       1561.       1432.      -189.8       1109.      -1457.
        6836       -4030.       1830.       1651.      -119.7       991.4      -1432.
        6837       -3803.       2095.       1819.      -130.8       836.4      -1404.
        6838       -4071.       2121.       1704.      -115.5       725.7      -1403.
        6839       -4130.       2417.       2230.      -64.70       631.9      -1470.
        6840       -4255.       2245.       2311.      -57.94       480.9      -1515.
        6841       -4465.       1420.       2183.      -82.47       376.5      -1490.
        6842       -4185.       2348.       2634.      -56.20       290.4      -1426.
        6843       -4827.       1573.       2052.      -10.47       140.7      -1385.
        6844       -5535.      -1768.      -3904.      -347.3      -399.8      -537.5
        6845       -6884.      -1853.      -3096.      -272.7      -282.8      -627.7
        6846       -7200.      -1639.      -2440.      -165.8      -118.2      -673.6
        6847      -1.4796E+04  -1640.     -1.4946E+04   39.59       97.86       26.59
        6848      -1.2724E+04  -1275.     -1.3592E+04  -265.7      -30.79       15.88
        6849       -4362.      -1537.      -4690.      -469.4      -379.0      -437.4
        6850      -1.2333E+04  -1486.     -1.3629E+04  -299.5      -2.104       76.78
        6851      -1.0632E+04  -1276.     -1.1880E+04  -397.5       31.19       90.67
        6852       -3817.      -1786.      -5664.      -519.9      -444.5      -396.8
        6853      -1.1138E+04  -1550.     -1.2680E+04  -387.6       80.88       55.52
        6854      -1.0379E+04  -1568.     -1.2409E+04  -400.9      -6.410       27.25
        6855       -3293.      -1882.      -6857.      -615.8      -328.3      -327.7
        6856       -8918.      -1347.     -1.1279E+04  -493.6      -89.32       49.82
        6857       -7807.      -1603.     -1.0730E+04  -516.9      -123.8       43.68
        6858       -6499.      -1493.      -9947.      -552.2      -88.91      -22.23
        6859       -2334.      -1612.      -6944.      -669.3      -179.7      -124.8
        6860       -5390.      -1561.      -9085.      -558.5      -23.81      -14.70
        6861       -3886.      -1578.      -8564.      -601.0       15.93      -15.56
        6862       -7495.      -1677.      -2558.      -74.24      -19.88      -663.8
        6863       -6749.      -1550.      -2312.      -198.5      -142.3      -736.3
        6864       -6805.      -1771.      -2834.      -161.7      -187.1      -684.5
        6865       -6519.      -1641.      -3050.      -295.8      -357.6      -552.6
        6866       -5321.      -1502.      -3034.      -313.6      -333.5      -533.0
        6867       -6011.      -1767.      -3849.      -320.8      -344.8      -532.2
        6868       -5376.      -1745.      -4255.      -390.2      -421.4      -532.2
        6869       -5611.      -1982.      -5009.      -413.6      -405.4      -532.4
        6870       -4253.      -1620.      -5129.      -466.2      -399.1      -449.1
        6871       -4164.      -1804.      -5541.      -486.3      -422.1      -417.3
        6872       -3489.      -1661.      -5935.      -547.8      -397.7      -357.2
        6873       -3596.      -1646.      -6220.      -573.8      -429.7      -328.5
        6874       -2768.      -1669.      -6406.      -645.5      -291.4      -179.7
        6875       -2619.      -1802.      -7163.      -658.8      -264.1      -204.6
        6876       -2540.      -1721.      -7131.      -665.9      -164.0      -211.3
        6877       -2265.      -1719.      -7675.      -700.2      -69.01      -121.7
        6878      -1.3863E+04  -1318.     -1.3979E+04  -58.39      -93.72      -129.1
        6879      -1.3342E+04  -1335.     -1.3259E+04   41.89      -182.4      -132.1
        6880      -1.4791E+04  -1813.     -1.4662E+04   55.30      -105.5      -273.9
        6881      -1.3470E+04  -1208.     -1.2665E+04   45.00       52.57      -270.3
        6882      -1.3564E+04  -1675.     -1.2701E+04   20.10      -30.07      -302.0
        6883      -1.2652E+04  -1564.     -1.1688E+04   16.37      -63.87      -337.9
        6884      -1.2684E+04  -1577.     -1.1206E+04   7.549       6.551      -393.2
        6885      -1.1952E+04  -1503.     -1.0173E+04   21.22      -32.54      -400.4
        6886      -1.1414E+04  -1477.      -9149.       34.23      -91.28      -472.9
        6887      -1.0366E+04  -1459.      -7867.       37.03      -103.3      -552.5
        6888       -9808.      -1509.      -6675.      -7.698      -59.45      -567.8
        6889       -9193.      -1607.      -5623.      -32.06       34.95      -566.0
        6890      -1.2838E+04  -1411.     -1.3723E+04  -152.6      -54.55       11.70
        6891      -1.4409E+04  -1530.     -1.4890E+04  -160.0      -84.82       32.36
        6892      -1.4668E+04  -1566.     -1.4816E+04  -32.82       75.33      -66.35
        6893      -1.2548E+04  -1318.     -1.3770E+04  -280.2      -43.39      -113.1
        6894       -5773.      -1718.      -9426.      -560.0      -54.78      -54.30
        6895       -4189.      -1528.      -8919.      -589.1       15.93      -98.51
        6896       -9830.      -1642.      -7034.      -49.33      -34.58      -549.2
        6897      -1.1404E+04  -1460.      -9988.      -24.40      -159.0      -385.7
        6898       -6727.      -1563.      -5148.      -337.0      -322.7      -468.9
        6899       -5963.      -1549.      -6350.      -405.9      -389.5      -388.6
        6900       -5547.      -1583.      -6817.      -451.4      -398.3      -386.5
        6901       -9377.      -1568.     -1.1729E+04  -496.9      -193.2      -61.13
        6902       -4060.      -1459.      -7919.      -573.9      -213.0      -153.0
        6903       -2377.      -1788.      -8115.      -742.2      -44.55      -57.69
        6904      -1.4142E+04  -1601.     -1.4138E+04  -77.31      -92.80      -134.3
        6905       -6254.      -1490.      -5762.      -368.3      -404.1      -447.1
        6906      -1.4936E+04  -1645.     -1.4585E+04  -30.66      -136.3      -251.2
        6907      -1.3157E+04  -1422.     -1.2423E+04  -83.13       1.414      -309.6
        6908       -8486.      -1542.      -4565.      -126.0      -142.8      -556.0
        6909       -9360.      -1545.      -5529.      -46.64      -26.63      -554.8
        6910      -1.4151E+04  -1466.     -1.4412E+04  -65.65      -2.539      -23.19
        6911      -1.3197E+04  -1265.     -1.3412E+04  -183.9      -111.2       7.849
        6912      -1.1317E+04  -1616.     -1.3145E+04  -415.5       84.85      -86.84
        6913       -4871.      -1432.      -7391.      -471.4      -334.5      -275.8
        6914      -1.2608E+04  -1721.     -1.4279E+04  -371.0       14.92      -71.24
        6915       -4825.      -1553.      -7433.      -502.9      -342.7      -279.8
        6916       -9911.      -1427.     -1.1862E+04  -375.8      -65.54      -102.6
        6917       -7757.      -1604.     -1.0785E+04  -487.7      -211.9       28.92
        6918       -6636.      -1459.      -9776.      -512.7      -129.0       6.502
        6919       -4260.      -1429.      -7600.      -555.0      -230.4      -216.9
        6920       -8413.      -1573.      -4048.      -3.807       40.99      -592.9
        6921      -1.1471E+04  -1640.      -9458.      -41.79      -158.3      -478.7
        6922      -1.3087E+04  -1516.     -1.1389E+04  -5.658      -127.1      -363.8
        6923      -1.2863E+04  -1452.     -1.1706E+04  -28.75      -34.19      -322.8
        6924      -1.3787E+04  -1661.     -1.3238E+04  -36.95      -126.1      -293.7
        6925       -6349.      -1577.      -6249.      -452.8      -379.0      -351.0
        6926       -5155.      -1507.      -6924.      -461.4      -399.9      -360.0
        6927       -4585.      -1625.      -7918.      -584.6      -306.9      -290.1
        6928       -4499.      -1644.      -8318.      -555.8      -289.8      -171.1
        6929       -4010.      -1461.      -8025.      -591.0      -54.46      -120.3
        6930      -1.4224E+04  -1386.     -1.3907E+04  -62.43       10.02      -139.2
        6931       -6703.      -1554.      -5549.      -349.0      -382.6      -458.7
        6932       -6794.      -1538.      -4681.      -303.9      -297.7      -494.0
        6933       -6898.      -1536.      -4385.      -306.6      -285.6      -500.4
        6934       -7653.      -1590.      -4558.      -318.1      -236.2      -506.4
        6935       -8141.      -1648.      -4726.      -234.8      -224.4      -541.8
        6936       -7824.      -1505.      -4388.      -145.8      -192.1      -583.1
        6937      -1.0696E+04  -1192.      -7982.      -50.03      -126.3      -515.2
        6938       -8132.      -1498.      -4152.      -154.9      -78.25      -587.5
        6939       -8613.      -1607.      -4257.      -71.98       18.32      -580.5
        6940      -1.3977E+04  -1572.     -1.4267E+04  -178.2      -120.2      -40.45
        6941      -1.3431E+04  -1575.     -1.3798E+04  -160.1      -97.70      -21.17
        6942      -1.2328E+04  -1527.     -1.3392E+04  -341.2      -159.9      -176.6
        6943       -6145.      -1742.      -8503.      -437.3      -293.2      -282.8
        6944       -6769.      -1402.      -9849.      -495.0      -269.8      -114.2
        6945      -1.1826E+04  -1406.     -1.0119E+04  -159.3      -155.5      -386.7
        6946       -7018.      -1549.      -7026.      -391.2      -352.1      -304.1
        6947       -9759.      -1578.     -1.1566E+04  -397.0      -119.3      -160.1
        6948       -5564.      -1518.      -9305.      -553.9      -53.35      -132.5
        6949      -1.4638E+04  -1627.     -1.4831E+04  -78.28      -146.4      -75.87
        6950      -1.3675E+04  -1426.     -1.3441E+04  -188.1      -68.59      -249.5
        6951       -6956.      -1608.      -7498.      -402.4      -372.0      -385.4
        6952      -1.1821E+04  -1629.      -9772.      -164.8      -137.7      -483.7
        6953       -8809.      -1419.      -5562.      -92.68      -90.99      -552.7
        6954      -1.3905E+04  -1763.     -1.4611E+04  -286.5      -55.93      -79.92
        6955      -1.3514E+04  -1689.     -1.2866E+04  -99.71      -43.78      -309.7
        6956       -8506.      -1599.      -5995.      -304.8      -206.5      -512.9
        6957       -7443.      -1469.      -5423.      -312.0      -287.1      -474.7
        6958       -8215.      -1568.     -1.1424E+04  -484.7      -313.7      -190.9
        6959      -1.2346E+04  -1454.     -1.1037E+04  -151.5      -210.4      -329.6
        6960      -1.4070E+04  -1478.     -1.4250E+04  -161.2      -66.32      -57.66
        6961       -6412.      -1539.      -7501.      -444.8      -408.7      -341.5
        6962      -1.1319E+04  -1503.     -1.2603E+04  -381.7      -260.1      -212.7
        6963       -6179.      -1603.      -7941.      -454.4      -282.1      -268.8
        6964       -5367.      -1421.      -8528.      -542.2      -224.5      -242.0
        6965       -8928.      -1552.     -1.1029E+04  -490.5      -165.0      -190.4
        6966       -6163.      -1821.     -1.0050E+04  -562.1      -245.3      -120.1
        6967       -5252.      -1492.      -8671.      -509.9      -191.6      -182.7
        6968      -1.1236E+04  -1648.      -8515.      -133.4      -218.3      -487.0
        6969       -7629.      -1542.      -6357.      -368.5      -310.3      -461.3
        6970      -1.2537E+04  -1560.     -1.1569E+04  -114.4      -59.07      -362.0
        6971       -7182.      -1429.      -6759.      -320.4      -350.9      -396.6
        6972      -1.4075E+04  -1708.     -1.3614E+04  -151.6      -199.0      -275.3
        6973       -6349.      -1606.      -8085.      -500.2      -338.5      -339.2
        6974       -6074.      -1397.      -8633.      -487.0      -350.2      -243.0
        6975      -1.3698E+04  -1550.     -1.3754E+04  -156.8       90.78      -180.4
        6976       -7848.      -1530.      -6716.      -385.5      -348.6      -437.9
        6977       -8332.      -1651.      -6053.      -283.0      -184.6      -486.1
        6978       -8809.      -1847.      -6065.      -223.1      -271.5      -549.0
        6979      -1.0239E+04  -1584.      -7151.      -36.09      -190.9      -507.9
        6980       -9024.      -1563.      -5876.      -204.0      -276.3      -525.6
        6981      -1.4323E+04  -1948.     -1.4180E+04  -213.4      -4.241      -191.9
        6982      -1.4061E+04  -1570.     -1.4536E+04  -166.4      -59.05      -96.10
        6983      -1.0885E+04  -1553.     -1.2062E+04  -366.5      -370.7      -130.6
        6984      -1.1041E+04  -1295.     -1.2241E+04  -331.5      -348.5      -235.3
        6985      -1.2029E+04  -1597.     -1.0556E+04  -237.3      -203.5      -325.3
        6986       -9363.      -1420.     -1.1050E+04  -426.4      -260.4      -122.3
        6987       -7836.      -1402.      -8223.      -403.2      -252.2      -423.3
        6988       -7204.      -1658.     -1.0319E+04  -499.5      -165.7      -206.3
        6989      -1.3068E+04  -1564.     -1.2843E+04  -274.0      -85.43      -273.3
        6990      -1.1671E+04  -1447.     -1.0348E+04  -225.6      -144.0      -408.7
        6991       -9569.      -1356.      -6761.      -228.9      -189.0      -494.5
        6992      -1.0306E+04  -1461.      -8011.      -149.9      -265.4      -494.9
        6993      -1.4592E+04  -1821.     -1.4592E+04  -167.7       29.09      -154.8
        6994      -1.4244E+04  -1684.     -1.4627E+04  -265.6       35.53      -64.67
        6995       -8460.      -1310.     -1.0496E+04  -427.7      -173.3      -151.7
        6996       -8460.      -1189.      -6128.      -263.1      -283.5      -524.4
        6997       -7447.      -1610.      -7999.      -442.9      -285.1      -421.8
        6998      -1.3037E+04  -1866.     -1.3580E+04  -281.8      -20.88      -94.03
        6999       -9146.      -1267.      -7470.      -334.8      -295.2      -467.7
        7000       -7832.      -1377.     -1.0449E+04  -481.0      -152.1      -233.9
        7001      -1.2141E+04  -1493.     -1.0766E+04  -263.2      -210.3      -350.0
        7002       -6879.      -1477.      -8632.      -459.0      -253.0      -263.0
        7003       -7003.      -1511.      -8984.      -450.2      -292.0      -292.7
        7004       -6943.      -1530.      -9578.      -477.3      -254.7      -209.1
        7005       -6468.      -1470.      -9459.      -476.1      -128.8      -177.5
        7006      -1.0898E+04  -1484.      -8970.      -206.1      -162.3      -454.1
        7007       -8362.      -1513.      -8079.      -367.5      -241.5      -374.6
        7008      -1.2178E+04  -1303.     -1.1664E+04  -258.5      -179.2      -355.4
        7009       -8482.      -1585.      -8464.      -361.5      -255.4      -390.7
        7010      -1.2658E+04  -994.6     -1.2375E+04  -233.7       113.7      -231.5
        7011       -7901.      -1466.      -8791.      -480.8      -278.7      -287.9
        7012       -7001.      -1463.      -9155.      -448.0      -335.7      -214.3
        7013      -1.4112E+04  -1661.     -1.4392E+04  -127.7      -76.83      -152.7
        7014       -8949.      -1477.      -7818.      -345.6      -253.6      -396.3
        7015       -8991.      -1337.      -6499.      -197.3      -203.3      -493.4
        7016       -9958.      -1389.      -7130.      -126.8      -224.6      -474.4
        7017      -1.2574E+04  -1645.     -1.2642E+04  -256.0      -116.8      -240.4
        7018      -1.1128E+04  -1286.     -1.0464E+04  -223.1      -201.3      -341.6
        7019      -1.0422E+04  -1570.     -1.1623E+04  -281.9      -353.0      -167.6
        7020       -9378.      -1567.      -7691.      -223.8      -251.5      -430.2
        7021      -1.0803E+04  -1717.      -9093.      -209.5      -136.0      -424.7
        7022       -9244.      -1620.      -9867.      -372.3      -256.9      -309.2
        7023      -1.2977E+04  -1390.     -1.3512E+04  -206.3       73.20      -226.5
        7024      -1.1186E+04  -1437.      -9965.      -197.3      -221.5      -360.1
        7025       -7865.      -1572.      -9766.      -437.8      -248.3      -261.0
        7026       -8245.      -1713.      -9980.      -447.2      -214.2      -263.1
        7027      -1.2332E+04  -1469.     -1.3161E+04  -312.9      -124.5      -258.6
        7028      -1.0535E+04  -1602.      -8585.      -190.4      -254.2      -427.9
        7029       -9194.      -1418.     -1.1032E+04  -452.1      -367.7      -216.9
        7030      -1.2245E+04  -1631.     -1.3254E+04  -286.4      -281.9      -223.2
        7031       -9584.      -1484.      -9099.      -319.1      -214.4      -391.8
        7032       -7634.      -1628.     -1.0151E+04  -455.2      -98.14      -163.4
        7033      -1.2139E+04  -1382.     -1.1320E+04  -231.6      -243.2      -360.2
        7034       -7888.      -1471.     -1.0007E+04  -429.6      -268.5      -189.6
        7035       -8774.      -1448.     -1.1009E+04  -449.0      -204.4      -169.5
        7036      -1.0213E+04  -1446.      -8386.      -173.2      -278.7      -415.1
        7037       -9724.      -1648.      -9797.      -345.9      -246.7      -376.2
        7038      -1.2950E+04  -1704.     -1.2601E+04  -231.1      -275.0      -282.8
        7039       -9257.      -1579.      -9783.      -345.4      -238.2      -344.9
        7040      -1.3798E+04  -1726.     -1.4149E+04  -243.0      -12.26      -252.4
        7041       -8336.      -1528.      -9514.      -450.1      -290.4      -226.5
        7042       -8324.      -1659.     -1.0446E+04  -429.8      -315.3      -222.9
        7043      -1.2960E+04  -1076.     -1.3287E+04  -184.4       17.51      -217.5
        7044       -9443.      -1553.      -8616.      -313.9      -211.0      -358.3
        7045      -1.1000E+04  -1513.      -9255.      -237.9      -329.3      -364.5
        7046       -8818.      -1500.     -1.0367E+04  -414.7      -270.6      -237.4
        7047       -9175.      -1399.     -1.0514E+04  -397.8      -342.5      -238.7
        7048      -1.1432E+04  -1343.     -1.2100E+04  -321.0      -157.1      -311.6
        7049       -8655.      -1522.     -1.0738E+04  -456.8      -305.7      -172.7
        7050       -9687.      -1420.      -9450.      -275.3      -326.6      -331.7
        7051      -1.1625E+04  -1601.     -1.1311E+04  -227.1      -339.8      -328.4
        7052      -1.2635E+04  -1676.     -1.3199E+04  -240.6      -64.85      -287.7
        7053      -1.1035E+04  -1453.     -1.0548E+04  -223.0      -322.4      -342.6
        7054       -9986.      -1493.     -1.0410E+04  -315.4      -338.9      -345.9
        7055      -1.1229E+04  -1414.     -1.2160E+04  -268.0      -214.0      -235.1
        7056      -1.1553E+04  -1727.     -1.0705E+04  -233.9      -301.3      -376.3
        7057      -1.2033E+04  -1496.     -1.1980E+04  -245.0      -250.7      -223.6
        7058      -1.0996E+04  -1475.     -1.0741E+04  -245.2      -394.6      -351.7
        7059      -1.1108E+04  -1433.     -1.2000E+04  -302.6      -245.7      -183.6
        7060      -1.0958E+04  -1545.     -1.0900E+04  -226.4      -406.8      -321.9
        7061      -1.0599E+04  -1593.      -9762.      -180.6      -339.2      -324.7
        7062      -1.0559E+04  -1442.      -9882.      -241.2      -359.7      -380.8
        7063      -1.1944E+04  -1540.     -1.2070E+04  -223.3      -258.8      -229.2
        7064      -1.1440E+04  -1372.     -1.1184E+04  -247.7      -327.3      -259.3
        7065       -9526.      -1519.     -1.0931E+04  -366.4      -283.4      -227.9
        7066       -9020.      -1380.     -1.0200E+04  -400.0      -333.7      -217.6
        7067      -1.0110E+04  -1560.     -1.1606E+04  -341.5      -287.0      -235.6
        7068      -1.0954E+04  -1403.     -1.1076E+04  -240.3      -260.7      -260.1
        7069      -1.1865E+04  -1605.     -1.1967E+04  -228.9      -257.7      -246.1
        7070       -9990.      -1440.     -1.0921E+04  -330.6      -351.6      -265.0
        7071      -1.0646E+04  -1440.     -1.1520E+04  -342.7      -291.0      -227.0
        7072       -7967.      -1905.      -2684.      -53.23      -20.83      -739.8
        7073       -9181.      -1565.      -6097.      -118.0      -197.4      -535.7
        7074       -8276.      -1570.      -6587.      -241.5      -218.5      -509.6
        7075      -1.0547E+04  -1418.     -1.1888E+04  -429.6      -380.2      -256.9
        7076       -8993.      -1560.     -1.0415E+04  -434.4      -333.8      -223.7
        7077      -1.1840E+04  -1529.     -1.2289E+04  -257.5      -238.6      -234.3
        7078      -1.0014E+04  -1512.      -8458.      -161.6      -176.6      -423.1
        7079      -1.1386E+04  -1599.      -9991.      -220.2      -257.3      -419.9
        7080      -1.1743E+04  -1648.     -1.2271E+04  -258.4      -254.0      -210.7
        7081       -9828.      -1389.      -8529.      -299.2      -192.5      -441.5
        7082      -1.0167E+04  -1569.      -8615.      -169.9      -326.6      -333.5
        7083      -1.0172E+04  -1490.      -8687.      -213.6      -223.4      -380.4
        7084      -1.0707E+04  -1531.     -1.0841E+04  -238.9      -354.5      -313.9
        7085      -1.1247E+04  -1569.     -1.1718E+04  -278.4      -298.7      -252.2
        7086      -1.0470E+04  -1473.     -1.0897E+04  -302.5      -365.1      -295.4
        7087       -8505.      -1368.     -1.0266E+04  -408.0      -222.3      -283.5
        7088       -9621.      -1400.     -1.0423E+04  -370.0      -369.0      -274.2
        7089       -9934.      -1466.      -9128.      -256.6      -300.2      -338.4
        7090      -1.0237E+04  -1437.      -9840.      -251.8      -340.7      -386.3
        7091       -2544.       482.3       1335.       26.56       202.7      -1110.
        7092       -1771.       747.3       512.6      -144.2       108.6      -747.2
        7093       -448.7       440.0      -532.2      -392.7       57.93      -396.7
        7094       -110.7       480.8      -752.7      -483.3       80.92      -299.1
        7095        954.7       465.4      -1967.      -834.7       39.37      -31.45
        7096        2468.       868.5      -4728.      -1376.       58.41       42.10
        7097        1707.       471.9      -5188.      -1069.      -79.18       37.72
        7098        2408.       909.5      -4221.      -1163.      -14.79       122.1
        7099        1728.       587.3      -4188.      -1148.      -94.39       76.41
        7100        1108.       416.1      -4073.      -901.6      -171.3      -21.46
        7101        2134.       613.7      -3941.      -1200.       93.51       80.75
        7102        1301.       496.1      -3556.      -1028.      -60.75       41.41
        7103        1571.       659.6      -2572.      -1161.       175.9       36.08
        7104        616.0       461.2      -3353.      -712.0      -194.9      -60.09
        7105        562.1       360.6      -3819.      -803.4      -308.9      -123.3
        7106        1120.       305.3      -3135.      -1182.       206.2       88.85
        7107        1242.       433.3      -2606.      -984.3       119.6       29.09
        7108       -2.106       246.3      -2930.      -639.8      -264.3      -136.7
        7109        625.7       423.3      -1744.      -684.9       56.31      -114.1
        7110       -473.3       290.4      -2648.      -541.1      -250.8      -168.1
        7111        309.7       543.1      -1094.      -588.4       53.61      -221.4
        7112       -1080.      -12.99      -2419.      -476.2      -246.3      -245.9
        7113       -1683.      -12.71      -1790.      -333.5      -239.3      -344.7
        7114       -1211.       344.8      -1761.      -394.6      -250.3      -276.8
        7115       -1016.       685.8       474.5      -235.4       80.76      -651.7
        7116       -2422.       173.6      -963.9      -259.2      -196.1      -479.8
        7117       -1948.       167.8      -1249.      -296.3      -219.5      -418.8
        7118       -696.1       521.4       33.88      -291.0       69.10      -531.7
        7119       -2837.       214.2      -756.0      -166.4      -188.0      -516.0
        7120       -2340.       562.3       893.9      -2.692       119.4      -958.1
        7121       -2961.       232.0      -273.3      -130.3      -205.3      -593.6
        7122       -2000.       320.7       528.2      -43.96       111.9      -834.6
        7123       -3042.       364.3       338.5      -134.1      -199.8      -705.0
        7124       -3681.       823.8       2039.       75.35       129.0      -1205.
        7125       -2897.       860.2       1101.      -8.686      -81.37      -825.9
        7126       -4017.       568.5       1896.       130.2       94.74      -1216.
        7127       -5001.       127.8       829.8      -4.095      -181.1      -888.9
        7128       -4606.       425.4       1080.       2.661      -87.86      -933.9
        7129       -4737.       786.5       2452.       9.833       33.72      -1355.
        7130       -5299.       102.0       945.3      0.8618      -108.6      -1077.
        7131        2518.       818.6      -4647.      -1418.       64.56       70.34
        7132       -4329.       957.5       2611.       39.91       48.58      -1379.
        7133        2946.       926.2      -3414.      -1175.       143.6       105.3
        7134       -4001.       1161.       2163.       143.9       56.01      -1276.
        7135        1641.       385.0      -4846.      -1100.      -10.37       40.48
        7136       -4848.       573.8       1690.      -40.50      -25.64      -1123.
        7137       -3933.       857.7       2174.       104.7       66.33      -1298.
        7138       -2673.       798.9       1809.       84.45       338.8      -1192.
        7139       -4252.       492.7       1118.       10.63      -151.3      -893.2
        7140       -4094.       405.3       888.1      -60.82      -134.4      -879.4
        7141        706.9       293.1      -4575.      -916.1      -263.4      -78.10
        7142        2549.       690.6      -4774.      -1499.       199.9       126.8
        7143        1394.       533.3      -2963.      -972.4      -105.1       4.566
        7144        1199.       587.7      -2600.      -935.8       25.44       14.44
        7145       -3356.       691.1       1648.       61.56       223.4      -1192.
        7146       -5154.       616.6       1362.      -41.07       428.2      -1579.
        7147       -4840.       857.2       2109.      -55.37       664.9      -1528.
        7148       -4366.       785.5       2174.       93.98       409.3      -1476.
        7149       -3700.       1321.       1772.      -157.0       1121.      -1457.
        7150       -3434.       1287.       1592.      -200.2       1202.      -1400.
        7151       -2505.       1070.       971.0      -411.9       1505.      -1293.
        7152       -1985.       1073.       310.6      -571.3       1614.      -1167.
        7153       -686.4       1005.      -505.1      -882.2       1699.      -974.7
        7154       -153.1       578.5       720.8      -465.3       561.6      -715.7
        7155       -484.9       1280.      -845.9      -925.0       1678.      -891.0
        7156        255.3       710.3       228.0      -597.0       593.4      -588.5
        7157        399.3       823.7      -2511.      -1290.       1509.      -473.1
        7158        1233.       676.8      -1300.      -982.2       554.0      -143.5
        7159        743.6       682.7      -2334.      -1064.       1228.      -199.7
        7160        979.1       383.5      -4115.      -1651.       1182.      -199.1
        7161        1374.       1019.      -4170.      -1491.       1059.      -120.9
        7162        1849.       862.3      -4957.      -1564.       633.4       6.447
        7163        2135.       1467.      -5189.      -1624.       158.1       51.55
        7164        2399.       942.1      -5322.      -1621.       161.2       45.98
        7165        1939.       585.0      -5824.      -1548.       147.3       43.27
        7166        2534.       1123.      -5915.      -1566.       150.5       47.16
        7167        2276.       941.3      -5193.      -1511.       313.6       34.73
        7168        2689.       1243.      -5192.      -1625.       262.4       82.25
        7169        2023.       868.3      -5151.      -1606.       494.6      -11.86
        7170        1831.       917.2      -4915.      -1470.       497.6       43.44
        7171        2509.       1107.      -4988.      -1614.       301.9       113.6
        7172        2345.       819.2      -5216.      -1532.       296.0       38.49
        7173        1048.       273.8      -5922.      -1585.       333.2       29.75
        7174        2310.       907.8      -5399.      -1522.       422.0       56.98
        7175        2537.       1036.      -4379.      -1543.       414.8       139.9
        7176        1900.       1199.      -4781.      -1563.       708.6      -31.93
        7177        2327.       973.8      -4023.      -1474.       519.3       193.1
        7178        1879.       949.9      -4525.      -1473.       510.5       110.2
        7179        2018.       735.9      -5260.      -1419.       596.4       59.53
        7180        1870.       1378.      -4260.      -1609.       824.9      -62.92
        7181        1906.       911.7      -4434.      -1387.       708.3       93.81
        7182        1995.       861.6      -4449.      -1426.       647.2       112.2
        7183        1717.       1273.      -3986.      -1546.       915.4      -53.46
        7184        1508.       719.6      -4349.      -1415.       867.6       38.27
        7185        2251.       935.0      -3872.      -1445.       557.3       182.7
        7186        1278.       886.0      -3604.      -1283.       1062.      -47.07
        7187        1624.       899.9      -3829.      -1301.       919.2       34.24
        7188        1870.       914.1      -3525.      -1328.       685.6       137.3
        7189        2176.       932.3      -3283.      -1386.       521.4       159.8
        7190        1742.       650.8      -3702.      -1346.       714.4       133.0
        7191        1601.       936.1      -3847.      -1330.       990.5      -38.99
        7192        1700.       945.2      -3506.      -1254.       968.1      -43.75
        7193        1891.       776.0      -3586.      -1306.       866.3       51.72
        7194        2026.       942.2      -3016.      -1313.       571.4       84.66
        7195        1125.       613.9      -2867.      -1199.       1201.      -202.2
        7196        1595.       759.2      -2234.      -1219.       633.8       7.630
        7197        1032.       1022.      -3613.      -1483.       1211.      -205.1
        7198        821.8       645.4      -2640.      -1126.       1225.      -207.6
        7199        1391.       747.0      -2945.      -1138.       1047.      -96.84
        7200        1417.       769.1      -2683.      -1142.       856.6      -21.18
        7201        1437.       643.1      -2502.      -1097.       1082.      -146.0
        7202        1579.       618.4      -2217.      -1164.       661.0      -28.78
        7203        490.5       832.1      -2034.      -1069.       1369.      -341.2
        7204        737.6       880.9      -1870.      -1010.       1204.      -207.4
        7205        1316.       777.0      -1743.      -1084.       729.6      -80.01
        7206        1559.       769.7      -1625.      -1114.       573.9      -101.8
        7207        1306.       617.7      -2222.      -1059.       908.0      -116.9
        7208        1120.       635.2      -2138.      -1043.       1062.      -152.3
        7209        591.0       730.7      -1599.      -935.6       1109.      -225.9
        7210        1079.       710.9      -1339.      -970.3       799.9      -148.8
        7211        117.5       913.9      -1847.      -1092.       1580.      -606.2
        7212        1027.       919.1      -684.2      -875.4       581.3      -279.8
        7213        736.0       557.3      -1178.      -885.0       945.3      -282.3
        7214        275.2       1211.      -1906.      -1204.       1568.      -558.4
        7215       -379.7       710.5      -1692.      -1029.       1607.      -666.0
        7216        207.4       676.6      -1136.      -831.8       1239.      -461.7
        7217        611.5       757.8      -607.3      -776.4       937.9      -390.3
        7218        578.8       678.3      -375.2      -769.6       618.9      -362.2
        7219       -595.8       1040.      -1170.      -989.5       1651.      -767.7
        7220        79.18       851.0      -666.9      -754.3       1290.      -555.0
        7221        595.5       653.6       3.868      -694.5       622.5      -479.8
        7222       -747.3       728.3      -473.1      -708.4       1480.      -780.3
        7223       -108.7       654.5      -222.6      -603.1       1197.      -605.0
        7224       -5.754       555.4       135.9      -561.6       831.3      -622.9
        7225        88.08       569.4      -451.2      -671.4       954.2      -513.2
        7226       -524.9       835.9      -460.4      -727.0       1413.      -681.7
        7227       -470.4       721.2      -198.6      -603.0       1331.      -696.5
        7228       -291.6       735.9       118.2      -532.3       1048.      -656.9
        7229       -1635.       929.6      -241.8      -733.8       1687.      -1062.
        7230       -349.0       561.1       670.3      -351.5       565.3      -806.3
        7231       -204.6       834.6       413.7      -454.4       792.1      -718.8
        7232       -480.4       587.8       293.9      -468.9       950.1      -710.2
        7233       -1327.       919.9      -473.9      -849.2       1696.      -1020.
        7234       -1769.       1308.       232.7      -648.2       1648.      -1117.
        7235       -999.6       1011.       194.4      -534.2       1419.      -871.2
        7236       -763.1       642.4       543.6      -372.7       846.1      -783.2
        7237       -1418.       864.6       410.2      -447.8       1405.      -929.0
        7238       -1574.       577.8       637.1      -361.2       1216.      -952.2
        7239       -916.3       862.3       1277.      -254.6       597.4      -941.3
        7240       -2197.       1125.       563.0      -494.6       1539.      -1223.
        7241       -1919.       722.7       542.4      -315.1       1294.      -1064.
        7242       -1471.       716.9       1180.      -194.1       866.5      -1020.
        7243       -934.2       712.1       741.7      -300.0       910.5      -907.0
        7244       -1715.       924.3       680.1      -419.9       1389.      -1020.
        7245       -2230.       680.4       1196.      -182.6       1153.      -1072.
        7246       -1966.       774.9       1095.      -198.5       1115.      -1037.
        7247       -1484.       513.5       1249.      -148.7       651.0      -1059.
        7248       -2736.       776.8       947.6      -210.7       1271.      -1191.
        7249       -1705.       684.3       1233.      -89.52       709.4      -1120.
        7250       -2167.       811.4       1359.      -78.35       961.1      -1104.
        7251       -2940.       974.5       907.8      -336.1       1467.      -1358.
        7252       -3056.       436.2       759.2      -333.9       1374.      -1404.
        7253       -3068.       893.3       1040.      -156.5       1193.      -1204.
        7254       -2545.       675.2       1259.      -32.16       867.6      -1154.
        7255       -2259.       849.2       1685.      -20.22       620.3      -1182.
        7256       -3203.       1413.       1256.      -256.3       1284.      -1396.
        7257       -3198.       699.0       1113.      -34.08       994.0      -1190.
        7258       -2995.       819.4       1753.       20.60       816.2      -1226.
        7259       -3766.       800.4       1481.      -62.07       995.9      -1300.
        7260       -3708.       751.1       1625.      -11.95       888.5      -1303.
        7261       -3131.       892.4       2039.       50.45       774.9      -1282.
        7262       -2606.       817.6       1908.       74.67       623.3      -1310.
        7263       -3541.       718.0       1375.      -13.93       931.8      -1249.
        7264       -3498.       746.1       1362.      -79.72       1071.      -1269.
        7265       -3924.       763.6       1617.      -8.557       848.7      -1335.
        7266       -3606.       761.3       1833.       29.24       799.2      -1339.
        7267       -3433.       720.1       1859.       99.20       617.9      -1377.
        7268       -4247.       666.4       1669.      -25.47       828.8      -1445.
        7269       -3638.       953.2       2292.       95.44       661.4      -1432.
        7270       -4208.       754.2       1764.       6.923       791.8      -1383.
        7271       -4100.       1001.       1620.      -115.2       1013.      -1543.
        7272       -5041.       1433.       2054.      -72.31       771.2      -1535.
        7273       -4297.       882.7       2025.       60.62       631.3      -1409.
        7274       -3960.       953.0       2010.       116.1       524.2      -1493.
        7275       -4559.       632.9       1537.       6.163       744.3      -1446.
        7276       -4618.       840.1       1880.       59.38       563.8      -1385.
        7277       -4491.       1021.       2144.       74.16       508.3      -1405.
        7278       -4633.       1299.       1983.       20.73       503.6      -1415.
        7279       -4763.       859.6       2032.       29.47       440.9      -1406.
        7280       -4876.       1096.       2427.       95.08       349.2      -1547.
        7281       -4551.       777.9       1528.       36.95       613.4      -1446.
        7282       -4994.       904.3       2047.       8.502       326.4      -1445.
        7283       -5151.       942.4       2345.     -8.0606E-02   324.5      -1440.
        7284       -5333.       983.5       2120.       44.61       174.5      -1511.
        7285       -4862.       1130.       2189.       37.31       167.8      -1585.
        7286       -4642.       1063.       2522.       61.18       299.1      -1599.
        7287       -4836.       860.0       1770.      -35.64       291.2      -1561.
        7288       -5091.       787.9       2015.       2.302       123.4      -1543.
        7289        1592.       699.3      -5013.      -1462.       657.4       46.74
        7290       -609.4       565.4       14.04      -528.4       1256.      -726.9
        7291       -5077.       788.0       2030.       6.130       172.0      -1459.
        7292       -4921.       889.2       1789.      -1.089       379.5      -1411.
        7293       -4394.       960.7       1709.       40.65       682.5      -1406.
        7294       -4219.       723.6       1588.      -52.22       912.2      -1355.
        7295        1826.       763.8      -4993.      -1504.       539.2       40.97
        7296        1134.       754.7      -3389.      -1202.       1131.      -137.6
        7297       -1012.       955.6      -151.4      -628.9       1473.      -836.7
        7298       -2532.       551.2       1272.      -132.5       1104.      -1102.
        7299       -2479.       725.1       720.8      -234.2       1307.      -1151.
        7300       -5090.       904.9       2330.       39.91       331.7      -1516.
        7301        1330.       837.9      -2961.      -1186.       978.4      -49.07
        7302        432.8       820.8      -1328.      -915.9       1261.      -396.5
        7303       -4984.       663.6       1410.      -36.05       560.1      -1598.
        7304       -4411.       1190.       2031.      -86.67       895.1      -1527.
        7305        1453.       1679.      -2930.      -1419.       1271.      -311.8
        7306        919.1       1233.      -3266.      -1391.       1403.      -331.6
        7307        716.8       679.1      -2520.      -1301.       1440.      -344.3
        7308        686.4       1146.      -2190.      -1197.       1459.      -372.5
        7309        1356.       747.0      -2125.      -1115.       918.4      -85.71
        7310        802.3       555.6      -1810.      -965.4       963.4      -143.0
        7311       -3017.       759.5       1572.      -112.3       1146.      -1228.
        7312        746.4       784.4      -1834.      -996.0       1310.      -353.9
        7313       -2767.       676.4       1184.      -66.76       1048.      -1139.
        7314       -4841.       878.4       2348.       38.22       410.4      -1429.
        7315       -1681.       714.3       1164.      -162.4       910.3      -1080.
        7316        1627.       758.4      -4487.      -1460.       768.6       57.25
        7317        1729.       773.7      -4092.      -1350.       809.0       97.88
        7318       -4035.       1051.       1888.       21.18       755.1      -1384.
        7319        1587.       554.5      -3233.      -1256.       810.2       27.87
        7320       -3890.       815.1       1756.      -7.674       826.3      -1360.
        7321       -1226.       702.7       440.2      -374.7       1158.      -872.3
        7322       -705.3       594.6       405.0      -436.5       1122.      -781.1
        7323       -1542.       780.8       1048.      -200.4       1025.      -994.0
        7324        925.7       595.5      -1903.      -964.0       1082.      -157.4
        7325       -2021.       759.8       1655.      -144.0       1029.      -1062.
        7326       -1507.       809.5       925.7      -281.0       1130.      -957.8
        7327       -1040.      -550.7      -5875.      -1576.      -17.06      -82.69
        7328       -855.1      -719.9      -5437.      -1590.      -135.4      -215.9
        7329       -778.7      -587.8      -5276.      -1477.      -156.4      -320.3
        7330       -817.5      -454.2      -4817.      -1460.      -160.4      -321.9
        7331       -639.7      -710.2      -4785.      -1468.      -245.6      -380.4
        7332       -1251.      -602.0      -4732.      -1369.      -284.4      -465.8
        7333       -958.3      -638.6      -4060.      -1319.      -289.5      -575.5
        7334       -1494.      -1107.      -4553.      -1234.      -393.2      -681.1
        7335       -1476.      -648.1      -4103.      -1182.      -393.6      -728.1
        7336       -1545.      -515.2      -3180.      -1161.      -377.6      -756.9
        7337       -2341.      -826.1      -3537.      -1101.      -348.2      -849.9
        7338       -2346.      -712.3      -2960.      -1004.      -375.7      -922.9
        7339       -3122.      -784.0      -2915.      -989.5      -365.1      -986.1
        7340       -2992.      -901.9      -2472.      -863.9      -343.0      -1066.
        7341       -2988.      -689.7      -2095.      -815.5      -353.3      -1093.
        7342       -3439.      -990.2      -1912.      -732.5      -372.1      -1116.
        7343       -3845.      -682.1      -1434.      -706.7      -375.0      -1167.
        7344       -4089.      -815.6      -1593.      -660.0      -335.7      -1217.
        7345       -4481.      -695.6      -1410.      -546.9      -271.1      -1284.
        7346       -4625.      -651.3      -1227.      -514.8      -274.6      -1351.
        7347       -4709.      -694.2      -1026.      -463.1      -241.5      -1410.
        7348       -4906.      -616.4      -821.8      -374.1      -176.3      -1480.
        7349       -4579.      -612.7      -935.8      -212.8      -110.7      -1451.
        7350       -5474.      -614.7      -486.0      -182.3      -120.0      -1558.
        7351       -5700.      -613.7      -1181.      -88.94      -13.81      -1594.
        7352        2082.       1110.      -3982.      -1364.       83.70      -1.118
        7353        2117.       1001.      -4199.      -1337.       142.7       15.73
        7354        2053.       868.8      -4284.      -1385.       96.05      -61.40
        7355        3686.       1478.      -4209.      -1376.       149.3      -68.62
        7356        2828.       1171.      -3432.      -1326.       182.5      -73.57
        7357        1899.       1021.      -3297.      -1285.       213.4      -136.6
        7358        2320.       1173.      -2807.      -1221.       221.2      -198.3
        7359        1158.       704.7      -2866.      -1199.       288.6      -241.5
        7360        964.8       815.4      -2307.      -1148.       259.4      -276.0
        7361        747.3       575.5      -2397.      -1086.       247.7      -293.1
        7362        1210.       926.2      -1520.      -1071.       165.4      -415.9
        7363        667.7       855.1      -1391.      -985.8       168.2      -504.9
        7364        287.8       965.7      -870.0      -897.9       180.0      -549.2
        7365       -2.557       876.0      -457.0      -811.7       187.4      -618.0
        7366       -127.3       916.5      -470.4      -744.6       184.1      -745.8
        7367       -604.9       739.2      -54.50      -666.2       154.1      -844.7
        7368       -955.6       820.2       416.1      -584.7       169.8      -903.1
        7369       -1270.       964.8       520.2      -524.6       184.7      -986.4
        7370       -1936.       609.0       340.7      -422.9       231.4      -1036.
        7371       -1678.       862.8       1054.      -338.0       293.5      -1076.
        7372       -2184.       841.1       1018.      -331.5       298.2      -1153.
        7373       -2509.       910.0       1122.      -232.5       298.2      -1198.
        7374       -2804.       1125.       1524.      -230.4       298.2      -1230.
        7375       -3491.       1040.       1895.      -161.6       265.2      -1262.
        7376       -3695.       946.7       1843.      -108.0       194.0      -1280.
        7377       -3421.       1084.       1805.      -88.96       184.2      -1316.
        7378       -4186.       833.9       1798.      -46.46       180.6      -1346.
        7379       -3738.       917.8       1550.      -60.01       139.2      -1375.
        7380       -4485.       755.1       1984.      -18.50       86.96      -1321.
        7381        1636.       1714.      -3802.      -1017.       125.4      -67.43
        7382        1644.       1647.      -3961.      -1039.       250.7      -117.3
        7383        1469.       1753.      -3970.      -1039.       330.5      -163.9
        7384        1642.       2022.      -3604.      -1082.       427.5      -219.5
        7385        1354.       1689.      -3826.      -1121.       532.3      -227.3
        7386        1323.       1770.      -3807.      -1127.       626.0      -296.6
        7387        1498.       2275.      -3515.      -1140.       731.1      -346.8
        7388        1190.       2020.      -3335.      -1133.       832.4      -318.6
        7389        1066.       2181.      -3406.      -1124.       941.7      -357.1
        7390        1201.       2391.      -2986.      -1118.       995.9      -386.5
        7391        873.4       2722.      -2818.      -1086.       1016.      -459.5
        7392        782.8       2875.      -2704.      -1085.       1139.      -510.3
        7393        664.7       2607.      -2452.      -1093.       1234.      -586.1
        7394        566.4       2872.      -2234.      -1098.       1300.      -621.1
        7395        333.3       3058.      -2134.      -1077.       1340.      -676.4
        7396        114.5       2961.      -1741.      -1017.       1403.      -711.6
        7397       -128.5       2343.      -1698.      -1005.       1459.      -730.4
        7398       -374.6       2582.      -1663.      -993.7       1479.      -762.3
        7399       -650.8       2817.      -1421.      -939.4       1470.      -813.4
        7400       -509.7       3195.      -818.1      -889.5       1499.      -885.6
        7401       -897.5       2387.      -821.0      -867.9       1500.      -885.8
        7402       -1081.       2955.      -563.2      -827.8       1510.      -875.9
        7403       -1212.       3082.      -204.7      -790.2       1509.      -925.3
        7404       -1503.       2819.       48.18      -761.8       1481.      -939.6
        7405       -1738.       2856.       68.72      -741.2       1430.      -980.4
        7406       -1977.       2939.       266.9      -633.2       1383.      -989.0
        7407       -2098.       2679.       681.9      -589.4       1308.      -1032.
        7408       -2504.       2460.       868.9      -587.7       1224.      -1074.
        7409       -2591.       2100.       465.9      -553.3       1162.      -1092.
        7410       -2853.       2367.       803.0      -504.3       1126.      -1089.
        7411       -3026.       2502.       1396.      -450.3       1042.      -1081.
        7412       -2976.       2225.       1507.      -403.3       982.3      -1092.
        7413       -3094.       2365.       1255.      -333.1       896.2      -1100.
        7414       -3228.       2319.       1449.      -274.1       748.2      -1086.
        7415       -3391.       2105.       1597.      -273.0       626.1      -1074.
        7416       -3511.       2093.       1684.      -248.2       524.5      -1097.
        7417       -3514.       1683.       1591.      -195.5       444.7      -1136.
        7418       -3695.       1847.       1661.      -131.6       360.6      -1144.
        7419       -3697.       1204.       1113.      -112.8       228.2      -1089.
        7420       -3496.       2001.       1419.      -82.21       118.0      -1052.
        7421       -4714.      -1515.      -3094.      -698.1      -350.3      -1108.
        7422       -5882.      -1743.      -2621.      -521.4      -219.6      -1237.
        7423       -5893.      -1549.      -2269.      -262.4      -98.36      -1315.
        7424      -1.2240E+04  -1554.     -1.2567E+04  -23.16       27.63      -68.66
        7425      -1.0196E+04  -1309.     -1.1028E+04  -523.7      -11.47       17.42
        7426       -3833.      -1403.      -3950.      -904.3      -349.8      -910.5
        7427      -1.0181E+04  -1368.     -1.1315E+04  -594.7       39.07       64.46
        7428       -8791.      -1365.      -9866.      -717.9       1.408       75.05
        7429       -3378.      -1635.      -4856.      -1019.      -374.6      -757.0
        7430       -9472.      -1554.     -1.1016E+04  -751.9       62.70       19.50
        7431       -8184.      -1372.      -9886.      -818.1       23.12      -19.78
        7432       -2980.      -1648.      -5923.      -1180.      -276.6      -588.3
        7433       -7909.      -1534.     -1.0274E+04  -891.7      -87.73      -39.43
        7434       -7383.      -1515.     -1.0324E+04  -1027.      -143.4      -45.16
        7435       -5245.      -1440.      -8187.      -1088.      -109.6      -42.13
        7436       -2036.      -1525.      -6221.      -1314.      -184.1      -332.6
        7437       -4660.      -1525.      -7891.      -1132.      -15.61      -35.46
        7438       -3025.      -1473.      -7323.      -1173.       25.92      -34.02
        7439       -6249.      -1310.      -1895.      -199.3       2.989      -1302.
        7440       -6401.      -1414.      -2426.      -381.8      -173.5      -1350.
        7441       -5883.      -1648.      -2326.      -389.9      -176.4      -1301.
        7442       -5624.      -1530.      -2631.      -558.1      -280.1      -1143.
        7443       -4658.      -1406.      -2753.      -644.8      -303.5      -1090.
        7444       -5654.      -1704.      -3504.      -676.3      -318.9      -1098.
        7445       -4831.      -1611.      -3736.      -774.2      -380.9      -1065.
        7446       -5046.      -1863.      -4621.      -840.6      -355.5      -1002.
        7447       -4267.      -1605.      -5091.      -931.3      -370.3      -882.3
        7448       -3909.      -1749.      -5128.      -983.4      -358.3      -807.6
        7449       -2926.      -1415.      -4971.      -1057.      -367.7      -694.1
        7450       -3136.      -1676.      -5658.      -1140.      -410.6      -653.9
        7451       -2320.      -1506.      -5388.      -1249.      -228.2      -411.4
        7452       -2611.      -1816.      -6617.      -1292.      -248.5      -424.2
        7453       -1868.      -1248.      -5714.      -1260.      -168.8      -358.8
        7454       -1994.      -1576.      -6988.      -1319.      -48.82      -205.2
        7455      -1.1838E+04  -1455.     -1.1945E+04  -108.2      -77.39      -250.2
        7456      -1.1233E+04  -1236.     -1.1069E+04  -32.13      -98.37      -273.1
        7457      -1.2387E+04  -1498.     -1.2007E+04   8.422      -64.43      -461.0
        7458      -1.1061E+04  -1284.     -1.0363E+04   11.16       19.28      -529.7
        7459      -1.1394E+04  -1477.     -1.0705E+04  -20.80      -84.89      -596.7
        7460      -1.0729E+04  -1449.      -9794.      -1.136      -89.16      -671.0
        7461      -1.0991E+04  -1488.      -9578.      -52.70       29.68      -775.0
        7462       -9969.      -1418.      -8402.      -28.38       16.99      -819.5
        7463       -9551.      -1362.      -7561.      -30.55      -62.33      -868.7
        7464       -9141.      -1330.      -6913.       5.689      -108.2      -1034.
        7465       -8454.      -1617.      -5587.      -26.52      -108.2      -1104.
        7466       -7897.      -1523.      -4892.      -22.15       26.87      -1157.
        7467      -1.0751E+04  -1388.     -1.1508E+04  -377.1      -80.14       4.567
        7468      -1.3206E+04  -1760.     -1.3600E+04  -289.8      -61.94       21.69
        7469      -1.2044E+04  -1509.     -1.2206E+04  -64.68       55.23      -151.2
        7470      -1.0591E+04  -1409.     -1.1659E+04  -576.3      -85.91      -42.59
        7471       -4844.      -1487.      -8289.      -1095.      -73.66      -117.5
        7472       -3486.      -1517.      -7656.      -1194.      0.9346      -167.8
        7473       -9156.      -1520.      -6339.      -70.52      -55.82      -1088.
        7474       -9577.      -1196.      -8157.      -141.3      -113.8      -774.0
        7475       -5740.      -1641.      -4397.      -688.0      -271.6      -967.8
        7476       -5269.      -1573.      -5576.      -838.6      -390.0      -761.2
        7477       -4483.      -1483.      -5444.      -885.9      -359.1      -731.2
        7478       -7592.      -1278.      -9785.      -908.9      -114.8      -139.0
        7479       -3607.      -1473.      -6889.      -1138.      -217.5      -311.4
        7480       -2342.      -1838.      -7535.      -1377.      -6.882      -82.24
        7481      -1.1926E+04  -1582.     -1.1835E+04  -186.2      -107.9      -242.9
        7482       -4808.      -1191.      -4259.      -763.1      -385.1      -878.3
        7483      -1.2373E+04  -1667.     -1.2169E+04  -89.31      -62.32      -380.9
        7484      -1.1118E+04  -1401.     -1.0410E+04  -118.5      -47.75      -631.6
        7485       -7622.      -1480.      -3965.      -290.3      -150.7      -1104.
        7486       -8511.      -1405.      -4807.      -118.1      -67.45      -1132.
        7487      -1.1485E+04  -1371.     -1.1545E+04  -148.4       17.94      -56.61
        7488      -1.0427E+04  -1129.     -1.0517E+04  -269.8      -21.89      -33.41
        7489       -9569.      -1618.     -1.1287E+04  -764.3       104.5      -156.7
        7490       -4521.      -1466.      -6560.      -969.1      -336.8      -617.3
        7491      -1.0256E+04  -1432.     -1.1681E+04  -734.8       17.27      -105.7
        7492       -4098.      -1569.      -6616.      -1005.      -332.4      -581.4
        7493       -8176.      -1472.      -9770.      -772.4      -6.764      -182.3
        7494       -7130.      -1442.      -9772.      -944.6      -197.3      -49.26
        7495       -5886.      -1491.      -8918.      -1031.      -165.8      -79.30
        7496       -3602.      -1369.      -6231.      -1076.      -181.5      -436.0
        7497       -7267.      -1568.      -3225.      -26.16       41.24      -1181.
        7498       -9480.      -1318.      -7577.      -122.1      -134.6      -881.8
        7499      -1.0917E+04  -1423.      -9515.      -111.8      -65.38      -735.6
        7500      -1.0881E+04  -1334.      -9892.      -96.71      -53.32      -664.5
        7501      -1.1883E+04  -1456.     -1.1535E+04  -93.77      -121.6      -573.2
        7502       -5406.      -1486.      -5121.      -844.1      -388.4      -797.1
        7503       -4509.      -1561.      -6086.      -930.2      -356.1      -749.6
        7504       -3764.      -1619.      -6933.      -1102.      -312.8      -534.2
        7505       -3697.      -1567.      -7108.      -1113.      -258.3      -402.1
        7506       -3635.      -1479.      -6851.      -1152.      -50.80      -298.5
        7507      -1.0987E+04  -1314.     -1.0858E+04  -138.8       7.794      -348.5
        7508       -6063.      -1666.      -5047.      -715.4      -360.8      -922.1
        7509       -5976.      -1822.      -4269.      -627.3      -260.2      -975.6
        7510       -5963.      -1543.      -3739.      -628.8      -273.8      -994.0
        7511       -6836.      -1662.      -4083.      -575.9      -196.6      -1039.
        7512       -6781.      -1510.      -3907.      -425.3      -190.6      -1110.
        7513       -6429.      -1469.      -3547.      -370.0      -146.6      -1127.
        7514       -8915.      -1223.      -6804.      -93.68      -117.9      -989.0
        7515       -7073.      -1491.      -3812.      -309.3      -110.2      -1150.
        7516       -7311.      -1528.      -3459.      -148.2      -22.10      -1135.
        7517      -1.1385E+04  -1479.     -1.1868E+04  -275.2      -52.48      -85.28
        7518      -1.0850E+04  -1374.     -1.1317E+04  -359.2      -128.1      -88.94
        7519      -1.0460E+04  -1341.     -1.1354E+04  -691.3      -173.6      -325.9
        7520       -5324.      -1508.      -7370.      -953.6      -297.8      -553.7
        7521       -5761.      -1288.      -8619.      -993.9      -205.1      -211.7
        7522       -9461.      -1167.      -8168.      -256.3      -116.8      -796.5
        7523       -6195.      -1479.      -6114.      -769.3      -338.7      -717.2
        7524       -8186.      -1451.      -9917.      -824.0      -132.2      -300.4
        7525       -4948.      -1616.      -8493.      -1073.      -49.92      -205.9
        7526      -1.1638E+04  -1339.     -1.1920E+04  -195.2      -84.40      -145.6
        7527      -1.1422E+04  -1529.     -1.1205E+04  -298.7      -67.08      -411.6
        7528       -6354.      -1685.      -6866.      -837.7      -351.0      -747.9
        7529       -9716.      -1493.      -8016.      -211.2      -75.97      -884.4
        7530       -7410.      -1315.      -4485.      -203.5      -173.5      -1084.
        7531      -1.1561E+04  -1587.     -1.2449E+04  -534.8      -89.75      -69.65
        7532      -1.1752E+04  -1704.     -1.1004E+04  -211.1      -55.94      -687.8
        7533       -8049.      -1683.      -5524.      -533.3      -195.5      -1017.
        7534       -6700.      -1474.      -4948.      -605.1      -235.6      -948.6
        7535       -7005.      -1606.      -9352.      -952.3      -271.5      -355.2
        7536       -9967.      -1193.      -8965.      -259.6      -152.2      -692.7
        7537      -1.1546E+04  -1388.     -1.1695E+04  -287.3      -65.06      -94.40
        7538       -5404.      -1548.      -6475.      -897.4      -346.8      -742.6
        7539       -9710.      -1316.     -1.1074E+04  -745.1      -198.8      -354.6
        7540       -5377.      -1548.      -6916.      -933.6      -299.5      -579.6
        7541       -4647.      -1522.      -7684.      -1059.      -212.9      -451.4
        7542       -7718.      -1536.      -9975.      -898.8      -133.8      -320.1
        7543       -5153.      -1720.      -8774.      -1079.      -191.1      -313.0
        7544       -4413.      -1344.      -7349.      -1026.      -178.9      -403.2
        7545       -9572.      -1588.      -7412.      -209.4      -125.8      -952.9
        7546       -6363.      -1503.      -5429.      -671.5      -247.8      -941.4
        7547      -1.0805E+04  -1427.     -1.0056E+04  -250.9      -84.12      -679.7
        7548       -6602.      -1507.      -6281.      -717.6      -334.8      -822.1
        7549      -1.2032E+04  -1437.     -1.1611E+04  -279.6      -141.2      -528.8
        7550       -5641.      -1510.      -7046.      -943.8      -322.5      -652.1
        7551       -5147.      -1390.      -7713.      -999.3      -332.9      -491.7
        7552      -1.2155E+04  -1708.     -1.1874E+04  -276.1       73.49      -327.6
        7553       -6919.      -1439.      -5919.      -722.8      -334.2      -883.0
        7554       -7571.      -1703.      -5531.      -616.7      -200.5      -981.7
        7555       -7305.      -1474.      -4984.      -449.3      -253.8      -1041.
        7556       -9574.      -1564.      -6690.      -172.1      -153.2      -1018.
        7557       -7819.      -1590.      -5054.      -401.8      -210.4      -1055.
        7558      -1.1758E+04  -1712.     -1.1733E+04  -353.5      -56.74      -365.9
        7559      -1.1796E+04  -1490.     -1.2313E+04  -352.8      -23.38      -228.8
        7560       -8971.      -1566.     -1.0024E+04  -756.5      -353.2      -324.4
        7561       -9965.      -1395.     -1.1051E+04  -630.1      -261.8      -407.9
        7562      -1.0940E+04  -1680.      -9690.      -348.5      -148.8      -657.6
        7563       -8083.      -1502.      -9412.      -829.1      -301.5      -281.3
        7564       -6704.      -1412.      -6921.      -798.4      -236.8      -750.9
        7565       -6547.      -1682.      -9488.      -989.5      -95.48      -342.8
        7566      -1.1215E+04  -1654.     -1.1035E+04  -464.7      -87.27      -534.2
        7567       -9906.      -1444.      -8699.      -333.3      -103.1      -786.4
        7568       -8438.      -1574.      -5984.      -390.4      -160.4      -979.6
        7569       -8683.      -1434.      -6784.      -371.3      -202.2      -958.3
        7570      -1.1906E+04  -1663.     -1.1803E+04  -275.9       7.400      -318.9
        7571      -1.1131E+04  -1361.     -1.1576E+04  -467.9       63.72      -252.3
        7572       -6932.      -1308.      -8720.      -863.5      -209.0      -308.2
        7573       -6610.      -1006.      -4657.      -478.0      -307.5      -1012.
        7574       -6829.      -1395.      -7664.      -858.3      -216.8      -739.0
        7575      -1.2268E+04  -1785.     -1.2954E+04  -561.3      -104.0      -268.8
        7576       -7652.      -1430.      -6505.      -672.9      -267.3      -875.2
        7577       -5946.      -1397.      -8471.      -949.6      -145.1      -333.5
        7578      -1.0678E+04  -1475.      -9551.      -421.4      -97.59      -676.3
        7579       -6249.      -1402.      -7805.      -902.9      -239.1      -566.5
        7580       -6047.      -1507.      -7807.      -932.8      -277.1      -530.0
        7581       -6040.      -1478.      -8552.      -976.1      -255.2      -420.6
        7582       -5513.      -1387.      -8077.      -966.6      -108.7      -410.8
        7583      -1.0304E+04  -1644.      -8573.      -349.5      -93.75      -849.2
        7584       -7269.      -1461.      -6983.      -723.6      -229.3      -780.9
        7585      -1.0338E+04  -1094.      -9796.      -484.1      -128.1      -730.4
        7586       -7491.      -1483.      -7410.      -764.4      -227.3      -757.0
        7587      -1.0170E+04  -927.3     -1.0017E+04  -386.2       39.29      -401.9
        7588       -6751.      -1529.      -8017.      -912.0      -236.6      -620.4
        7589       -5904.      -1375.      -7828.      -967.3      -305.3      -449.3
        7590      -1.2032E+04  -1566.     -1.2467E+04  -305.2      -62.51      -320.6
        7591       -7685.      -1466.      -6796.      -665.5      -243.9      -841.1
        7592       -7426.      -1184.      -5180.      -437.5      -178.6      -1004.
        7593       -8110.      -1388.      -5844.      -322.7      -193.0      -974.0
        7594      -1.0825E+04  -1543.     -1.0948E+04  -477.4      -85.22      -499.0
        7595       -9117.      -1266.      -8495.      -456.3      -138.0      -680.0
        7596       -9066.      -1373.     -1.0221E+04  -618.9      -275.4      -367.2
        7597       -7963.      -1212.      -6407.      -454.3      -222.6      -908.3
        7598       -9644.      -1768.      -8133.      -425.3      -85.79      -841.3
        7599       -7690.      -1262.      -8273.      -764.2      -177.2      -639.7
        7600       -9924.      -1131.     -1.0773E+04  -460.5       104.6      -436.3
        7601       -9712.      -1338.      -8593.      -400.9      -179.9      -716.0
        7602       -6792.      -1212.      -8550.      -856.1      -234.7      -514.6
        7603       -7355.      -1722.      -8967.      -860.0      -212.7      -527.9
        7604      -1.0425E+04  -1171.     -1.1103E+04  -558.4      -48.28      -476.4
        7605       -9338.      -1485.      -7425.      -341.0      -235.7      -885.2
        7606       -7882.      -1331.      -9369.      -831.0      -338.9      -357.2
        7607      -1.0372E+04  -1583.     -1.1198E+04  -650.4      -217.0      -431.9
        7608       -8708.      -1478.      -8296.      -631.8      -223.9      -760.9
        7609       -7008.      -1533.      -9265.      -919.8      -55.01      -352.0
        7610      -1.1253E+04  -1545.     -1.0603E+04  -366.6      -192.3      -671.2
        7611       -6971.      -1586.      -9100.      -885.3      -212.4      -377.6
        7612       -7228.      -1465.      -9170.      -863.4      -207.9      -333.7
        7613       -8779.      -1491.      -7168.      -348.6      -252.9      -808.4
        7614       -8714.      -1521.      -8782.      -683.1      -222.9      -725.4
        7615      -1.1154E+04  -1607.     -1.0737E+04  -440.1      -223.0      -550.0
        7616       -7555.      -1466.      -7993.      -749.2      -188.4      -675.4
        7617      -1.2408E+04  -1965.     -1.2638E+04  -462.8      -30.94      -442.7
        7618       -7488.      -1357.      -8554.      -839.1      -224.0      -559.0
        7619       -6897.      -1380.      -8696.      -869.3      -271.4      -445.9
        7620      -1.1173E+04  -1248.     -1.1099E+04  -425.5      -43.88      -381.6
        7621       -8391.      -1414.      -7557.      -601.6      -210.8      -784.0
        7622       -8456.      -1337.      -6956.      -410.9      -292.7      -767.2
        7623       -7386.      -1471.      -8571.      -801.2      -251.3      -485.2
        7624       -7906.      -1399.      -9096.      -784.6      -288.8      -477.4
        7625       -9584.      -1440.     -1.0057E+04  -535.0      -8.523      -551.1
        7626       -7659.      -1528.      -9436.      -885.9      -238.0      -391.5
        7627       -8156.      -1327.      -7988.      -593.1      -283.6      -650.8
        7628      -1.0135E+04  -1349.      -9744.      -486.5      -290.0      -614.7
        7629      -1.1262E+04  -1692.     -1.1839E+04  -509.4      -1.499      -451.8
        7630       -9462.      -1493.      -9068.      -450.3      -331.1      -680.2
        7631       -8422.      -1442.      -8973.      -665.8      -264.3      -627.9
        7632       -9942.      -1541.     -1.0624E+04  -559.7      -104.4      -459.3
        7633      -1.0196E+04  -1700.      -9388.      -412.8      -322.3      -669.7
        7634      -1.0308E+04  -1374.     -1.0223E+04  -526.0      -191.0      -471.8
        7635       -9800.      -1452.      -9425.      -477.1      -359.5      -659.6
        7636       -9527.      -1465.     -1.0254E+04  -616.3      -171.6      -405.5
        7637       -9321.      -1469.      -9132.      -500.9      -373.6      -643.6
        7638       -9584.      -1608.      -9087.      -458.9      -329.2      -701.7
        7639       -8965.      -1424.      -8458.      -486.2      -381.8      -688.1
        7640      -1.0102E+04  -1505.     -1.0192E+04  -527.0      -165.6      -478.8
        7641       -9800.      -1453.      -9633.      -495.2      -277.8      -510.4
        7642       -8657.      -1348.      -9865.      -721.8      -249.3      -511.5
        7643       -7406.      -1356.      -8454.      -781.1      -259.7      -512.2
        7644       -8675.      -1342.      -9938.      -664.0      -304.8      -428.4
        7645       -9500.      -1474.      -9551.      -509.3      -227.0      -514.7
        7646      -1.0256E+04  -1394.     -1.0244E+04  -479.6      -203.3      -465.2
        7647       -8338.      -1359.      -9093.      -678.4      -268.1      -555.5
        7648       -9017.      -1407.      -9720.      -656.8      -251.7      -467.6
        7649       -7080.      -1773.      -2470.      -93.20      -26.37      -1369.
        7650       -7346.      -1350.      -4799.      -297.4      -171.8      -1080.
        7651       -7062.      -1474.      -5693.      -531.7      -225.5      -963.9
        7652       -8673.      -1293.      -9874.      -802.2      -356.3      -401.0
        7653       -7942.      -1494.      -9341.      -861.0      -282.7      -466.9
        7654       -9636.      -1443.      -9989.      -517.3      -107.6      -445.3
        7655       -9055.      -1445.      -7568.      -435.9      -170.4      -878.7
        7656      -1.0275E+04  -1650.      -9144.      -366.4      -197.3      -773.3
        7657       -9743.      -1481.     -1.0166E+04  -530.5      -160.7      -456.0
        7658       -8534.      -1192.      -7158.      -604.1      -188.5      -866.3
        7659       -8732.      -1507.      -7193.      -411.1      -272.4      -756.5
        7660       -8719.      -1510.      -7416.      -470.9      -174.2      -793.9
        7661       -9112.      -1474.      -9188.      -535.8      -307.0      -618.0
        7662       -9360.      -1438.      -9718.      -564.9      -226.9      -507.9
        7663       -8796.      -1352.      -9118.      -611.9      -285.4      -589.3
        7664       -7179.      -1488.      -8777.      -825.8      -206.7      -472.3
        7665       -7991.      -1397.      -8684.      -723.6      -270.5      -587.2
        7666       -8317.      -1401.      -7532.      -497.8      -281.2      -709.1
        7667       -8412.      -1424.      -7918.      -511.3      -317.2      -723.2
        7668       -2292.       699.1       379.5      -365.1       31.98      -1237.
        7669       -1909.       792.0      -329.0      -578.9      -39.92      -1036.
        7670       -896.8       668.2      -1064.      -789.2      -113.2      -781.1
        7671       -555.3       914.1      -1196.      -862.4      -98.82      -679.7
        7672       -19.24       710.9      -2023.      -1121.      -115.9      -452.8
        7673        1421.       992.4      -4051.      -1351.       10.63      -5.195
        7674        544.0       430.6      -4740.      -1476.      -75.41      -105.7
        7675        579.8       725.2      -3971.      -1484.      -56.53      -146.1
        7676        643.6       699.6      -3883.      -1439.      -115.2      -155.0
        7677        419.9       485.2      -3642.      -1362.      -220.4      -408.6
        7678        1035.       863.2      -3646.      -1319.       7.564      -246.0
        7679       -833.5       607.8      -3190.      -1297.      -136.4      -364.4
        7680        842.5       929.6      -2068.      -1192.       53.76      -307.8
        7681       -83.61       565.9      -3481.      -1214.      -218.4      -512.3
        7682       -53.11       336.3      -3238.      -1343.      -283.3      -506.7
        7683        510.0       554.2      -2930.      -1234.       82.61      -280.3
        7684        184.0       596.7      -2886.      -1167.      -14.23      -360.9
        7685       -708.9       187.9      -2899.      -1173.      -328.5      -615.2
        7686        67.54       775.4      -1794.      -1020.      -94.68      -542.5
        7687       -1077.       259.1      -2686.      -1099.      -306.4      -650.3
        7688       -364.0       415.2      -1665.      -921.3      -92.29      -629.1
        7689       -1512.      -86.69      -2426.      -1061.      -302.0      -775.9
        7690       -1732.      -38.09      -1906.      -900.9      -315.0      -906.5
        7691       -1597.       284.2      -1896.      -926.6      -325.9      -809.1
        7692       -1389.       686.5      -308.2      -661.9      -72.04      -981.0
        7693       -2442.       160.7      -1342.      -758.7      -254.2      -1042.
        7694       -2475.       88.71      -1779.      -830.8      -283.6      -983.1
        7695       -866.7       890.3      -570.4      -697.7      -83.75      -905.6
        7696       -2548.       325.0      -1041.      -679.2      -256.8      -1075.
        7697       -2553.       753.2      -167.9      -376.7      -11.04      -1167.
        7698       -2755.       335.4      -577.2      -601.9      -262.5      -1144.
        7699       -1998.       651.1      -106.9      -438.1      -24.83      -1097.
        7700       -2811.       358.8      -156.4      -567.9      -245.4      -1236.
        7701       -3381.       733.0       963.9      -269.6       5.696      -1361.
        7702       -2920.       732.8       401.6      -422.7      -178.4      -1321.
        7703       -3246.       874.3       666.0      -138.3      -10.97      -1349.
        7704       -4582.       283.8       319.7      -255.8      -189.4      -1400.
        7705       -4030.       687.5       537.8      -173.6      -87.50      -1454.
        7706       -4146.       876.8       1213.      -42.19       31.08      -1347.
        7707       -4938.       170.5     -0.7141      -131.7      -85.29      -1537.
        7708        1346.       947.4      -4329.      -1359.       43.21      -31.81
        7709       -4202.       879.3       1167.      -106.5       15.33      -1383.
        7710        1570.       1030.      -3036.      -1273.       13.58      -263.2
        7711       -4064.       828.0       870.9      -102.8      -28.50      -1333.
        7712        458.1       405.0      -4328.      -1550.      -7.008      -5.634
        7713       -4285.       572.2       942.8      -68.98       5.588      -1536.
        7714       -3326.       1027.       1032.      -127.0       9.133      -1392.
        7715       -2633.       887.2       913.4      -294.9       202.3      -1232.
        7716       -3678.       595.0       247.2      -314.8      -171.8      -1410.
        7717       -3606.       571.3       112.0      -414.7      -187.6      -1411.
        7718        61.05       351.1      -4097.      -1499.      -256.4      -357.8
        7719        1371.       971.4      -4105.      -1395.       103.3      -60.74
        7720        92.23       542.0      -3075.      -1236.      -126.0      -349.6
        7721        205.7       744.5      -2827.      -1181.      -83.47      -387.9
        7722       -2661.       786.2       650.8      -302.0       69.18      -1289.
        7723       -3862.       1353.       2011.      -142.2       372.2      -1378.
        7724       -3788.       1242.       1329.      -228.5       577.4      -1433.
        7725       -3585.       844.8       1900.      -130.3       312.1      -1290.
        7726       -3425.       1784.       1256.      -467.4       993.7      -1335.
        7727       -3057.       1539.       1029.      -507.0       1053.      -1333.
        7728       -2038.       1569.       664.5      -681.6       1335.      -1208.
        7729       -1763.       1777.       266.3      -801.2       1418.      -1124.
        7730       -804.5       1918.      -750.5      -986.0       1510.      -1026.
        7731       -268.6       910.2       358.0      -624.7       436.6      -796.5
        7732       -599.8       1864.      -777.1      -1012.       1511.      -955.5
        7733       -48.09       861.8      -53.13      -716.4       478.1      -719.9
        7734        79.03       1772.      -2009.      -1228.       1312.      -716.4
        7735        702.9       849.3      -1298.      -1003.       458.6      -417.3
        7736        871.6       1033.      -2084.      -1069.       1177.      -553.9
        7737        1017.       1857.      -3327.      -1363.       1041.      -505.2
        7738        1391.       1442.      -3418.      -1345.       945.4      -422.9
        7739        1532.       1214.      -4062.      -1443.       560.9      -248.7
        7740        1824.       930.5      -4319.      -1395.       151.5      -125.6
        7741        2185.       935.5      -4527.      -1429.       86.90      -36.87
        7742        2098.       971.1      -4451.      -1404.       104.4      -79.33
        7743        2121.       912.8      -4722.      -1411.       104.0      -58.39
        7744        1846.       810.2      -4237.      -1395.       296.1      -145.5
        7745        2022.       854.8      -4309.      -1362.       188.0      -47.06
        7746        1581.       952.8      -4124.      -1408.       468.1      -225.2
        7747        1941.       1010.      -4291.      -1373.       474.6      -195.8
        7748        2368.       838.5      -4341.      -1377.       250.5      -93.88
        7749        2134.       869.3      -4275.      -1380.       249.0      -100.7
        7750        1502.       1220.      -4280.      -1377.       327.3      -178.0
        7751        2207.       814.3      -4602.      -1351.       383.6      -161.2
        7752        2447.       931.8      -3887.      -1346.       355.1      -152.6
        7753        1370.       1154.      -3961.      -1442.       642.2      -298.0
        7754        1712.       844.4      -3682.      -1262.       397.2      -85.05
        7755        2023.       848.1      -4216.      -1342.       457.2      -177.9
        7756        1587.       927.0      -4012.      -1309.       530.1      -208.3
        7757        1336.       1141.      -3904.      -1440.       741.4      -359.9
        7758        1859.       952.2      -3779.      -1293.       645.8      -238.8
        7759        1891.       770.1      -3954.      -1276.       551.5      -151.8
        7760        1288.       1401.      -3493.      -1388.       828.7      -375.9
        7761        1575.       1125.      -3583.      -1321.       797.9      -313.3
        7762        1771.       964.9      -3144.      -1255.       446.6      -152.8
        7763        1475.       1343.      -3240.      -1240.       972.2      -418.5
        7764        1458.       859.6      -3358.      -1240.       848.7      -319.4
        7765        1777.       964.3      -3135.      -1226.       599.3      -204.4
        7766        1746.       891.1      -2811.      -1229.       434.0      -200.4
        7767        1743.       823.9      -3324.      -1237.       640.6      -205.3
        7768        1392.       1157.      -3471.      -1258.       909.9      -380.4
        7769        1553.       974.0      -3073.      -1218.       909.2      -404.8
        7770        1492.       1009.      -3211.      -1229.       786.3      -307.5
        7771        1635.       1003.      -2675.      -1159.       467.5      -266.7
        7772        1237.       1153.      -2649.      -1186.       1117.      -510.6
        7773        1228.       815.4      -2251.      -1122.       522.3      -311.4
        7774        986.0       1843.      -2814.      -1314.       1042.      -508.7
        7775        987.3       906.0      -2350.      -1134.       1146.      -548.1
        7776        1199.       1000.      -2388.      -1099.       940.8      -404.1
        7777        1263.       794.3      -2622.      -1097.       759.0      -344.6
        7778        1191.       856.6      -2244.      -1069.       1002.      -446.3
        7779        1308.       739.1      -2076.      -1066.       555.7      -305.7
        7780        397.4       1472.      -1932.      -1077.       1264.      -626.3
        7781        818.1       1046.      -2011.      -1005.       1151.      -542.7
        7782        1102.       754.3      -1992.      -1012.       648.0      -362.5
        7783        1217.       823.1      -1774.      -1051.       461.6      -387.0
        7784        966.5       760.2      -2155.      -1006.       827.6      -403.4
        7785        1044.       749.5      -2217.      -1017.       1010.      -469.2
        7786        454.3       999.4      -1520.      -944.6       1065.      -501.3
        7787        969.2       731.2      -1526.      -954.0       718.5      -412.7
        7788        105.6       1698.      -1560.      -1116.       1430.      -776.8
        7789        777.2       977.2      -1062.      -911.0       469.9      -500.5
        7790        676.4       950.6      -1180.      -909.2       870.6      -515.7
        7791        90.50       1791.      -1882.      -1163.       1386.      -762.5
        7792        74.98       1757.      -1192.      -1058.       1446.      -821.1
        7793        352.7       1051.      -927.1      -875.5       1188.      -647.0
        7794        255.7       801.1      -804.5      -844.7       865.2      -570.7
        7795        429.2       539.3      -665.3      -842.1       510.4      -546.3
        7796       -424.7       1596.      -1135.      -1014.       1471.      -877.8
        7797        10.60       1190.      -740.9      -854.3       1253.      -727.2
        7798        166.3       790.8      -348.8      -790.0       507.9      -613.7
        7799       -654.4       1347.      -373.3      -840.7       1408.      -879.1
        7800       -193.4       970.5      -221.8      -744.0       1164.      -735.8
        7801       -180.4       757.1       24.21      -697.5       748.7      -723.0
        7802        194.0       686.1      -241.7      -770.6       912.7      -654.8
        7803       -354.1       1225.      -550.5      -842.2       1342.      -796.3
        7804       -454.4       1049.      -272.3      -766.3       1271.      -811.1
        7805       -469.2       844.8      -47.21      -700.6       984.5      -763.0
        7806       -993.2       1904.      -109.8      -890.2       1507.      -1052.
        7807       -770.7       657.9       447.7      -540.2       456.5      -850.3
        7808       -557.1       741.4       84.81      -617.9       697.4      -799.8
        7809       -556.8       896.9       167.7      -653.4       894.6      -778.2
        7810       -1060.       1815.      -407.1      -933.3       1525.      -1030.
        7811       -1643.       1569.       145.6      -846.5       1456.      -1086.
        7812       -972.1       1271.       168.1      -764.8       1337.      -938.8
        7813       -939.2       620.1       313.5      -585.6       758.3      -829.5
        7814       -1222.       1331.       197.5      -728.0       1307.      -982.9
        7815       -1362.       971.9       486.3      -616.5       1129.      -954.0
        7816       -1031.       1088.       851.8      -485.3       482.2      -918.8
        7817       -1848.       1625.       387.6      -710.5       1359.      -1161.
        7818       -1687.       1198.       689.7      -604.9       1218.      -1040.
        7819       -1646.       634.3       779.4      -468.9       770.4      -995.8
        7820       -954.9       938.1       742.3      -529.8       829.0      -907.2
        7821       -1609.       1095.       483.4      -674.7       1286.      -1012.
        7822       -2050.       962.0       1073.      -494.9       1069.      -1010.
        7823       -1776.       936.7       1091.      -513.5       1036.      -990.9
        7824       -1466.       794.5       1116.      -416.5       537.1      -991.8
        7825       -2358.       1052.       879.3      -535.1       1172.      -1126.
        7826       -1659.       730.0       938.5      -364.4       595.9      -1040.
        7827       -2127.       730.0       943.6      -378.1       885.3      -1043.
        7828       -2497.       1393.       770.7      -652.5       1284.      -1261.
        7829       -2765.       1612.       854.8      -577.1       1177.      -1293.
        7830       -2568.       1228.       1105.      -474.0       1087.      -1150.
        7831       -2269.       936.6       1331.      -349.1       774.5      -1096.
        7832       -1904.       873.2       1446.      -339.1       509.4      -1101.
        7833       -2892.       1412.       890.7      -540.1       1145.      -1327.
        7834       -2944.       899.5       1214.      -360.8       916.3      -1142.
        7835       -2870.       727.6       1359.      -307.9       704.3      -1139.
        7836       -3238.       1013.       1457.      -399.0       941.1      -1261.
        7837       -3210.       841.9       1602.      -328.0       823.8      -1220.
        7838       -3162.       731.0       1582.      -259.8       675.1      -1186.
        7839       -2294.       960.1       1574.      -260.4       492.8      -1168.
        7840       -3079.       885.3       1451.      -327.1       879.4      -1170.
        7841       -3215.       907.8       1216.      -428.1       1026.      -1237.
        7842       -3477.       779.6       1581.      -295.8       754.0      -1254.
        7843       -3169.       823.1       1964.      -266.6       673.2      -1232.
        7844       -3305.       608.4       1400.      -209.2       483.5      -1231.
        7845       -3661.       1046.       1439.      -281.0       738.1      -1338.
        7846       -3216.       812.7       1801.      -164.4       513.2      -1265.
        7847       -3619.       825.7       1590.      -261.3       685.5      -1277.
        7848       -3650.       1318.       1489.      -399.5       866.8      -1348.
        7849       -3598.       1003.       1251.      -297.0       677.6      -1380.
        7850       -3775.       863.0       1843.      -196.4       513.9      -1269.
        7851       -3622.       982.7       1745.      -135.3       382.8      -1295.
        7852       -3758.       1172.       1400.      -243.9       661.5      -1371.
        7853       -4076.       816.4       1838.      -198.2       505.2      -1291.
        7854       -3924.       678.1       1643.      -160.8       429.1      -1285.
        7855       -4028.       978.0       1787.      -177.1       440.6      -1367.
        7856       -4152.       801.5       1948.      -172.4       398.0      -1302.
        7857       -4303.       777.9       2100.      -69.92       254.2      -1324.
        7858       -3871.       894.6       1672.      -205.4       581.2      -1374.
        7859       -4123.       844.2       2012.      -135.8       253.5      -1381.
        7860       -3802.       978.1       1650.      -128.2       260.3      -1332.
        7861       -4593.       755.3       2094.       11.62       121.9      -1369.
        7862       -4299.       1094.       2127.       17.48       132.1      -1371.
        7863       -3808.       947.2       2101.      -36.32       234.6      -1389.
        7864       -3837.       1076.       2179.      -121.2       238.6      -1379.
        7865       -4202.       1064.       1423.      -99.71       122.7      -1384.
        7866        1625.       970.6      -4058.      -1390.       587.2      -264.7
        7867       -666.7       1040.      -41.50      -726.2       1204.      -829.9
        7868       -4520.       762.6       1688.      -32.56       131.3      -1355.
        7869       -4321.       808.4       2052.      -160.7       345.4      -1359.
        7870       -3702.       1099.       1544.      -233.2       607.3      -1296.
        7871       -3514.       986.4       1437.      -327.1       818.7      -1298.
        7872        1681.       1084.      -4137.      -1443.       520.0      -217.2
        7873        1235.       1441.      -2640.      -1199.       1025.      -460.9
        7874       -793.2       1252.      -219.3      -807.3       1391.      -922.9
        7875       -2258.       952.0       986.4      -452.0       1033.      -1046.
        7876       -2133.       1074.       797.3      -580.5       1224.      -1104.
        7877       -4138.       957.7       2155.      -85.15       258.8      -1342.
        7878        1240.       1015.      -2729.      -1178.       892.7      -385.0
        7879        375.6       1109.      -1373.      -961.5       1194.      -629.8
        7880       -3977.       1310.       1667.      -193.7       481.7      -1422.
        7881       -3610.       1264.       1726.      -326.7       769.1      -1356.
        7882        1067.       1670.      -3054.      -1288.       1120.      -556.8
        7883        646.9       1264.      -2696.      -1309.       1237.      -614.6
        7884        489.0       1348.      -2423.      -1262.       1311.      -660.2
        7885        373.3       1302.      -2015.      -1169.       1336.      -672.4
        7886        1167.       835.5      -2203.      -1053.       813.6      -365.4
        7887        820.3       805.1      -1861.      -960.1       912.4      -445.2
        7888       -3003.       1106.       1214.      -431.4       1053.      -1203.
        7889        488.9       1239.      -1565.      -1003.       1217.      -628.3
        7890       -2597.       953.6       1081.      -400.1       974.1      -1101.
        7891       -4023.       816.8       2176.      -125.8       339.7      -1289.
        7892       -1682.       788.9       894.7      -440.8       832.8      -1022.
        7893        1853.       1132.      -3842.      -1360.       713.4      -282.7
        7894        1571.       846.7      -3522.      -1241.       750.1      -240.5
        7895       -3592.       943.5       1787.      -230.6       624.0      -1259.
        7896        1444.       917.4      -2960.      -1185.       723.1      -295.5
        7897       -3554.       779.4       1806.      -284.5       734.6      -1235.
        7898       -1259.       822.5       368.7      -629.7       1096.      -914.9
        7899       -732.1       826.9       255.3      -656.2       1068.      -842.8
        7900       -1575.       927.5       856.4      -488.3       944.2      -976.6
        7901        718.7       923.3      -2014.      -965.4       1024.      -480.5
        7902       -1984.       824.5       1001.      -438.4       968.9      -991.3
        7903       -1282.       1085.       746.7      -535.3       1059.      -953.2
        7904       -501.4      -286.9      -3925.      -2000.      -11.82      -100.9
        7905       -299.7      -319.2      -3704.      -2028.      -94.25      -295.2
        7906       -1391.      -660.5      -4108.      -1958.      -98.60      -441.4
        7907       -967.6      -570.9      -4586.      -1966.      -146.0      -519.0
        7908       -1214.      -563.6      -4141.      -1914.      -206.2      -611.2
        7909       -753.7      -347.3      -3403.      -1858.      -238.9      -753.0
        7910       -799.7      -174.0      -2962.      -1814.      -215.5      -827.8
        7911       -1331.      -569.0      -3627.      -1738.      -302.5      -983.8
        7912       -1748.      -860.2      -3888.      -1669.      -342.9      -1110.
        7913       -1841.      -682.7      -3234.      -1635.      -292.0      -1151.
        7914       -2124.      -645.7      -2940.      -1569.      -274.8      -1271.
        7915       -2745.      -958.0      -3124.      -1475.      -315.2      -1380.
        7916       -2568.      -587.3      -2642.      -1401.      -311.6      -1425.
        7917       -2978.      -1029.      -2688.      -1297.      -284.5      -1523.
        7918       -2910.      -792.4      -2182.      -1216.      -282.9      -1613.
        7919       -2981.      -1058.      -1977.      -1153.      -312.9      -1603.
        7920       -3402.      -568.7      -1707.      -1067.      -309.0      -1656.
        7921       -3040.      -587.0      -1567.      -991.5      -266.6      -1707.
        7922       -3916.      -483.5      -1436.      -862.5      -223.5      -1808.
        7923       -4415.      -884.5      -1861.      -806.7      -226.7      -1852.
        7924       -4218.      -848.6      -1356.      -690.8      -193.4      -1955.
        7925       -4058.      -581.7      -1370.      -521.1      -131.0      -2005.
        7926       -3783.      -423.6      -1093.      -366.9      -88.91      -1950.
        7927       -4842.      -581.6      -948.3      -287.2      -51.20      -2010.
        7928       -4068.      -144.8      -396.0      -83.70       6.354      -2002.
        7929        1157.       1146.      -3386.      -1374.       30.46      -67.03
        7930        1021.       911.2      -3202.      -1326.       96.93      -133.8
        7931        404.0       783.5      -3307.      -1369.       62.09      -228.2
        7932       -545.6       821.5      -3632.      -1361.       103.1      -319.9
        7933       -233.2       613.6      -2930.      -1369.       152.0      -441.3
        7934        38.65       876.3      -2315.      -1303.       166.0      -514.6
        7935       -162.6       964.5      -2930.      -1274.       149.3      -583.4
        7936        96.76       899.8      -2492.      -1330.       209.6      -599.3
        7937        297.5       833.4      -1979.      -1299.       177.3      -628.9
        7938        225.9       899.9      -1951.      -1244.       158.5      -687.5
        7939        77.46       1035.      -1600.      -1254.       87.55      -820.7
        7940       -173.5       970.1      -1512.      -1217.       90.88      -888.3
        7941       -233.5       880.7      -1170.      -1177.       99.68      -924.2
        7942       -257.1       1160.      -763.9      -1095.       102.5      -936.9
        7943       -520.4       1154.      -587.7      -1053.       106.8      -1054.
        7944       -730.8       1079.      -641.2      -998.7       90.42      -1131.
        7945       -1015.       820.6      -227.2      -942.5       119.5      -1160.
        7946       -1639.       1017.      -350.8      -886.8       130.9      -1196.
        7947       -1498.       1050.       31.53      -790.8       149.0      -1242.
        7948       -1800.       925.8       116.3      -695.1       181.9      -1269.
        7949       -2268.       923.8       87.76      -674.0       212.4      -1314.
        7950       -2091.       946.1       366.7      -629.2       202.9      -1338.
        7951       -2638.       821.3       603.8      -567.9       209.6      -1339.
        7952       -2393.       856.4      -135.7      -489.8       168.1      -1313.
        7953       -2925.       951.9       684.3      -362.2       101.6      -1363.
        7954       -3091.       1035.       671.5      -290.9       124.2      -1361.
        7955       -3312.       706.2       685.0      -239.4       130.7      -1374.
        7956       -3131.       975.8       1108.      -144.5       85.19      -1353.
        7957       -3386.       1033.       644.5      -65.67       72.29      -1350.
        7958        988.7       1204.      -2888.      -715.4       142.1      -110.5
        7959        1193.       1171.      -2956.      -711.5       226.9      -202.6
        7960        1225.       1497.      -2845.      -720.1       327.5      -293.1
        7961        870.2       1343.      -3030.      -759.0       405.1      -346.2
        7962        1267.       1750.      -2778.      -778.8       521.0      -400.3
        7963        850.4       1698.      -2756.      -806.0       615.4      -457.2
        7964        808.0       1802.      -2732.      -806.1       667.7      -516.3
        7965        672.1       1960.      -2706.      -807.8       746.2      -553.6
        7966        709.9       2049.      -2492.      -787.7       831.3      -573.8
        7967        803.8       2323.      -2347.      -801.3       889.3      -638.7
        7968        649.5       2547.      -2289.      -812.9       943.2      -670.8
        7969        438.7       2718.      -2241.      -817.1       1013.      -664.4
        7970        331.4       2848.      -1775.      -853.7       1067.      -690.2
        7971        127.7       2794.      -1809.      -857.7       1108.      -754.3
        7972       -79.46       2813.      -1803.      -841.9       1159.      -792.5
        7973       -160.7       3017.      -1628.      -814.5       1198.      -737.3
        7974       -459.9       3216.      -1656.      -834.8       1218.      -730.9
        7975       -505.3       3066.      -1166.      -817.0       1253.      -767.6
        7976       -612.5       2913.      -1131.      -797.2       1250.      -797.9
        7977       -957.8       2948.      -1075.      -790.9       1262.      -794.9
        7978       -754.4       3077.      -694.1      -772.3       1283.      -784.7
        7979       -1002.       3093.      -529.7      -800.0       1275.      -784.6
        7980       -1191.       2839.      -443.9      -809.2       1245.      -772.1
        7981       -1514.       2800.      -390.4      -797.4       1223.      -768.7
        7982       -1613.       2750.      -184.9      -769.7       1205.      -757.5
        7983       -1520.       2893.       18.58      -748.3       1175.      -776.2
        7984       -1769.       2666.       193.9      -726.5       1140.      -790.1
        7985       -2019.       2528.       241.5      -707.1       1079.      -803.3
        7986       -2064.       2640.       441.7      -652.0       999.6      -785.4
        7987       -2231.       2255.       129.5      -641.8       963.5      -797.2
        7988       -2404.       2148.       509.6      -611.6       941.6      -767.8
        7989       -2721.       2190.       688.2      -564.4       839.3      -754.4
        7990       -2349.       1969.       1059.      -482.5       766.5      -758.6
        7991       -2508.       1950.       867.7      -441.4       676.2      -743.0
        7992       -2758.       1756.       1020.      -420.4       589.5      -744.3
        7993       -2637.       1825.       1084.      -339.3       513.3      -759.8
        7994       -2984.       1531.       940.4      -262.1       426.2      -781.6
        7995       -2948.       1618.       1189.      -194.2       313.3      -776.9
        7996       -2945.       1428.       1226.      -146.9       181.9      -759.7
        7997       -3011.       1260.       1159.      -86.91       93.11      -759.9
        7998       -4117.      -1407.      -2602.      -1088.      -284.8      -1590.
        7999       -4563.      -1261.      -1997.      -733.2      -218.2      -1741.
        8000       -4852.      -1373.      -1983.      -361.2      -48.55      -1837.
        8001       -8379.      -1251.      -8547.      -150.6       29.26      -157.8
        8002       -8188.      -1390.      -8859.      -736.4       12.39       5.270
        8003       -3209.      -1306.      -3160.      -1296.      -321.0      -1377.
        8004       -7588.      -1476.      -8307.      -882.6       16.40      -24.57
        8005       -6105.      -1209.      -7047.      -931.3      -65.23      -52.94
        8006       -2774.      -1426.      -3953.      -1504.      -294.3      -1121.
        8007       -7069.      -1446.      -8411.      -1087.       14.46      -72.21
        8008       -5953.      -1261.      -7532.      -1170.       10.11      -114.2
        8009       -2311.      -1556.      -4500.      -1687.      -242.1      -798.4
        8010       -5241.      -1195.      -6599.      -1232.      -120.0      -134.3
        8011       -5300.      -1279.      -7454.      -1449.      -89.64      -147.7
        8012       -4289.      -1288.      -6860.      -1571.      -91.11      -79.90
        8013       -1683.      -1353.      -4909.      -1854.      -170.9      -535.2
        8014       -3606.      -1409.      -6671.      -1662.      -14.88      -82.41
        8015       -2802.      -1344.      -6163.      -1711.       22.18      -86.96
        8016       -4628.      -1089.      -1631.      -311.0      -14.86      -1863.
        8017       -4951.      -1018.      -1976.      -523.7      -162.4      -1826.
        8018       -4648.      -1357.      -1909.      -606.0      -170.8      -1800.
        8019       -4583.      -1362.      -2117.      -822.0      -205.3      -1697.
        8020       -3817.      -1250.      -2228.      -989.0      -243.6      -1632.
        8021       -4811.      -1641.      -2856.      -1000.      -305.1      -1629.
        8022       -4077.      -1458.      -3093.      -1152.      -300.4      -1518.
        8023       -3913.      -1797.      -3448.      -1248.      -291.8      -1398.
        8024       -3410.      -1343.      -4029.      -1372.      -342.9      -1278.
        8025       -3022.      -1525.      -4047.      -1446.      -301.7      -1204.
        8026       -2398.      -1307.      -4036.      -1582.      -322.5      -1031.
        8027       -2721.      -1699.      -5101.      -1639.      -385.4      -959.9
        8028       -2028.      -1290.      -4279.      -1765.      -186.1      -706.4
        8029       -2194.      -1681.      -5458.      -1823.      -205.1      -645.7
        8030       -1495.      -1139.      -4519.      -1787.      -158.3      -501.2
        8031       -1741.      -1252.      -5250.      -1856.      -59.03      -269.3
        8032       -8407.      -1307.      -8730.      -145.9      -70.34      -337.6
        8033       -7644.      -1058.      -7653.      -123.1      -93.12      -441.6
        8034       -8761.      -1157.      -8551.      -77.50       55.52      -562.6
        8035       -8659.      -1425.      -8136.      -81.51       14.98      -783.1
        8036       -8809.      -1258.      -8091.      -36.47      -122.8      -866.0
        8037       -7844.      -1275.      -7021.      -58.28      -117.9      -981.4
        8038       -8294.      -1323.      -7132.      -133.6       25.74      -1104.
        8039       -7075.      -1218.      -5815.      -117.2       48.21      -1184.
        8040       -6741.      -1227.      -5325.      -125.1      -28.88      -1240.
        8041       -6650.      -981.6      -4967.      -96.47      -61.26      -1409.
        8042       -7560.      -1335.      -4857.      -31.79      -121.2      -1569.
        8043       -6667.      -1394.      -3849.      -38.35      -15.51      -1696.
        8044       -7638.      -1346.      -8265.      -631.5      -16.37      -66.07
        8045      -1.0954E+04  -1751.     -1.1150E+04  -439.0       3.458      -81.68
        8046       -9389.      -1649.      -9442.      -118.6       50.26      -246.1
        8047       -7188.      -1184.      -7971.      -871.4      -140.0      -35.36
        8048       -4024.      -1467.      -6935.      -1610.      -73.07      -212.1
        8049       -2419.      -1265.      -5539.      -1730.      -19.27      -261.0
        8050       -6957.      -1445.      -4453.      -176.3      -99.97      -1540.
        8051       -7458.      -1250.      -6232.      -272.5      -42.02      -1139.
        8052       -4555.      -1505.      -3493.      -1007.      -221.5      -1445.
        8053       -4566.      -1565.      -5012.      -1267.      -352.5      -1162.
        8054       -3601.      -1369.      -4271.      -1327.      -301.6      -1123.
        8055       -6397.      -1591.      -8557.      -1265.      -89.51      -249.0
        8056       -2564.      -1301.      -5253.      -1639.      -173.6      -475.9
        8057       -1587.      -1379.      -5436.      -1895.      -10.89      -110.1
        8058       -8160.      -1182.      -8027.      -265.0      -164.2      -330.8
        8059       -4151.      -1331.      -3805.      -1179.      -360.9      -1275.
        8060       -8880.      -1387.      -8508.      -209.0       72.54      -540.2
        8061       -8262.      -1476.      -7858.      -199.9      -164.7      -900.4
        8062       -5894.      -1476.      -2933.      -496.9      -139.2      -1637.
        8063       -6996.      -1535.      -4304.      -213.0      -132.5      -1654.
        8064       -8116.      -1129.      -8068.      -254.4       49.47      -106.7
        8065       -7590.      -1189.      -7570.      -285.7       30.36      -107.5
        8066       -7292.      -1464.      -8604.      -1018.       96.45      -201.5
        8067       -3541.      -1320.      -5112.      -1456.      -312.4      -957.7
        8068       -7009.      -1207.      -7742.      -971.4      -85.38      -99.82
        8069       -3530.      -1446.      -5491.      -1505.      -331.6      -876.2
        8070       -5885.      -1028.      -7240.      -1157.      -5.440      -231.2
        8071       -5339.      -1271.      -7345.      -1381.      -142.7      -231.2
        8072       -4005.      -1374.      -6614.      -1489.      -136.8      -228.8
        8073       -2569.      -1289.      -4807.      -1580.      -141.2      -659.4
        8074       -6087.      -1339.      -2865.      -100.6       8.847      -1743.
        8075       -8391.      -1467.      -6665.      -209.3      -60.86      -1224.
        8076       -8347.      -1391.      -7296.      -226.5      -6.832      -1074.
        8077       -8481.      -1375.      -7579.      -206.4      -113.3      -989.9
        8078       -8455.      -1144.      -8002.      -209.2      -55.64      -785.6
        8079       -3605.      -935.2      -3343.      -1177.      -383.1      -1236.
        8080       -3632.      -1514.      -5065.      -1398.      -299.2      -1094.
        8081       -3210.      -1271.      -5345.      -1543.      -296.3      -779.1
        8082       -3294.      -1553.      -6018.      -1652.      -202.1      -636.5
        8083       -2992.      -1449.      -5758.      -1653.      -95.08      -437.7
        8084       -9189.      -1563.      -8900.      -222.3      -9.234      -515.0
        8085       -4752.      -1434.      -3937.      -1089.      -322.7      -1375.
        8086       -6036.      -1593.      -4050.      -976.3      -257.3      -1475.
        8087       -5932.      -1542.      -3720.      -936.9      -244.0      -1493.
        8088       -5414.      -1467.      -3297.      -769.1      -140.9      -1541.
        8089       -5600.      -1399.      -3349.      -594.5      -171.7      -1623.
        8090       -5278.      -1354.      -2909.      -594.3      -118.7      -1624.
        8091       -6854.      -1245.      -5181.      -150.7      -62.31      -1421.
        8092       -6588.      -1729.      -3695.      -412.7      -113.4      -1654.
        8093       -5283.      -1297.      -2447.      -237.7      -52.82      -1673.
        8094       -8486.      -1337.      -8940.      -353.4      -15.86      -144.1
        8095       -7345.      -1097.      -8176.      -592.3      -61.15      -162.1
        8096       -8081.      -1231.      -8856.      -967.2      -75.81      -367.5
        8097       -4221.      -1419.      -5762.      -1443.      -269.3      -789.1
        8098       -4331.      -1082.      -6096.      -1455.      -92.22      -327.2
        8099       -7131.      -1074.      -6169.      -286.7      -2.690      -1165.
        8100       -4616.      -1369.      -4354.      -1156.      -309.2      -1198.
        8101       -6080.      -1329.      -7300.      -1194.      -148.5      -391.2
        8102       -3649.      -1402.      -6314.      -1561.      -49.39      -305.4
        8103       -8075.      -1042.      -8306.      -269.6      -20.22      -198.3
        8104       -8962.      -1233.      -8669.      -310.9      -103.0      -531.2
        8105       -5167.      -1564.      -5504.      -1228.      -313.7      -1101.
        8106       -6748.      -1217.      -5488.      -255.0      -34.27      -1252.
        8107       -5983.      -1161.      -3387.      -373.2      -194.1      -1581.
        8108       -7323.      -1117.      -7546.      -733.5      -31.72      -100.2
        8109       -8741.      -1578.      -7954.      -329.5      -71.60      -945.7
        8110       -5884.      -1457.      -3935.      -695.4      -205.2      -1485.
        8111       -5422.      -1559.      -4167.      -923.1      -190.5      -1422.
        8112       -5262.      -1224.      -7472.      -1345.      -220.0      -389.4
        8113       -7913.      -1171.      -6935.      -329.7      -44.29      -1044.
        8114       -8369.      -1278.      -8607.      -398.8      -62.82      -153.2
        8115       -4121.      -1387.      -4864.      -1276.      -289.5      -1116.
        8116       -7831.      -1283.      -8937.      -1031.      -141.0      -413.2
        8117       -4348.      -1418.      -5651.      -1395.      -298.3      -878.1
        8118       -3953.      -1409.      -6127.      -1498.      -197.3      -641.4
        8119       -5938.      -1303.      -7438.      -1268.      -133.7      -406.0
        8120       -3844.      -1426.      -6707.      -1524.      -142.6      -496.4
        8121       -3362.      -1227.      -5710.      -1501.      -153.4      -615.2
        8122       -6991.      -1345.      -5476.      -289.5      -147.2      -1378.
        8123       -5007.      -1236.      -4328.      -935.6      -197.1      -1355.
        8124       -8302.      -1344.      -7578.      -338.5      -86.22      -987.7
        8125       -4902.      -1334.      -4585.      -1121.      -310.7      -1238.
        8126       -7460.      -1030.      -6961.      -326.8      -106.3      -785.7
        8127       -4763.      -1458.      -5820.      -1354.      -287.6      -981.7
        8128       -4128.      -1330.      -6100.      -1509.      -308.2      -724.7
        8129       -9379.      -1421.      -9514.      -375.4       78.28      -479.6
        8130       -5434.      -1441.      -4795.      -1030.      -289.8      -1303.
        8131       -5341.      -1655.      -3969.      -851.6      -224.0      -1445.
        8132       -5387.      -1172.      -3579.      -659.9      -163.4      -1491.
        8133       -6748.      -1331.      -4690.      -351.2      -133.8      -1474.
        8134       -6332.      -1484.      -4014.      -562.6      -150.6      -1515.
        8135       -8344.      -1403.      -8548.      -461.7      -102.7      -472.0
        8136       -8309.      -1194.      -8508.      -522.3      -26.85      -362.5
        8137       -6827.      -1367.      -7672.      -1120.      -292.1      -531.4
        8138       -7036.      -1495.      -7975.      -903.8      -134.5      -532.2
        8139       -8045.      -1455.      -7148.      -406.5      -87.04      -991.0
        8140       -6320.      -1326.      -7501.      -1195.      -291.9      -467.6
        8141       -5496.      -1471.      -5890.      -1168.      -218.3      -1048.
        8142       -4951.      -1460.      -7194.      -1465.      -83.74      -464.9
        8143       -9435.      -1492.      -9360.      -615.6      -116.6      -785.6
        8144       -8204.      -1375.      -7056.      -409.4      -94.99      -1112.
        8145       -6743.      -1365.      -4989.      -558.4      -160.4      -1424.
        8146       -6869.      -1460.      -5023.      -519.3      -158.1      -1350.
        8147       -8072.      -1412.      -7698.      -367.2      -36.47      -430.0
        8148       -8501.      -1177.      -9151.      -720.1       23.89      -388.5
        8149       -5581.      -1349.      -7206.      -1267.      -198.2      -458.9
        8150       -5623.      -1167.      -4249.      -686.0      -270.2      -1407.
        8151       -5030.      -1179.      -5609.      -1215.      -162.7      -1017.
        8152       -7685.      -1264.      -7975.      -821.2      -92.75      -420.3
        8153       -5494.      -1287.      -4845.      -908.3      -219.3      -1265.
        8154       -4837.      -1586.      -7265.      -1379.      -146.4      -457.4
        8155       -8214.      -1344.      -7375.      -475.5       31.74      -979.8
        8156       -4943.      -1409.      -6056.      -1308.      -225.3      -823.2
        8157       -4610.      -1349.      -6244.      -1379.      -238.8      -719.3
        8158       -4257.      -1397.      -6562.      -1443.      -254.3      -646.7
        8159       -4198.      -1289.      -6301.      -1440.      -149.9      -614.7
        8160       -7440.      -1472.      -6158.      -455.1      -123.0      -1247.
        8161       -5892.      -1407.      -5790.      -1064.      -218.5      -1170.
        8162       -7541.      -1096.      -6926.      -589.1      -19.87      -983.3
        8163       -5916.      -1489.      -5691.      -1130.      -215.7      -1075.
        8164       -7115.      -833.2      -7182.      -490.9      -87.94      -550.9
        8165       -5035.      -1325.      -6148.      -1271.      -187.5      -934.0
        8166       -4244.      -1235.      -5529.      -1430.      -238.3      -707.1
        8167       -9473.      -1545.      -9707.      -472.3      -33.03      -428.9
        8168       -6282.      -1282.      -5523.      -981.4      -242.0      -1244.
        8169       -5509.      -1193.      -3680.      -650.8      -147.8      -1426.
        8170       -6461.      -1410.      -4704.      -498.9      -108.9      -1456.
        8171       -8083.      -1455.      -8223.      -665.7      -68.56      -738.5
        8172       -7776.      -1322.      -7187.      -633.0      -104.2      -1000.
        8173       -7030.      -1390.      -7896.      -988.8      -175.8      -574.0
        8174       -6337.      -1286.      -5153.      -707.6      -213.6      -1323.
        8175       -7625.      -1498.      -6425.      -625.6      -75.54      -1292.
        8176       -5730.      -1008.      -6128.      -1142.      -124.4      -948.1
        8177       -6524.      -863.4      -7254.      -721.6       100.6      -518.4
        8178       -8106.      -1301.      -7163.      -562.3      -149.1      -1073.
        8179       -5214.      -1371.      -6700.      -1299.      -218.5      -753.7
        8180       -5917.      -1398.      -7223.      -1237.      -165.2      -803.3
        8181       -8447.      -1424.      -8874.      -756.6       13.35      -537.3
        8182       -6492.      -1274.      -5186.      -567.8      -183.1      -1324.
        8183       -6234.      -1408.      -7408.      -1185.      -302.8      -516.2
        8184       -8106.      -1328.      -8576.      -941.1      -40.67      -559.8
        8185       -6891.      -1359.      -6482.      -938.8      -238.7      -1109.
        8186       -5581.      -1388.      -7172.      -1361.      -86.72      -554.4
        8187       -8975.      -1575.      -8597.      -564.4      -121.6      -914.6
        8188       -5262.      -1443.      -7103.      -1359.      -169.2      -595.2
        8189       -5717.      -1464.      -7309.      -1249.      -225.0      -502.3
        8190       -6967.      -1344.      -5722.      -516.5      -233.5      -1219.
        8191       -6559.      -1358.      -6557.      -1030.      -195.0      -1024.
        8192       -8709.      -1422.      -8541.      -607.7      -114.8      -800.5
        8193       -5592.      -1360.      -5960.      -1107.      -158.1      -987.5
        8194       -9741.      -1732.      -9911.      -647.4      -88.71      -587.8
        8195       -5832.      -1278.      -6488.      -1184.      -136.8      -880.0
        8196       -5849.      -1328.      -7527.      -1327.      -204.6      -681.3
        8197       -9158.      -1337.      -8981.      -633.5      -119.8      -483.9
        8198       -6874.      -1297.      -6038.      -918.8      -239.7      -1183.
        8199       -6755.      -1321.      -5660.      -551.1      -264.7      -1164.
        8200       -5921.      -1420.      -6946.      -1162.      -187.8      -741.4
        8201       -6088.      -1315.      -7054.      -1133.      -245.5      -684.5
        8202       -7446.      -1369.      -7766.      -744.8       89.83      -641.5
        8203       -5780.      -1365.      -7388.      -1296.      -196.4      -587.1
        8204       -6623.      -1252.      -6432.      -954.7      -233.5      -973.6
        8205       -7875.      -1268.      -7595.      -711.9      -232.4      -850.6
        8206       -8264.      -1394.      -8821.      -735.5       23.49      -603.8
        8207       -7783.      -1458.      -7286.      -653.2      -306.2      -955.5
        8208       -6703.      -1485.      -7172.      -1022.      -215.8      -920.3
        8209       -7609.      -1306.      -8176.      -847.4       5.557      -584.8
        8210       -7366.      -1381.      -6627.      -596.8      -312.5      -1004.
        8211       -8208.      -1408.      -8241.      -748.1      -101.8      -710.5
        8212       -7080.      -1271.      -6601.      -698.9      -320.3      -903.0
        8213       -7381.      -1297.      -8006.      -894.7      -93.26      -639.7
        8214       -7556.      -1332.      -7268.      -763.7      -316.0      -899.3
        8215       -7231.      -1571.      -6576.      -702.9      -325.3      -1090.
        8216       -7589.      -1376.      -7126.      -713.7      -393.5      -996.9
        8217       -8044.      -1569.      -8168.      -760.5      -74.77      -714.1
        8218       -7312.      -1370.      -7107.      -743.2      -210.7      -787.4
        8219       -6291.      -1291.      -7145.      -1059.      -225.4      -743.5
        8220       -6137.      -1319.      -6882.      -1120.      -176.2      -826.5
        8221       -6591.      -1268.      -7566.      -1015.      -246.4      -634.4
        8222       -7473.      -1327.      -7440.      -774.8      -213.0      -761.6
        8223       -8070.      -1477.      -8142.      -770.4      -139.7      -670.8
        8224       -6690.      -1317.      -7223.      -1014.      -221.0      -817.4
        8225       -7025.      -1277.      -7595.      -939.1      -195.6      -704.7
        8226       -5110.      -1251.      -1534.      -135.0      -41.16      -1910.
        8227       -5218.      -1108.      -3600.      -504.1      -117.6      -1570.
        8228       -5495.      -1240.      -4406.      -808.6      -258.4      -1371.
        8229       -6628.      -1299.      -7557.      -1123.      -288.2      -547.8
        8230       -5737.      -1375.      -7125.      -1213.      -246.4      -643.9
        8231       -7427.      -1463.      -7692.      -785.3       5.019      -661.3
        8232       -6841.      -1457.      -5835.      -697.9      -151.5      -1334.
        8233       -7749.      -1399.      -6835.      -504.3      -169.6      -1093.
        8234       -7459.      -1368.      -7947.      -791.0      -78.54      -667.7
        8235       -6081.      -1218.      -5478.      -867.0      -241.3      -1244.
        8236       -6967.      -1426.      -5699.      -671.7      -192.3      -1198.
        8237       -6854.      -983.3      -5675.      -732.4      -122.8      -1237.
        8238       -7257.      -1379.      -7307.      -859.6      -256.2      -882.5
        8239       -7223.      -1283.      -7447.      -858.5      -186.9      -748.0
        8240       -6932.      -1260.      -7155.      -932.2      -230.5      -850.3
        8241       -5524.      -1354.      -6848.      -1217.      -155.4      -691.9
        8242       -6302.      -1344.      -6869.      -1060.      -188.1      -898.6
        8243       -7297.      -1196.      -6409.      -758.6      -229.8      -1119.
        8244       -6906.      -1309.      -6609.      -810.0      -281.2      -1028.
        8245       -2393.       769.3      -435.7      -730.4      -25.28      -1500.
        8246       -1735.       892.7      -635.5      -990.9      -59.41      -1369.
        8247       -1118.       802.9      -1342.      -1214.      -132.3      -1186.
        8248       -1033.       947.1      -1363.      -1267.      -144.0      -1087.
        8249       -504.6       913.8      -1976.      -1436.      -143.8      -887.7
        8250        67.64       596.2      -3757.      -1585.      -19.76      -80.48
        8251       -57.65       423.4      -3417.      -1854.      -57.50      -227.5
        8252        141.7       667.4      -3484.      -1810.      -32.30      -347.0
        8253       -122.5       748.6      -2966.      -1730.      -102.1      -474.4
        8254       -856.8       154.2      -3448.      -1760.      -190.6      -703.8
        8255        151.7       1023.      -2913.      -1547.      -54.45      -567.9
        8256       -50.77       565.6      -3344.      -1646.      -146.6      -726.8
        8257       -53.14       805.0      -2206.      -1408.       37.30      -680.3
        8258       -406.5       434.6      -2686.      -1614.      -173.2      -878.4
        8259       -1116.      -116.3      -3135.      -1723.      -189.0      -844.3
        8260       -10.96       898.4      -2559.      -1452.       42.02      -661.6
        8261       -593.4       531.6      -2882.      -1454.      -57.36      -779.7
        8262       -1228.       125.0      -3068.      -1630.      -285.9      -1030.
        8263       -267.0       1226.      -1833.      -1416.      -124.6      -969.7
        8264       -1221.       73.71      -2433.      -1608.      -255.3      -1082.
        8265       -936.3       564.8      -1836.      -1359.      -104.2      -1069.
        8266       -1665.      -194.1      -2488.      -1539.      -240.8      -1221.
        8267       -1955.      -139.1      -2024.      -1402.      -286.3      -1372.
        8268       -1641.       225.4      -1798.      -1418.      -287.9      -1297.
        8269       -1755.       612.0      -934.0      -1081.      -94.12      -1342.
        8270       -1988.       186.2      -1181.      -1205.      -226.2      -1545.
        8271       -2159.      -72.45      -1761.      -1289.      -248.6      -1498.
        8272       -1362.       889.0      -1114.      -1168.      -113.6      -1288.
        8273       -2340.       79.22      -1302.      -1115.      -247.0      -1546.
        8274       -2445.       826.4      -634.3      -788.1      -47.11      -1462.
        8275       -2480.       556.7      -772.2      -1037.      -232.0      -1601.
        8276       -1952.       731.4      -719.4      -874.2      -60.73      -1416.
        8277       -3082.       157.3      -899.1      -930.1      -196.3      -1661.
        8278       -2813.       787.5      -86.43      -574.8      -34.58      -1589.
        8279       -3076.       553.4      -381.5      -815.8      -181.2      -1709.
        8280       -2737.       938.2      -195.0      -438.2      -48.49      -1610.
        8281       -3679.       134.8      -502.5      -463.9      -128.7      -1855.
        8282       -3533.       543.9      -115.1      -365.0      -84.94      -1901.
        8283       -3111.       1016.      -157.0      -66.03       25.14      -1553.
        8284       -4084.       102.1      -503.3      -254.8      -48.37      -1887.
        8285        563.3       941.5      -3530.      -1555.       15.12      -148.9
        8286       -3059.       919.4       350.1      -198.8       3.288      -1585.
        8287        39.14       1081.      -2708.      -1506.      -30.69      -612.7
        8288       -3391.       886.6       331.8      -362.7      -48.47      -1547.
        8289       -317.4       308.9      -3515.      -1915.     -0.5603      -79.80
        8290       -3559.       443.4      -474.7      -72.11       22.76      -1828.
        8291       -2981.       846.4       159.4      -317.3     -0.6547      -1618.
        8292       -2261.       878.7       30.84      -681.9       132.6      -1465.
        8293       -3234.       219.9      -503.7      -630.7      -116.8      -1821.
        8294       -2948.       599.0      -107.0      -697.8      -172.0      -1843.
        8295       -471.7       450.9      -3677.      -1858.      -181.4      -629.4
        8296        576.1       892.9      -3583.      -1554.       68.25      -247.0
        8297       -513.3       615.7      -2793.      -1573.      -107.3      -718.0
        8298       -333.4       659.0      -2723.      -1484.      -84.23      -767.1
        8299       -2655.       778.8      -21.90      -650.9       22.80      -1529.
        8300       -2920.       1439.       1304.      -261.8       313.7      -1121.
        8301       -2872.       1217.       1156.      -394.2       504.8      -1134.
        8302       -2784.       992.1       1555.      -314.2       241.9      -1219.
        8303       -2509.       1499.       863.2      -683.9       826.6      -1081.
        8304       -2389.       1648.       801.5      -737.5       919.3      -1097.
        8305       -1948.       1662.       280.7      -875.3       1157.      -1023.
        8306       -1571.       1876.      -204.1      -897.1       1224.      -991.1
        8307       -897.1       2035.      -752.7      -951.0       1307.      -940.5
        8308       -633.1       960.9       41.69      -892.1       345.4      -979.6
        8309       -623.2       2314.      -792.0      -951.7       1300.      -939.9
        8310       -434.8       916.1      -663.0      -933.0       370.6      -952.2
        8311        175.7       2060.      -1653.      -1026.       1150.      -894.9
        8312        214.4       1063.      -1405.      -1123.       363.2      -781.8
        8313        483.1       1242.      -1734.      -1008.       1033.      -845.8
        8314        946.1       1680.      -2718.      -1081.       901.9      -781.9
        8315        775.1       1573.      -2668.      -1080.       821.4      -701.1
        8316        1296.       1028.      -2971.      -1157.       523.9      -463.5
        8317        965.5       1066.      -3216.      -1069.       189.0      -230.2
        8318        1210.       1024.      -3233.      -1233.       47.45      -112.7
        8319        1341.       866.3      -3303.      -1125.       110.4      -167.5
        8320        1522.       947.2      -3511.      -1171.       80.76      -144.9
        8321        896.3       913.4      -3160.      -1155.       249.7      -286.0
        8322        1508.       971.0      -3508.      -1181.       138.4      -194.4
        8323        1356.       998.7      -3292.      -1117.       422.4      -385.1
        8324        1075.       975.6      -3048.      -1139.       415.3      -384.9
        8325        1010.       1020.      -3158.      -1190.       224.7      -287.6
        8326        1344.       777.1      -3292.      -1152.       201.1      -230.0
        8327        967.7       866.3      -3096.      -1126.       269.5      -317.3
        8328        1477.       765.5      -3294.      -1126.       307.2      -323.0
        8329        936.8       1059.      -3485.      -1173.       262.2      -374.1
        8330        872.5       1274.      -2949.      -1174.       588.5      -517.0
        8331        1131.       891.9      -2894.      -1179.       310.8      -407.2
        8332        1526.       818.3      -3063.      -1139.       370.6      -411.8
        8333        1379.       959.8      -3169.      -1156.       467.8      -446.2
        8334        1137.       1535.      -2735.      -1126.       661.6      -565.4
        8335        1141.       873.2      -3201.      -1142.       521.5      -504.0
        8336        1360.       900.1      -3114.      -1126.       429.5      -436.3
        8337        784.9       1319.      -2736.      -1112.       740.3      -632.4
        8338        1015.       1213.      -2950.      -1113.       692.0      -604.7
        8339        972.9       1070.      -2497.      -1195.       357.8      -483.5
        8340        772.0       1312.      -2535.      -1100.       853.4      -753.4
        8341        1137.       1094.      -2539.      -1111.       759.8      -661.8
        8342        1187.       1000.      -2648.      -1154.       460.7      -529.9
        8343        957.3       1016.      -2472.      -1222.       327.2      -524.3
        8344        1229.       940.0      -2381.      -1127.       538.1      -527.5
        8345        935.6       1234.      -2678.      -1082.       804.8      -664.4
        8346        1100.       698.5      -2483.      -1131.       807.7      -725.5
        8347        1100.       1115.      -2743.      -1110.       671.0      -650.8
        8348        1292.       1038.      -2138.      -1190.       351.7      -576.3
        8349        685.5       1411.      -2048.      -1086.       958.4      -775.2
        8350        819.8       872.9      -2075.      -1148.       379.6      -627.9
        8351        852.7       1536.      -2184.      -1089.       918.3      -764.6
        8352        601.7       1304.      -1926.      -1059.       1004.      -817.9
        8353        734.1       1098.      -2167.      -1058.       826.9      -741.2
        8354        609.7       953.6      -1786.      -1066.       619.9      -681.0
        8355        735.5       1021.      -1925.      -1035.       848.2      -745.9
        8356        762.8       805.8      -1949.      -1101.       430.5      -645.9
        8357        315.0       1617.      -1621.      -1001.       1130.      -869.2
        8358        415.4       1223.      -1571.      -993.4       1032.      -845.3
        8359        608.0       872.9      -1745.      -1046.       543.3      -706.4
        8360        386.6       918.1      -1889.      -1104.       351.6      -760.1
        8361        638.3       966.2      -1668.      -1002.       715.8      -734.5
        8362        569.2       1002.      -1793.      -1011.       876.1      -777.1
        8363        396.6       1127.      -1369.      -967.5       955.6      -816.5
        8364        636.2       783.5      -1599.      -1014.       591.0      -767.9
        8365        29.36       1932.      -1368.      -1006.       1223.      -878.9
        8366        287.7       923.2      -1351.      -1047.       389.3      -800.7
        8367        370.6       1132.      -1020.      -957.9       747.8      -789.8
        8368       -41.84       2077.      -1701.      -1019.       1182.      -884.4
        8369       -261.9       2192.      -1310.      -966.9       1246.      -894.6
        8370       -66.34       1066.      -841.0      -956.8       1060.      -862.6
        8371        53.62       849.3      -886.9      -958.7       749.5      -809.8
        8372        72.40       835.7      -849.2      -1000.       394.5      -825.2
        8373       -360.4       2028.      -1011.      -956.4       1302.      -929.8
        8374       -238.3       1582.      -1003.      -950.0       1134.      -890.3
        8375       -191.6       885.1      -691.7      -966.7       402.9      -871.5
        8376       -781.5       1544.      -448.8      -937.4       1257.      -942.0
        8377       -462.7       1176.      -490.2      -912.5       1065.      -894.9
        8378       -294.2       984.3      -136.8      -889.5       632.0      -888.7
        8379       -106.5       965.3      -535.0      -918.1       809.1      -836.4
        8380       -535.3       1601.      -657.6      -945.7       1215.      -911.2
        8381       -877.0       1222.      -632.2      -934.9       1155.      -924.1
        8382       -771.7       1043.      -446.9      -891.7       861.1      -899.3
        8383       -1321.       1895.      -449.6      -959.8       1287.      -957.6
        8384       -678.0       1011.       99.42      -833.6       364.5      -994.5
        8385       -737.5       896.3      -356.4      -855.0       580.6      -924.7
        8386       -728.6       1051.      -359.0      -875.2       761.6      -913.6
        8387       -940.8       1841.      -480.9      -961.0       1312.      -967.7
        8388       -1425.       1808.      -214.4      -925.2       1260.      -978.2
        8389       -1014.       1449.      -261.0      -923.8       1178.      -961.6
        8390       -1001.       781.4      -145.3      -816.9       627.4      -934.0
        8391       -1425.       1470.      -192.6      -910.4       1158.      -968.6
        8392       -1230.       1242.       133.9      -862.0       1033.      -953.3
        8393       -1169.       908.2       396.1      -819.4       389.9      -1024.
        8394       -1695.       1866.       97.01      -887.1       1190.      -1011.
        8395       -1541.       1386.       394.3      -865.1       1085.      -994.3
        8396       -1497.       857.8       460.0      -788.1       645.0      -1005.
        8397       -863.0       1107.       273.7      -800.9       719.4      -951.1
        8398       -1513.       1362.      -35.36      -887.8       1149.      -996.9
        8399       -1816.       972.6       461.1      -791.4       924.7      -989.4
        8400       -1350.       1113.       433.6      -796.5       915.2      -986.7
        8401       -1292.       971.5       512.2      -746.9       413.8      -1062.
        8402       -1932.       1456.       651.0      -808.6       1021.      -1022.
        8403       -1578.       916.8       505.1      -697.2       468.5      -1070.
        8404       -1742.       882.8       527.7      -704.5       737.6      -1032.
        8405       -1977.       1695.       420.6      -838.4       1083.      -1061.
        8406       -2149.       1870.       465.5      -799.7       1007.      -1039.
        8407       -2282.       1418.       779.4      -779.5       960.7      -1063.
        8408       -1894.       950.9       1030.      -669.5       646.1      -1049.
        8409       -1850.       990.9       792.4      -652.6       408.8      -1147.
        8410       -2419.       1830.       819.1      -760.5       966.9      -1048.
        8411       -2289.       960.3       785.9      -688.5       775.8      -1077.
        8412       -2007.       1103.       878.5      -663.8       577.9      -1087.
        8413       -2602.       1327.       946.2      -661.8       820.3      -1130.
        8414       -2689.       956.8       1053.      -619.9       707.6      -1107.
        8415       -2585.       724.0       930.8      -603.3       553.8      -1127.
        8416       -2148.       1101.       919.8      -620.6       397.4      -1165.
        8417       -2882.       974.2       967.3      -648.7       734.3      -1089.
        8418       -2627.       1260.       1038.      -685.7       838.2      -1105.
        8419       -2762.       968.5       1115.      -559.7       652.1      -1119.
        8420       -2663.       835.5       1326.      -532.2       535.2      -1144.
        8421       -2378.       1168.       1027.      -526.2       403.7      -1199.
        8422       -2852.       1071.       1020.      -520.2       642.6      -1128.
        8423       -2741.       1009.       1075.      -461.9       380.7      -1195.
        8424       -2878.       918.2       1085.      -500.5       583.1      -1128.
        8425       -2277.       1772.       853.3      -598.3       751.0      -1069.
        8426       -3070.       1157.       901.8      -482.5       575.6      -1103.
        8427       -2938.       685.6       954.1      -446.2       419.1      -1130.
        8428       -2986.       1063.       1471.      -402.5       262.2      -1187.
        8429       -2968.       1019.       1028.      -464.9       562.5      -1162.
        8430       -3013.       1085.       1262.      -423.7       426.7      -1146.
        8431       -2875.       853.3       1086.      -370.1       350.3      -1158.
        8432       -3432.       1062.       1148.      -357.9       399.5      -1174.
        8433       -3353.       912.0       1269.      -329.8       330.4      -1157.
        8434       -3293.       912.1       1443.      -236.5       190.5      -1218.
        8435       -2981.       1043.       1054.      -403.4       486.6      -1165.
        8436       -3169.       988.0       1534.      -245.6       220.8      -1197.
        8437       -3148.       847.7       1217.      -204.6       184.4      -1131.
        8438       -3517.       760.9       1347.      -60.90       66.88      -1166.
        8439       -3334.       1013.       1349.      -44.66       99.34      -1233.
        8440       -2919.       911.9       1223.      -159.2       159.2      -1241.
        8441       -3289.       839.4       1313.      -191.5       202.3      -1111.
        8442       -3087.       1054.       993.1      -101.2       85.35      -1117.
        8443        1286.       1301.      -3108.      -1167.       522.4      -488.8
        8444       -773.1       1202.      -208.4      -904.3       1081.      -920.1
        8445       -3362.       915.3       1406.      -103.4       74.98      -1150.
        8446       -3259.       852.9       1254.      -270.2       286.7      -1171.
        8447       -2834.       1199.       1343.      -474.5       509.0      -1129.
        8448       -2710.       1222.       1020.      -594.8       708.3      -1118.
        8449        1357.       943.2      -3139.      -1231.       471.6      -447.2
        8450        745.5       1232.      -2122.      -1083.       906.4      -755.8
        8451       -900.2       1540.      -414.0      -942.7       1229.      -949.2
        8452       -1909.       1042.       738.6      -751.0       894.6      -1012.
        8453       -2024.       1378.       523.3      -845.8       1058.      -997.0
        8454       -2861.       919.9       1396.      -201.3       182.1      -1144.
        8455        808.0       922.0      -2211.      -1088.       782.3      -738.2
        8456        266.4       1338.      -1218.      -972.9       1044.      -837.6
        8457       -3105.       929.5       1092.      -316.5       420.1      -1139.
        8458       -2737.       1365.       836.7      -534.8       666.2      -1105.
        8459        704.6       1756.      -2267.      -1077.       989.8      -771.5
        8460        561.8       1863.      -1937.      -1077.       1058.      -825.6
        8461        439.9       1777.      -1843.      -1060.       1112.      -859.1
        8462        453.7       1732.      -1697.      -1025.       1142.      -865.7
        8463        814.0       968.9      -1936.      -1040.       671.0      -688.0
        8464        656.4       817.4      -1569.      -983.2       794.1      -777.9
        8465       -2144.       1174.       778.8      -739.0       894.8      -1066.
        8466        448.2       1342.      -1436.      -997.0       1076.      -856.1
        8467       -1987.       1099.       541.8      -723.1       835.2      -1050.
        8468       -2820.       938.3       1436.      -271.2       244.6      -1160.
        8469       -1551.       867.9       415.1      -744.6       691.1      -1017.
        8470        1366.       1181.      -2930.      -1149.       618.3      -558.7
        8471        1311.       962.1      -2875.      -1093.       651.4      -566.5
        8472       -2782.       806.7       1031.      -476.3       507.5      -1131.
        8473        1075.       1007.      -2544.      -1104.       590.3      -620.5
        8474       -2769.       798.1       1160.      -532.6       617.6      -1130.
        8475       -1049.       1344.       158.6      -872.8       968.1      -944.8
        8476       -785.5       1254.       69.71      -879.9       942.3      -927.7
        8477       -1653.       928.6       404.9      -780.0       813.7      -994.7
        8478        683.8       905.5      -1613.      -969.9       923.6      -794.7
        8479       -1669.       791.8       576.2      -752.8       822.4      -1006.
        8480       -1252.       1128.       255.5      -811.5       942.2      -965.3
        8481       -311.9      -413.1      -3228.      -2267.      -20.62      -134.4
        8482       -515.4      -41.93      -1936.      -2255.      -57.39      -348.6
        8483       -888.4      -576.9      -2719.      -2312.      -18.35      -474.6
        8484       -543.2      -314.1      -3037.      -2258.      -124.5      -650.9
        8485       -733.0      -582.5      -2672.      -2205.      -137.0      -852.3
        8486       -794.9      -530.8      -2668.      -2204.      -144.2      -985.5
        8487       -860.8      -545.8      -2223.      -2104.      -173.0      -1075.
        8488       -1361.      -566.5      -2723.      -2073.      -185.9      -1170.
        8489       -1431.      -877.8      -3011.      -2032.      -234.8      -1395.
        8490       -1066.      -602.2      -2045.      -1957.      -185.7      -1498.
        8491       -1170.      -472.5      -1742.      -1895.      -188.3      -1589.
        8492       -1379.      -646.9      -1816.      -1832.      -229.7      -1696.
        8493       -1657.      -381.2      -1547.      -1722.      -242.5      -1772.
        8494       -1527.      -313.6      -1015.      -1658.      -213.8      -1871.
        8495       -1779.      -596.7      -1230.      -1562.      -206.7      -1962.
        8496       -2063.      -938.2      -1373.      -1522.      -208.9      -1982.
        8497       -1985.      -301.7      -852.3      -1352.      -223.8      -2035.
        8498       -2209.      -639.4      -1145.      -1254.      -138.3      -2078.
        8499       -2602.      -459.7      -1130.      -1139.      -157.7      -2166.
        8500       -2831.      -391.2      -970.0      -1013.      -162.6      -2197.
        8501       -2586.      -346.7      -437.2      -854.3      -135.7      -2262.
        8502       -2359.      -223.2      -556.5      -638.8      -85.89      -2289.
        8503       -2442.      -368.6      -554.1      -498.1      -68.89      -2279.
        8504       -2702.      -334.0      -631.1      -353.0      -8.645      -2283.
        8505       -2319.      -122.6      -159.1      -103.8       17.54      -2228.
        8506        258.6       1059.      -2268.      -1482.       9.257      -142.2
        8507        290.2       959.3      -2477.      -1495.       62.59      -299.6
        8508        91.34       711.2      -2368.      -1520.       86.00      -395.6
        8509        441.8       733.6      -2290.      -1510.       105.3      -564.0
        8510        282.9       878.6      -2246.      -1498.       115.2      -708.1
        8511        30.46       817.4      -1961.      -1510.       126.7      -828.4
        8512        404.7       971.7      -2101.      -1498.       107.1      -883.4
        8513       -76.64       777.9      -1857.      -1538.       162.2      -916.1
        8514       -359.7       804.8      -1527.      -1526.       150.4      -985.7
        8515       -319.1       1049.      -1210.      -1491.       146.0      -1091.
        8516       -378.2       1186.      -1124.      -1495.       98.71      -1187.
        8517       -349.3       855.6      -1391.      -1499.       101.2      -1252.
        8518       -760.5       638.7      -1299.      -1463.       107.7      -1309.
        8519       -796.9       1024.      -981.8      -1417.       82.68      -1324.
        8520       -465.7       1914.      -431.0      -1377.       106.3      -1389.
        8521       -988.2       845.6      -891.2      -1334.       108.0      -1427.
        8522       -853.8       925.3      -515.4      -1314.       140.5      -1448.
        8523       -1310.       976.9      -567.1      -1228.       137.0      -1471.
        8524       -1309.       982.6      -430.0      -1165.       141.4      -1500.
        8525       -1491.       893.2      -534.6      -1080.       132.1      -1522.
        8526       -1896.       771.0      -523.6      -1031.       167.6      -1551.
        8527       -1614.       843.2      -311.7      -975.5       169.4      -1564.
        8528       -1981.       688.7      -182.3      -857.4       163.7      -1544.
        8529       -2133.       901.4       78.55      -757.5       127.4      -1514.
        8530       -1791.       891.3      -131.5      -626.1       75.47      -1553.
        8531       -2285.       793.4      -45.69      -485.7       107.0      -1516.
        8532       -2067.       783.3       95.18      -389.6       86.94      -1529.
        8533       -1974.       1294.       392.0      -206.1       45.28      -1510.
        8534       -2188.       778.5      -62.17      -89.17       57.62      -1489.
        8535        243.6       860.8      -2176.      -449.2       125.7      -109.5
        8536        446.6       1040.      -2525.      -473.3       224.9      -228.4
        8537        371.3       857.9      -2041.      -490.5       315.0      -370.8
        8538        470.1       1169.      -2483.      -477.9       387.1      -477.3
        8539        353.4       1192.      -1892.      -504.3       502.5      -567.9
        8540        592.2       1589.      -2040.      -523.7       579.6      -623.0
        8541        415.8       1664.      -1856.      -513.9       629.8      -676.3
        8542        429.6       1925.      -2211.      -504.2       692.0      -748.0
        8543        166.7       1622.      -1726.      -516.4       770.6      -808.6
        8544        280.6       1917.      -1536.      -552.8       822.4      -850.6
        8545        261.2       2133.      -1573.      -579.0       847.4      -862.6
        8546        267.5       2341.      -1487.      -582.3       894.7      -862.8
        8547        20.24       2466.      -1375.      -614.6       927.9      -874.1
        8548        104.7       2717.      -1367.      -650.0       952.1      -899.4
        8549       -129.0       2742.      -1301.      -690.0       994.7      -915.0
        8550       -97.89       2473.      -950.5      -668.7       1037.      -854.3
        8551       -345.7       2502.      -1055.      -700.5       1029.      -833.2
        8552       -369.8       2975.      -811.3      -725.2       1044.      -808.3
        8553       -357.3       2844.      -511.1      -732.3       1069.      -789.7
        8554       -387.5       2894.      -532.2      -755.1       1079.      -768.8
        8555       -629.4       2711.      -567.4      -786.6       1077.      -737.1
        8556       -821.7       2504.      -523.4      -810.3       1061.      -702.9
        8557       -844.9       2766.      -385.9      -848.0       1058.      -675.4
        8558       -824.3       2431.      -333.4      -856.8       1054.      -664.1
        8559       -1243.       2481.      -384.8      -839.3       1038.      -654.3
        8560       -1005.       2406.      -29.85      -865.5       1020.      -633.6
        8561       -1239.       2398.      -157.1      -887.2       984.5      -604.3
        8562       -1362.       2347.       102.3      -862.1       937.0      -589.7
        8563       -1337.       2206.       152.9      -830.7       905.2      -556.6
        8564       -1634.       2107.       183.3      -809.8       845.8      -544.4
        8565       -1641.       1741.      -88.80      -779.6       803.0      -551.2
        8566       -1841.       1744.       303.3      -718.9       742.0      -520.8
        8567       -1839.       1756.       275.3      -669.3       658.1      -504.5
        8568       -2337.       954.7       80.73      -602.7       596.4      -518.2
        8569       -1887.       1465.       333.2      -519.0       530.6      -521.9
        8570       -2363.       1195.       278.2      -443.5       446.6      -513.3
        8571       -2152.       966.3       359.1      -369.2       378.3      -501.5
        8572       -2231.       1064.       505.0      -283.3       290.4      -487.9
        8573       -2314.       826.9       313.0      -173.3       201.6      -507.8
        8574       -2214.       1118.       404.6      -74.10       93.88      -487.2
        8575       -2562.      -1258.      -1729.      -1438.      -203.7      -1902.
        8576       -3133.      -985.8      -1350.      -930.1      -240.6      -2122.
        8577       -3040.      -1136.      -1303.      -469.1      -12.07      -2213.
        8578       -5206.      -1057.      -5203.      -209.8       24.98      -179.7
        8579       -5589.      -1407.      -6193.      -898.2       48.76      -120.6
        8580       -1988.      -986.5      -2010.      -1633.      -267.7      -1723.
        8581       -5788.      -1704.      -6103.      -1038.      -83.18      -134.4
        8582       -3631.      -1281.      -4117.      -1140.      -117.3      -172.2
        8583       -1957.      -1203.      -3036.      -1895.      -180.3      -1453.
        8584       -4436.      -1133.      -5410.      -1302.      -10.45      -187.9
        8585       -4048.      -1358.      -4922.      -1433.      -25.16      -219.0
        8586       -560.7      -739.6      -2152.      -2066.      -197.8      -1015.
        8587       -3241.      -850.4      -4528.      -1571.      -93.92      -198.3
        8588       -2960.      -899.8      -4188.      -1779.      -41.13      -169.3
        8589       -2739.      -1162.      -4459.      -1931.      -49.59      -147.8
        8590       -1362.      -1197.      -3414.      -2209.      -127.0      -574.5
        8591       -1764.      -1226.      -4031.      -2046.      -23.40      -142.5
        8592       -1548.      -1285.      -3873.      -2141.       16.63      -171.2
        8593       -3321.      -1052.      -1307.      -373.4      -2.985      -2265.
        8594       -3099.      -906.5      -1168.      -639.9      -84.66      -2202.
        8595       -2641.      -1055.      -923.7      -776.9      -159.3      -2194.
        8596       -3140.      -1114.      -1535.      -1066.      -146.5      -2079.
        8597       -1682.      -1007.      -924.7      -1223.      -174.6      -2019.
        8598       -4346.      -1582.      -2592.      -1273.      -223.6      -2016.
        8599       -2733.      -1116.      -1860.      -1473.      -205.1      -1853.
        8600       -2900.      -1467.      -2629.      -1549.      -231.7      -1734.
        8601       -2367.      -1063.      -2639.      -1733.      -267.5      -1620.
        8602       -2209.      -1332.      -2916.      -1820.      -223.0      -1554.
        8603       -1878.      -1045.      -2799.      -1997.      -247.8      -1308.
        8604       -1819.      -1451.      -3447.      -2031.      -322.9      -1188.
        8605       -1706.      -1264.      -2988.      -2112.      -156.4      -946.9
        8606       -1403.      -1270.      -3725.      -2178.      -123.1      -835.9
        8607       -1289.      -1132.      -3198.      -2171.      -114.2      -623.3
        8608       -899.5      -706.4      -2464.      -2244.      -24.73      -364.8
        8609       -4981.      -958.8      -5407.      -210.5      -63.66      -492.1
        8610       -4274.      -1050.      -4267.      -165.0      -97.06      -605.3
        8611       -4964.      -934.7      -4785.      -166.1       92.50      -680.0
        8612       -5642.      -1091.      -5445.      -175.0       66.95      -929.9
        8613       -5350.      -1097.      -4801.      -127.6      -94.48      -1051.
        8614       -4289.      -1150.      -3827.      -130.8      -176.1      -1218.
        8615       -5458.      -1284.      -4838.      -170.7       16.86      -1340.
        8616       -5068.      -1270.      -4086.      -190.6       54.46      -1440.
        8617       -3925.      -1042.      -3056.      -234.1      -1.245      -1609.
        8618       -4256.      -950.8      -3039.      -198.6       17.28      -1717.
        8619       -4778.      -1292.      -3051.      -101.4      -78.88      -1940.
        8620       -4341.      -1277.      -2139.      -120.5      -108.5      -2075.
        8621       -4939.      -1366.      -5388.      -816.6       84.60      -145.1
        8622       -6088.      -1309.      -6356.      -603.8       50.81      -177.7
        8623       -6881.      -1421.      -7026.      -207.2       74.34      -289.8
        8624       -4378.      -958.6      -4972.      -1019.      -108.2      -171.5
        8625       -2784.      -1322.      -4967.      -2024.      -61.81      -320.5
        8626       -1443.      -1130.      -3674.      -2126.      -23.99      -336.1
        8627       -4248.      -1259.      -2669.      -309.2      -137.8      -1858.
        8628       -5439.      -1281.      -4563.      -341.7       58.69      -1456.
        8629       -2658.      -1189.      -1759.      -1291.      -172.1      -1808.
        8630       -2970.      -1384.      -3193.      -1623.      -273.7      -1509.
        8631       -2568.      -1384.      -2867.      -1678.      -226.7      -1471.
        8632       -4485.      -1626.      -6056.      -1564.      -134.9      -295.3
        8633       -1034.      -978.8      -3079.      -2029.      -92.82      -625.2
        8634       -1349.      -1095.      -3851.      -2269.      -6.083      -162.3
        8635       -4408.      -869.3      -4374.      -303.0      -199.8      -466.5
        8636       -2899.      -1371.      -2664.      -1472.      -302.0      -1644.
        8637       -5764.      -1290.      -5576.      -302.0       109.2      -716.8
        8638       -4259.      -1145.      -4271.      -290.2      -203.1      -1067.
        8639       -4226.      -1451.      -2219.      -680.8      -96.15      -2076.
        8640       -3764.      -1362.      -2005.      -288.9      -138.1      -2014.
        8641       -5226.      -1115.      -5311.      -327.3       70.01      -132.3
        8642       -4969.      -1195.      -5073.      -373.2       22.74      -156.5
        8643       -4942.      -1296.      -5667.      -1262.       40.94      -237.3
        8644       -2150.      -1131.      -3261.      -1860.      -245.8      -1231.
        8645       -4929.      -1019.      -5814.      -1100.      -160.9      -149.3
        8646       -2384.      -1207.      -3808.      -1912.      -306.8      -1129.
        8647       -3841.      -991.8      -4958.      -1466.      -74.74      -279.9
        8648       -2983.      -1143.      -4342.      -1738.      -81.96      -358.9
        8649       -2538.      -1080.      -4293.      -1852.      -52.79      -334.0
        8650       -1273.      -1057.      -2839.      -1967.      -126.1      -855.3
        8651       -3215.      -1151.      -1270.      -193.3      -25.24      -2180.
        8652       -5823.      -1461.      -4539.      -252.4       13.59      -1567.
        8653       -5440.      -1285.      -4712.      -299.0       63.46      -1336.
        8654       -5448.      -1371.      -4719.      -276.1      -117.0      -1215.
        8655       -4968.      -1187.      -4689.      -314.0      -15.25      -957.7
        8656       -2723.      -1331.      -2570.      -1501.      -321.4      -1603.
        8657       -2167.      -1183.      -3059.      -1771.      -223.6      -1361.
        8658       -2394.      -1306.      -3928.      -1937.      -263.7      -993.1
        8659       -2552.      -1482.      -4495.      -2049.      -122.5      -808.8
        8660       -1741.      -1463.      -3775.      -2033.      -132.0      -527.8
        8661       -6054.      -1320.      -5838.      -277.6      -28.06      -590.9
        8662       -2800.      -1194.      -2252.      -1410.      -238.4      -1739.
        8663       -3704.      -1421.      -2428.      -1222.      -226.3      -1895.
        8664       -3371.      -1312.      -1987.      -1135.      -223.7      -1935.
        8665       -3379.      -1188.      -1827.      -959.3      -102.7      -1981.
        8666       -3355.      -1146.      -1887.      -852.3      -141.4      -2002.
        8667       -5345.      -1736.      -2859.      -708.4      -112.0      -2006.
        8668       -4492.      -1208.      -3356.      -221.4      -72.86      -1756.
        8669       -3723.      -1389.      -1872.      -463.4      -41.25      -2059.
        8670       -3573.      -1091.      -1703.      -321.8      -56.12      -2122.
        8671       -5706.      -1180.      -6144.      -388.4      -40.55      -275.5
        8672       -4071.      -931.5      -4673.      -780.1       35.24      -265.2
        8673       -5562.      -1121.      -6088.      -1114.       26.62      -413.6
        8674       -2953.      -1349.      -4161.      -1844.      -253.9      -1004.
        8675       -3078.      -1102.      -4483.      -1828.      -27.00      -432.4
        8676       -4428.      -850.3      -3229.      -393.8       107.5      -1468.
        8677       -3099.      -1232.      -2991.      -1466.      -275.6      -1548.
        8678       -3516.      -1023.      -4534.      -1464.      -182.7      -475.0
        8679       -2338.      -1175.      -4135.      -1947.      -9.473      -444.0
        8680       -5300.      -1078.      -5385.      -308.8       20.18      -271.4
        8681       -5597.      -1051.      -5471.      -339.6      -69.39      -716.9
        8682       -3553.      -1474.      -3829.      -1541.      -264.6      -1422.
        8683       -3561.      -1062.      -2900.      -383.4      -75.49      -1570.
        8684       -4093.      -1190.      -2495.      -505.8      -132.8      -1972.
        8685       -3853.      -812.4      -3755.      -899.2      -9.606      -212.0
        8686       -6244.      -1589.      -5559.      -428.2      -87.41      -1045.
        8687       -3919.      -1263.      -2687.      -872.6      -188.7      -1846.
        8688       -3619.      -1218.      -3027.      -1184.      -176.1      -1809.
        8689       -3522.      -1074.      -4898.      -1695.      -167.0      -435.8
        8690       -5951.      -1157.      -5591.      -364.2       35.37      -1358.
        8691       -5383.      -1042.      -5441.      -579.6      -14.78      -232.6
        8692       -2028.      -1142.      -2384.      -1593.      -226.9      -1376.
        8693       -5147.      -967.7      -5822.      -1271.      -102.5      -447.2
        8694       -2664.      -1225.      -3638.      -1752.      -262.1      -1129.
        8695       -2487.      -1081.      -3855.      -1882.      -183.9      -827.6
        8696       -3967.      -1016.      -4968.      -1569.      -138.3      -488.7
        8697       -2124.      -1096.      -3803.      -1910.      -80.26      -641.5
        8698       -2251.      -1287.      -3967.      -1909.      -137.6      -759.2
        8699       -3685.      -1011.      -2593.      -414.7      -188.0      -1694.
        8700       -3232.      -1130.      -2562.      -1164.      -151.0      -1715.
        8701       -5930.      -1452.      -5387.      -373.7      -50.70      -1204.
        8702       -3306.      -1108.      -2912.      -1448.      -278.2      -1604.
        8703       -4569.      -751.8      -4289.      -372.3      -114.6      -990.6
        8704       -3370.      -1257.      -3952.      -1689.      -222.7      -1279.
        8705       -2900.      -1270.      -4258.      -1905.      -253.1      -917.8
        8706       -6632.      -1463.      -6800.      -433.3       90.77      -594.5
        8707       -3463.      -1327.      -3059.      -1294.      -232.7      -1658.
        8708       -4016.      -1334.      -2730.      -1052.      -239.8      -1818.
        8709       -3575.      -1165.      -2479.      -831.3      -62.39      -1878.
        8710       -4267.      -1071.      -2725.      -447.7      -144.2      -1844.
        8711       -4148.      -1116.      -2568.      -693.8      -78.41      -1864.
        8712       -5821.      -1173.      -6138.      -538.6      -144.7      -540.0
        8713       -4955.      -894.3      -5309.      -772.5       30.01      -415.3
        8714       -3816.      -1122.      -4204.      -1370.      -213.7      -652.9
        8715       -4392.      -1390.      -5222.      -1138.      -58.57      -610.4
        8716       -5870.      -1336.      -5319.      -470.5      -75.14      -1343.
        8717       -4899.      -1591.      -5650.      -1498.      -208.5      -578.9
        8718       -3733.      -1311.      -4010.      -1486.      -210.9      -1316.
        8719       -3055.      -1202.      -4663.      -1869.      -82.95      -589.2
        8720       -5269.      -1037.      -5341.      -607.3      -93.70      -970.4
        8721       -5262.      -1079.      -4415.      -456.1      -140.4      -1441.
        8722       -4325.      -1301.      -3102.      -715.6      -96.99      -1817.
        8723       -4517.      -1160.      -3340.      -549.3      -112.9      -1668.
        8724       -4540.      -1023.      -4591.      -436.2      -73.18      -446.7
        8725       -5468.      -1053.      -5913.      -906.5      -31.82      -383.2
        8726       -3735.      -1435.      -5081.      -1566.      -183.2      -557.0
        8727       -3966.      -1124.      -2894.      -891.9      -201.5      -1726.
        8728       -3263.      -1074.      -3697.      -1510.      -141.8      -1249.
        8729       -4670.      -932.5      -5177.      -1006.      -50.30      -403.0
        8730       -3358.      -1045.      -3003.      -1089.      -164.3      -1645.
        8731       -3201.      -1143.      -4426.      -1723.      -163.0      -573.1
        8732       -4917.      -1047.      -4261.      -506.2       115.2      -1201.
        8733       -3370.      -1174.      -4066.      -1643.      -156.6      -1121.
        8734       -2829.      -1177.      -3851.      -1724.      -176.4      -955.6
        8735       -2729.      -1256.      -4495.      -1811.      -205.6      -800.4
        8736       -2976.      -1241.      -4418.      -1833.      -173.5      -737.5
        8737       -4902.      -1167.      -3678.      -487.5      -160.8      -1574.
        8738       -3860.      -1250.      -3794.      -1335.      -216.2      -1518.
        8739       -4757.      -918.4      -4450.      -569.2       80.01      -1076.
        8740       -4219.      -1413.      -4126.      -1401.      -228.6      -1379.
        8741       -4098.      -770.1      -4259.      -569.9      -233.7      -744.8
        8742       -2824.      -1113.      -3605.      -1570.      -114.6      -1198.
        8743       -3459.      -1217.      -4673.      -1783.      -155.0      -921.6
        8744       -6295.      -1325.      -6436.      -564.6       20.54      -436.3
        8745       -4343.      -1206.      -3891.      -1241.      -196.5      -1590.
        8746       -4367.      -1238.      -2856.      -795.2      -112.5      -1761.
        8747       -4007.      -1144.      -2988.      -608.5      -49.10      -1821.
        8748       -6416.      -1500.      -6562.      -770.8      -65.79      -884.0
        8749       -5149.      -1239.      -4775.      -747.7      -65.90      -1277.
        8750       -4652.      -1124.      -5141.      -1255.      -110.3      -735.6
        8751       -4246.      -1213.      -3518.      -994.2      -174.4      -1660.
        8752       -4451.      -1223.      -3767.      -771.5      -77.82      -1651.
        8753       -3917.      -1065.      -4224.      -1453.      -76.40      -1212.
        8754       -4152.      -700.1      -4445.      -916.2       149.1      -514.6
        8755       -5172.      -1132.      -4418.      -667.4      -114.5      -1390.
        8756       -4330.      -1203.      -5531.      -1651.      -114.2      -945.2
        8757       -4059.      -1287.      -4909.      -1556.      -79.15      -1050.
        8758       -5359.      -1394.      -5713.      -1011.       30.56      -515.6
        8759       -5009.      -1391.      -3967.      -743.9      -152.6      -1672.
        8760       -3897.      -1098.      -4727.      -1489.      -217.1      -705.8
        8761       -5301.      -1124.      -5767.      -1041.       61.18      -546.0
        8762       -4720.      -1240.      -4585.      -1232.      -229.7      -1394.
        8763       -4024.      -1360.      -5218.      -1728.      -161.3      -703.5
        8764       -7521.      -1561.      -7045.      -760.2      -98.15      -1131.
        8765       -3239.      -1208.      -4628.      -1758.      -176.6      -780.0
        8766       -3886.      -1206.      -4845.      -1579.      -231.7      -667.1
        8767       -3810.      -1040.      -3136.      -669.2      -223.3      -1534.
        8768       -4297.      -1113.      -4255.      -1337.      -172.3      -1296.
        8769       -5719.      -1233.      -5777.      -750.6      -36.48      -1014.
        8770       -4224.      -1361.      -4530.      -1408.      -149.1      -1249.
        8771       -6904.      -1416.      -6941.      -722.0      -157.6      -699.8
        8772       -4071.      -1243.      -4494.      -1491.      -47.06      -1158.
        8773       -3522.      -1197.      -4821.      -1700.      -169.9      -839.3
        8774       -5526.      -1161.      -5375.      -794.0      -133.8      -541.2
        8775       -4385.      -1195.      -4100.      -1158.      -233.6      -1515.
        8776       -4457.      -1263.      -3875.      -704.8      -203.2      -1502.
        8777       -3670.      -1265.      -4115.      -1462.      -128.6      -980.5
        8778       -3769.      -1196.      -4585.      -1416.      -174.6      -865.3
        8779       -4416.      -1201.      -4506.      -967.0       98.21      -641.6
        8780       -3527.      -1224.      -4876.      -1628.      -203.0      -744.2
        8781       -4267.      -994.3      -4143.      -1228.      -203.9      -1242.
        8782       -5215.      -1127.      -4759.      -902.5      -149.9      -1107.
        8783       -5189.      -1293.      -5501.      -888.8       77.45      -670.6
        8784       -4989.      -1280.      -4501.      -863.2      -258.0      -1201.
        8785       -4822.      -1569.      -5159.      -1326.      -193.1      -1178.
        8786       -5149.      -1254.      -5671.      -1071.       56.33      -651.6
        8787       -4730.      -1294.      -4206.      -796.8      -268.2      -1332.
        8788       -6304.      -1284.      -6364.      -914.6      -21.05      -953.5
        8789       -5058.      -1212.      -4749.      -906.8      -251.8      -1119.
        8790       -4876.      -1115.      -5457.      -1160.      -14.32      -793.9
        8791       -4739.      -1167.      -4718.      -1026.      -226.3      -1140.
        8792       -4980.      -1115.      -4736.      -895.1      -247.6      -1424.
        8793       -5092.      -1251.      -4634.      -906.7      -321.1      -1269.
        8794       -5332.      -1402.      -5488.      -961.9      -54.36      -824.0
        8795       -4733.      -1156.      -4469.      -971.1      -142.4      -1027.
        8796       -4012.      -1181.      -4583.      -1345.      -162.5      -941.3
        8797       -3965.      -1056.      -4428.      -1405.      -91.24      -1058.
        8798       -4227.      -1150.      -4839.      -1324.      -139.6      -826.3
        8799       -5120.      -1222.      -5043.      -1041.      -170.6      -995.1
        8800       -5792.      -1491.      -6038.      -981.8      -85.02      -930.0
        8801       -4416.      -1082.      -4700.      -1294.      -182.1      -1014.
        8802       -4635.      -1075.      -5019.      -1208.      -129.5      -904.6
        8803       -3749.      -1078.      -1478.      -169.6      -6.191      -2285.
        8804       -3510.      -1104.      -2213.      -633.5      -84.22      -1905.
        8805       -3554.      -1150.      -2799.      -1031.      -257.2      -1740.
        8806       -4401.      -1154.      -5139.      -1396.      -172.7      -725.2
        8807       -3423.      -1144.      -4318.      -1521.      -232.3      -799.4
        8808       -4887.      -1321.      -5236.      -1016.       122.1      -768.6
        8809       -4633.      -1209.      -3836.      -883.7      -111.0      -1684.
        8810       -4824.      -1161.      -4122.      -603.0      -199.8      -1444.
        8811       -5043.      -1320.      -5144.      -1065.       7.959      -830.1
        8812       -3386.      -1072.      -3224.      -1064.      -178.6      -1579.
        8813       -4679.      -1324.      -3962.      -886.0      -165.5      -1549.
        8814       -4028.      -982.6      -3603.      -995.0      -108.2      -1573.
        8815       -4670.      -1038.      -4765.      -1112.      -220.9      -1093.
        8816       -4846.      -1178.      -4977.      -1134.      -164.1      -972.7
        8817       -4471.      -1031.      -4609.      -1194.      -209.2      -1054.
        8818       -3867.      -1110.      -4966.      -1532.      -142.8      -924.6
        8819       -4261.      -1237.      -4638.      -1364.      -129.9      -1122.
        8820       -4295.      -1199.      -3963.      -1010.      -180.0      -1451.
        8821       -4374.      -1053.      -4016.      -1056.      -230.4      -1276.
        8822       -1485.       793.2      -237.6      -1080.      -7.573      -1773.
        8823       -1333.       761.7      -840.5      -1356.      -17.10      -1715.
        8824       -1464.       355.3      -1359.      -1611.      -79.48      -1567.
        8825       -685.3       710.3      -1083.      -1653.      -92.27      -1500.
        8826       -838.6       603.2      -1751.      -1767.      -81.58      -1284.
        8827        316.7       831.0      -2338.      -1824.      -17.62      -161.0
        8828       -616.5       257.9      -1927.      -2132.      -26.74      -324.2
        8829        235.4       454.0      -2049.      -2016.       13.66      -448.7
        8830       -756.2       533.6      -2425.      -1966.      -55.14      -765.8
        8831       -853.7     -0.2541      -2505.      -2090.      -111.2      -980.3
        8832        347.8       844.2      -1990.      -1805.      -63.09      -870.4
        8833       -442.6       536.4      -1787.      -1976.      -92.20      -998.8
        8834       -165.1       754.8      -1501.      -1689.       30.40      -1034.
        8835       -818.5       198.1      -2080.      -1946.      -121.7      -1196.
        8836       -969.2      -177.8      -2147.      -2059.      -127.7      -1087.
        8837       -212.5       741.6      -1873.      -1697.       80.91      -1003.
        8838       -513.9       483.5      -2016.      -1749.      -30.05      -1153.
        8839       -542.4       183.0      -1620.      -1977.      -206.4      -1375.
        8840       -110.3       1093.      -1219.      -1778.      -71.68      -1364.
        8841       -1337.      -241.0      -2009.      -1996.      -162.7      -1449.
        8842       -556.4       691.6      -1117.      -1757.      -63.18      -1464.
        8843       -993.8       106.7      -1547.      -1906.      -140.6      -1566.
        8844       -1114.       86.10      -1233.      -1750.      -197.7      -1739.
        8845       -2031.      -569.0      -2485.      -1832.      -202.8      -1665.
        8846       -1339.       674.4      -928.9      -1453.      -24.34      -1690.
        8847       -1614.       48.37      -1073.      -1556.      -151.3      -1897.
        8848       -1914.      -384.9      -1899.      -1649.      -162.4      -1849.
        8849       -1053.       704.0      -1109.      -1580.      -53.87      -1646.
        8850       -2057.      -385.7      -1636.      -1488.      -145.5      -1920.
        8851       -1523.       694.3      -364.8      -1179.      -26.45      -1761.
        8852       -1924.       196.5      -811.7      -1371.      -157.4      -1944.
        8853       -1388.       676.0      -668.0      -1284.      -23.65      -1742.
        8854       -2261.       66.37      -811.7      -1252.      -118.0      -2002.
        8855       -1530.       723.2       205.8      -845.5      -28.05      -1841.
        8856       -2334.       233.0      -548.0      -1140.      -116.1      -2026.
        8857       -1895.       889.5       19.49      -732.0      -17.76      -1869.
        8858       -2452.      -156.6      -797.0      -626.3      -53.61      -2176.
        8859       -2787.       31.89      -745.1      -486.2      -60.45      -2185.
        8860       -2194.       761.1      -63.95      -96.06       11.57      -1777.
        8861       -2094.       320.6      -549.4      -337.5      -17.63      -2118.
        8862       -366.0       570.1      -2293.      -1779.       28.75      -281.9
        8863       -2188.       723.8      -298.8      -268.5       4.625      -1823.
        8864       -241.4       621.4      -1840.      -1765.      -10.25      -934.9
        8865       -2731.       676.8      -291.5      -573.9      -25.99      -1848.
        8866       -327.0       240.6      -2365.      -2106.      -32.10      -161.7
        8867       -2714.       132.9      -310.7      -113.4       20.53      -2066.
        8868       -1843.       734.6       64.28      -432.2       17.24      -1882.
        8869       -1411.       784.6      -159.2      -1028.       90.30      -1725.
        8870       -2689.      -202.2      -963.7      -843.3      -41.29      -2134.
        8871       -2841.      -23.53      -1177.      -942.4      -108.0      -2144.
        8872       -712.3      -167.6      -2645.      -2095.      -132.1      -837.2
        8873        388.8       932.8      -2039.      -1753.       74.21      -395.3
        8874       -58.41       735.0      -1535.      -1907.      -41.84      -1050.
        8875       -634.6       460.4      -2020.      -1802.      -41.33      -1102.
        8876       -1718.       757.3      -177.4      -964.9       20.92      -1776.
        8877       -2315.       962.5       491.4      -329.0       250.8      -871.5
        8878       -2004.       1332.       497.4      -511.7       409.5      -874.7
        8879       -2004.       852.4       547.1      -513.3       187.9      -1281.
        8880       -1876.       1486.       379.3      -826.3       700.2      -875.8
        8881       -1855.       1574.       390.2      -897.7       731.0      -850.3
        8882       -1192.       1927.       224.2      -1035.       943.0      -892.6
        8883       -1150.       1532.      -286.7      -1023.       1033.      -911.0
        8884       -669.3       1877.      -536.7      -982.5       1097.      -952.8
        8885       -683.5       1087.      -545.7      -1194.       297.7      -1236.
        8886       -321.5       1964.      -374.8      -971.7       1082.      -972.5
        8887       -784.9       797.2      -744.9      -1218.       315.9      -1235.
        8888       -101.2       1926.      -1200.      -912.2       1019.      -1085.
        8889        51.47       957.7      -994.4      -1306.       297.8      -1122.
        8890        381.7       1365.      -1245.      -1008.       834.0      -1085.
        8891        262.1       1656.      -1793.      -839.6       780.0      -960.9
        8892        303.9       1565.      -1793.      -854.9       710.4      -929.4
        8893        435.9       1122.      -2040.      -870.8       461.8      -628.1
        8894        357.0       836.9      -2358.      -854.6       159.3      -272.2
        8895        442.4       1107.      -1733.      -1160.       36.72      -162.9
        8896        426.7       880.8      -2373.      -841.8       108.3      -222.8
        8897        591.8       995.4      -2088.      -1004.       70.31      -180.8
        8898        799.3       1009.      -2192.      -907.8       186.1      -375.5
        8899        481.1       886.5      -2420.      -1203.       109.5      -309.9
        8900        488.1       1111.      -2346.      -855.0       356.6      -516.4
        8901        805.4       1076.      -2207.      -948.9       321.1      -520.8
        8902        768.6       859.8      -2132.      -1216.       164.0      -427.5
        8903        796.7       925.2      -2485.      -1011.       154.6      -330.4
        8904        354.2       939.5      -2050.      -862.3       245.2      -373.2
        8905        658.3       883.0      -2095.      -1028.       250.0      -477.7
        8906        542.0       923.3      -2220.      -1274.       201.1      -552.8
        8907        597.2       1196.      -2040.      -840.0       485.1      -694.7
        8908        430.6       891.9      -1954.      -1302.       229.2      -679.2
        8909        491.2       1006.      -2062.      -1077.       299.6      -590.1
        8910        665.1       1024.      -2114.      -1019.       389.3      -617.8
        8911        396.0       1359.      -1823.      -834.6       548.7      -733.3
        8912        665.3       984.4      -2260.      -1036.       423.0      -722.4
        8913        616.1       960.3      -2340.      -1141.       324.7      -707.5
        8914        404.1       1492.      -1893.      -825.5       623.9      -816.6
        8915        766.1       1271.      -2194.      -928.0       561.8      -834.3
        8916        412.8       956.5      -1905.      -1293.       281.8      -774.0
        8917        350.6       1379.      -1949.      -960.8       689.8      -983.1
        8918        769.0       1230.      -1740.      -954.5       613.7      -921.2
        8919        562.0       957.5      -2022.      -1212.       370.4      -836.7
        8920        322.7       1191.      -1967.      -1350.       241.8      -837.9
        8921        533.7       1002.      -1639.      -1126.       409.8      -818.8
        8922        621.2       1217.      -1890.      -902.1       669.8      -920.6
        8923        444.9       1165.      -1747.      -1007.       661.4      -1007.
        8924        823.5       1142.      -2112.      -1045.       522.7      -931.0
        8925        384.6       1088.      -1657.      -1347.       284.9      -905.6
        8926        383.0       1435.      -1503.      -992.2       807.1      -1042.
        8927        175.8       887.2      -1398.      -1303.       314.4      -960.0
        8928        234.7       1643.      -1681.      -886.8       785.9      -972.7
        8929        188.5       1292.      -1368.      -994.0       818.2      -1049.
        8930        659.1       1304.      -1621.      -1028.       651.8      -1018.
        8931        147.3       900.3      -1447.      -1132.       501.1      -975.5
        8932        363.6       1281.      -1507.      -1051.       673.4      -1021.
        8933        196.3       961.0      -1479.      -1270.       353.9      -1005.
        8934        48.26       1518.      -1210.      -997.7       947.5      -1088.
        8935        131.0       1225.      -1220.      -1022.       832.8      -1105.
        8936       -173.6       1131.      -1179.      -1206.       418.4      -1067.
        8937       -37.19       1055.      -1281.      -1309.       281.9      -1132.
        8938        55.51       1338.      -1574.      -1119.       570.4      -1037.
        8939        243.0       1100.      -1322.      -1048.       697.4      -1048.
        8940        147.6       1077.      -1123.      -1051.       785.5      -1122.
        8941       -50.78       985.8      -1347.      -1165.       484.2      -1098.
        8942       -182.2       1867.      -901.4      -964.7       1019.      -1031.
        8943       -127.9       973.2      -1245.      -1258.       340.3      -1142.
        8944       -70.86       1019.      -1057.      -1105.       625.6      -1112.
        8945       -71.65       1799.      -971.9      -944.8       1037.      -1061.
        8946       -321.0       1701.      -838.4      -974.2       1038.      -1035.
        8947       -82.57       1332.      -453.0      -1059.       876.2      -1088.
        8948       -294.2       1013.      -945.0      -1122.       606.0      -1113.
        8949       -205.1       969.1      -731.5      -1254.       341.4      -1161.
        8950       -201.5       1962.      -626.5      -958.8       1080.      -1021.
        8951       -174.0       1390.      -694.7      -1069.       928.3      -1062.
        8952       -349.8       948.5      -653.8      -1210.       338.0      -1187.
        8953       -752.1       1555.      -705.1      -1061.       1026.      -1025.
        8954       -383.9       1288.      -294.2      -1106.       862.5      -1074.
        8955       -545.1       1161.      -304.0      -1153.       521.3      -1140.
        8956       -314.9       959.1      -646.0      -1131.       654.0      -1111.
        8957       -550.3       1440.      -498.3      -1071.       996.4      -1046.
        8958       -480.7       1429.      -308.7      -1082.       940.2      -1042.
        8959       -583.3       1140.      -391.7      -1131.       696.1      -1086.
        8960       -999.9       1959.      -363.7      -1023.       1070.      -922.9
        8961       -1005.       967.4      -467.9      -1177.       325.4      -1250.
        8962       -682.7       1003.      -525.8      -1141.       482.0      -1130.
        8963       -878.1       1052.      -463.9      -1136.       612.7      -1132.
        8964       -909.9       1968.      -511.7      -1003.       1094.      -944.7
        8965       -966.6       1960.      -89.98      -1041.       1070.      -909.8
        8966       -747.1       1545.      -152.8      -1083.       951.8      -1029.
        8967       -722.6       1074.      -249.0      -1111.       519.5      -1148.
        8968       -887.0       1549.      -80.22      -1085.       948.1      -996.4
        8969       -993.9       1362.       139.5      -1104.       842.8      -1013.
        8970       -1195.       1068.      -332.7      -1152.       346.7      -1244.
        8971       -1043.       1802.       28.59      -1036.       994.4      -931.3
        8972       -1060.       1425.       152.6      -1082.       873.5      -1018.
        8973       -1107.       1084.      -168.9      -1102.       525.0      -1131.
        8974       -960.9       976.1      -213.6      -1106.       584.1      -1115.
        8975       -983.3       1593.       134.5      -1078.       922.2      -993.2
        8976       -1233.       1202.       114.6      -1081.       756.9      -1065.
        8977       -1281.       1085.       157.8      -1072.       726.8      -1048.
        8978       -917.1       1101.      -128.2      -1102.       341.7      -1255.
        8979       -1371.       1453.       216.8      -1062.       805.1      -979.4
        8980       -1223.       985.1       312.0      -1040.       367.4      -1233.
        8981       -1341.       1025.       143.0      -1027.       592.6      -1111.
        8982       -1329.       2120.       424.5      -1015.       889.2      -863.6
        8983       -1493.       1530.       256.0      -994.6       849.5      -866.8
        8984       -1496.       1406.       296.6      -1033.       762.5      -974.0
        8985       -1656.       879.4       62.85      -987.7       515.4      -1125.
        8986       -1688.       729.6      -75.49      -978.5       351.1      -1300.
        8987       -1647.       1553.       273.5      -945.5       803.9      -847.0
        8988       -1702.       992.2       313.5      -988.0       598.2      -1051.
        8989       -1797.       977.3       646.2      -969.4       465.6      -1146.
        8990       -1742.       1164.       571.9      -848.3       621.6      -965.7
        8991       -1765.       1086.       561.4      -844.2       534.0      -1011.
        8992       -1860.       1108.       306.5      -907.9       437.1      -1160.
        8993       -1424.       956.8       182.2      -957.3       326.8      -1330.
        8994       -1741.       1181.       514.2      -930.7       544.4      -1042.
        8995       -1708.       1190.       378.6      -918.0       657.5      -977.8
        8996       -1801.       1064.       536.5      -799.5       521.1      -1030.
        8997       -1703.       1015.       488.9      -803.0       444.0      -1120.
        8998       -1947.       1115.       326.7      -853.5       321.6      -1324.
        8999       -1926.       1205.       569.4      -719.4       523.9      -948.0
        9000       -2197.       1061.       452.8      -751.7       300.8      -1247.
        9001       -2023.       799.0       516.6      -703.9       479.0      -1038.
        9002       -1730.       1570.       558.7      -774.2       605.2      -843.4
        9003       -2118.       1176.       370.6      -623.5       476.6      -871.4
        9004       -1950.       789.7       382.1      -644.5       339.4      -1119.
        9005       -1776.       988.2       490.4      -638.7       192.4      -1257.
        9006       -2002.       1282.       680.1      -638.1       453.4      -962.5
        9007       -2104.       927.4       646.1      -586.1       334.2      -1050.
        9008       -1782.       1030.       567.2      -553.9       258.9      -1153.
        9009       -2055.       1159.       864.5      -446.0       304.4      -958.0
        9010       -2003.       1017.       988.3      -445.3       256.3      -1051.
        9011       -2554.       735.1       459.5      -390.3       128.7      -1270.
        9012       -2227.       1204.       764.8      -557.2       390.6      -964.0
        9013       -2229.       969.3       615.3      -333.4       161.0      -1045.
        9014       -2042.       1001.       503.5      -248.9       126.2      -955.2
        9015       -2485.       919.9       402.4      -154.9       26.84      -1079.
        9016       -2004.       937.5       241.6      -134.3       66.17      -1232.
        9017       -1927.       832.4       489.7      -236.8       107.5      -1221.
        9018       -1714.       1144.       302.3      -236.8       161.3      -866.1
        9019       -2412.       975.3       633.9      -142.8       69.41      -857.4
        9020        836.4       1261.      -2229.      -942.3       440.3      -680.6
        9021       -498.7       1450.      -52.27      -1093.       847.1      -1060.
        9022       -2211.       1025.       666.4      -138.0       29.83      -968.1
        9023       -2233.       1026.       558.4      -351.6       214.3      -961.6
        9024       -1985.       1148.       765.4      -641.6       422.4      -1025.
        9025       -1841.       1171.       575.3      -807.3       563.0      -954.1
        9026        648.5       1271.      -2206.      -974.4       402.1      -617.1
        9027        507.5       1247.      -1568.      -987.9       753.7      -1009.
        9028       -730.0       1579.      -375.7      -1063.       999.3      -1035.
        9029       -1410.       1129.       126.0      -1035.       731.0      -1056.
        9030       -1217.       1302.       82.98      -1079.       865.5      -1004.
        9031       -1836.       907.2       749.1      -270.9       120.7      -1041.
        9032        367.4       1191.      -1500.      -1010.       631.3      -1006.
        9033       -248.9       1519.      -1324.      -1042.       875.9      -1086.
        9034       -2230.       1038.       417.8      -409.9       341.8      -864.2
        9035       -2045.       1275.       418.9      -717.4       537.6      -838.3
        9036        37.76       1727.      -1774.      -894.9       850.4      -999.9
        9037        65.81       1588.      -1591.      -906.3       893.7      -1013.
        9038        121.5       1713.      -1506.      -927.2       905.3      -1035.
        9039        231.2       1600.      -1349.      -944.4       964.0      -1050.
        9040        227.4       945.5      -1417.      -1140.       560.9      -1002.
        9041        89.96       1138.      -1242.      -1059.       647.0      -1074.
        9042       -1429.       1247.       161.2      -995.1       729.0      -972.4
        9043        7.094       1400.      -1103.      -1022.       920.5      -1104.
        9044       -1506.       1126.       239.6      -1004.       658.4      -1055.
        9045       -2226.       859.7       612.6      -422.9       182.2      -1116.
        9046       -1309.       1090.      -17.88      -1080.       559.9      -1107.
        9047        576.7       1170.      -2060.      -944.6       496.6      -748.5
        9048        489.6       1102.      -1946.      -999.6       516.2      -841.4
        9049       -2022.       829.8       383.1      -705.5       420.2      -1113.
        9050        272.0       1147.      -1723.      -1141.       444.9      -939.6
        9051       -1764.       1034.       459.7      -783.2       470.4      -1091.
        9052       -812.3       1343.       72.79      -1103.       771.1      -1053.
        9053       -777.6       1110.      -343.3      -1103.       735.9      -1098.
        9054       -1099.       1081.      -31.42      -1074.       661.3      -1080.
        9055        80.46       1119.      -1305.      -1031.       749.7      -1073.
        9056       -1331.       1071.       79.63      -1067.       654.2      -1072.
        9057       -1160.       1169.       81.56      -1090.       748.8      -1061.
        9058       -347.4      -236.1      -2134.      -2396.      -7.757      -247.2
        9059       -292.4      -423.6      -883.3      -2409.      -13.79      -409.6
        9060       -337.7      -306.6      -986.4      -2464.       35.38      -513.5
        9061       -508.3      -456.6      -1641.      -2412.      -71.74      -743.1
        9062       -633.1      -676.4      -1522.      -2377.      -31.39      -1009.
        9063       -529.9      -679.1      -1553.      -2400.      -73.23      -1151.
        9064       -386.3      -279.6      -986.9      -2310.      -96.67      -1260.
        9065       -953.3      -580.0      -1746.      -2267.      -105.5      -1364.
        9066       -663.1      -623.5      -1272.      -2271.      -104.4      -1596.
        9067       -724.6      -748.1      -1623.      -2193.      -71.61      -1716.
        9068       -1194.      -449.8      -1451.      -2123.      -107.7      -1804.
        9069       -945.0      -606.3      -1374.      -2069.      -128.6      -1907.
        9070       -859.3      -557.7      -785.6      -1978.      -121.8      -1996.
        9071       -1135.      -518.0      -1035.      -1894.      -119.6      -2067.
        9072       -1031.      -507.8      -729.0      -1804.      -106.5      -2140.
        9073       -1227.      -702.8      -889.4      -1714.      -75.24      -2209.
        9074       -610.3      -352.8      -162.5      -1585.      -102.7      -2250.
        9075       -1037.      -495.3      -530.6      -1433.      -55.86      -2320.
        9076       -839.4      -9.150       156.8      -1311.      -76.69      -2345.
        9077       -1358.      -402.1      -532.6      -1155.      -95.46      -2386.
        9078       -1210.      -339.1      -464.5      -958.9      -82.32      -2405.
        9079       -1028.      -247.1      -315.3      -749.1      -11.04      -2439.
        9080       -828.3      -333.7      -171.0      -595.6      -6.375      -2444.
        9081       -1227.      -371.3      -363.1      -392.8       35.76      -2395.
        9082       -1391.      -262.5      -342.6      -187.4       28.04      -2395.
        9083       -95.42       695.9      -564.0      -1617.       5.675      -197.7
        9084        94.38       764.8      -1328.      -1685.       41.29      -360.0
        9085        174.3       814.9      -950.5      -1705.       67.93      -509.9
        9086       -111.7       927.3      -1172.      -1731.       84.07      -682.8
        9087        111.4       864.5      -556.9      -1707.       135.4      -877.4
        9088       -136.0       830.4      -839.9      -1723.       149.7      -1006.
        9089       -318.0       785.8      -1132.      -1752.       106.3      -1109.
        9090       -178.7       810.9      -1065.      -1760.       188.7      -1219.
        9091       -97.80       826.7      -632.1      -1724.       177.6      -1290.
        9092       -273.0       706.9      -837.7      -1724.       173.2      -1390.
        9093       -236.8       901.8      -787.0      -1728.       160.7      -1469.
        9094       -368.8       737.6      -597.0      -1730.       165.9      -1552.
        9095       -646.7       714.5      -880.0      -1720.       168.1      -1609.
        9096       -635.8       948.6      -639.8      -1684.       126.8      -1647.
        9097       -351.7       1565.      -316.0      -1676.       148.6      -1648.
        9098       -798.7       615.7      -690.8      -1661.       161.4      -1685.
        9099       -238.9       830.3      -264.3      -1592.       179.9      -1731.
        9100       -690.7       842.0      -342.6      -1523.       179.9      -1741.
        9101       -606.9       1054.      -212.6      -1467.       163.8      -1734.
        9102       -910.2       901.0      -269.1      -1392.       148.4      -1740.
        9103       -1091.       759.4      -343.2      -1300.       181.8      -1752.
        9104       -697.0       703.2      -57.47      -1219.       150.6      -1760.
        9105       -1146.       878.5      -394.9      -1099.       161.7      -1753.
        9106       -992.5       945.6      -339.3      -952.4       140.1      -1742.
        9107       -591.1       962.6       124.1      -831.5       105.6      -1716.
        9108       -1274.       802.3      -111.1      -652.3       102.4      -1676.
        9109       -861.5       805.5      -67.25      -477.8       61.71      -1707.
        9110       -700.0       873.7       387.7      -286.5       40.10      -1662.
        9111       -1064.       734.2       111.7      -132.9       24.96      -1646.
        9112       -407.5       704.9      -1224.      -173.9       111.3      -133.2
        9113       -258.5       836.5      -1293.      -226.7       187.6      -278.9
        9114       -404.2       917.2      -1569.      -203.3       258.9      -412.2
        9115       -430.8       731.1      -1444.      -222.7       344.0      -532.7
        9116       -333.8       857.5      -1188.      -235.1       406.9      -652.7
        9117       -117.9       1028.      -1066.      -267.8       500.0      -735.9
        9118       -28.20       1187.      -1045.      -312.1       547.2      -811.0
        9119       -81.79       1323.      -1078.      -322.9       589.7      -852.6
        9120       -113.9       1296.      -909.7      -339.3       681.7      -910.2
        9121       -30.53       1582.      -706.8      -368.2       699.2      -981.0
        9122       -87.79       1568.      -522.8      -426.2       717.5      -1020.
        9123        23.29       1661.      -632.1      -482.4       729.1      -1045.
        9124        164.6       1862.      -343.1      -527.2       773.6      -1057.
        9125        84.01       1838.      -384.4      -567.0       786.8      -1053.
        9126       -131.4       1789.      -591.7      -660.9       832.1      -1065.
        9127       -26.47       2084.      -130.3      -642.7       901.0      -955.6
        9128       -123.7       1981.      -238.0      -686.5       895.6      -976.5
        9129        41.48       2361.      -151.4      -722.5       909.4      -939.6
        9130       -105.1       2199.      -123.9      -768.9       908.0      -883.3
        9131       -135.1       2225.      -226.2      -819.1       912.3      -842.6
        9132       -16.26       2239.      -124.9      -863.3       925.9      -793.7
        9133       -66.28       2144.       31.65      -904.7       930.7      -751.0
        9134       -177.9       2049.      -74.02      -943.4       908.4      -674.9
        9135       -262.4       2114.      -32.17      -964.2       889.6      -639.9
        9136       -257.5       2014.       83.65      -961.7       872.7      -620.3
        9137       -403.4       1802.      -84.49      -979.6       859.4      -591.0
        9138       -468.3       1776.       46.79      -989.2       825.3      -531.0
        9139       -567.2       1727.       3.130      -1004.       789.3      -476.0
        9140       -470.6       1393.      -85.55      -988.4       763.0      -442.2
        9141       -771.1       1523.       55.18      -944.4       699.1      -433.5
        9142       -872.2       1382.       7.077      -880.2       664.1      -394.8
        9143       -749.0       1290.      -118.6      -810.4       601.2      -353.5
        9144       -1156.       1139.      -222.2      -768.6       548.7      -333.5
        9145       -952.9       1183.      -77.83      -679.6       480.4      -309.2
        9146       -1034.       1138.      -108.8      -575.6       423.8      -298.4
        9147       -1115.       1208.      -85.26      -488.5       347.9      -263.9
        9148       -1110.       728.9      -305.4      -404.8       282.5      -237.0
        9149       -1343.       711.0      -253.3      -332.4       232.9      -245.3
        9150       -1163.       727.7      -349.2      -204.8       151.7      -248.8
        9151       -1496.       828.9      -234.7      -102.5       115.3      -240.2
        9152       -1276.      -1069.      -829.6      -1623.      -97.83      -2138.
        9153       -1027.      -799.2      -235.9      -1070.      -129.7      -2349.
        9154       -1640.      -974.4      -560.4      -577.4       8.695      -2434.
        9155       -1995.      -1001.      -2062.      -204.4      -34.16      -172.0
        9156       -2837.      -1353.      -3291.      -987.3       44.46      -232.7
        9157       -752.7      -716.9      -689.6      -1904.      -165.5      -1958.
        9158       -2931.      -1342.      -3175.      -1088.      -103.1      -204.6
        9159       -1547.      -934.5      -1960.      -1314.      -118.9      -212.7
        9160       -948.5      -1036.      -1478.      -2150.      -73.62      -1647.
        9161       -1821.      -1075.      -2141.      -1470.      -47.18      -231.1
        9162       -1363.      -951.9      -1764.      -1632.      -59.99      -211.8
        9163       -658.2      -414.2      -1283.      -2283.      -151.3      -1227.
        9164       -550.6      -750.1      -1109.      -1843.      -4.865      -208.4
        9165       -813.9      -958.2      -1538.      -1992.       14.12      -174.1
        9166       -767.3      -1003.      -1683.      -2123.      -32.20      -189.0
        9167       -433.8      -923.1      -2160.      -2410.      -37.25      -543.6
        9168       -787.1      -1046.      -1923.      -2260.      -33.15      -186.8
        9169       -567.3      -1125.      -1718.      -2411.       7.798      -215.2
        9170       -1842.      -960.0      -648.0      -384.4       38.26      -2479.
        9171       -782.5      -691.5       94.43      -717.8      -13.39      -2420.
        9172       -1076.      -701.7      -287.7      -936.8      -119.5      -2399.
        9173       -1223.      -950.0      -537.1      -1258.      -97.21      -2309.
        9174       -1522.      -1058.      -806.1      -1348.      -101.4      -2271.
        9175       -1470.      -1124.      -889.5      -1506.      -115.3      -2223.
        9176       -1491.      -1073.      -1130.      -1712.      -131.9      -2075.
        9177       -1232.      -879.9      -1065.      -1801.      -156.5      -2024.
        9178       -1227.      -772.7      -1553.      -1983.      -143.9      -1855.
        9179       -1030.      -1231.      -1553.      -2054.      -130.4      -1786.
        9180       -442.6      -870.9      -954.5      -2222.      -126.4      -1534.
        9181       -1057.      -974.3      -1960.      -2285.      -175.9      -1353.
        9182       -786.6      -1066.      -1965.      -2320.      -124.6      -1100.
        9183       -573.0      -962.8      -1684.      -2366.      -50.98      -960.9
        9184       -246.7      -898.7      -1326.      -2426.      -28.96      -745.7
        9185        97.69      -418.2      -495.7      -2432.       7.649      -413.1
        9186       -1339.      -726.0      -1537.      -223.8      -25.85      -636.9
        9187       -1948.      -948.3      -2015.      -179.5      -34.75      -731.2
        9188       -308.1      -778.3      -264.2      -169.5       39.95      -789.9
        9189       -879.6      -900.7      -635.0      -201.6       36.00      -981.3
        9190       -2141.      -1065.      -1916.      -202.6      -47.66      -1165.
        9191       -1018.      -906.6      -820.6      -182.7      -86.76      -1342.
        9192       -2497.      -1087.      -2031.      -154.7       8.422      -1464.
        9193       -2246.      -1015.      -1743.      -243.3       9.356      -1639.
        9194       -1602.      -886.6      -1212.      -241.9       39.61      -1864.
        9195       -1798.      -868.6      -1070.      -232.2       51.51      -1980.
        9196       -1546.      -934.0      -798.6      -206.5      -55.92      -2162.
        9197       -1977.      -1008.      -892.5      -200.4      -132.5      -2262.
        9198       -2243.      -1229.      -2451.      -877.5       105.6      -184.5
        9199       -2060.      -936.7      -2139.      -735.5       25.66      -214.2
        9200       -3153.      -1177.      -3214.      -234.7       21.56      -370.3
        9201       -1527.      -779.9      -2096.      -1099.      -111.9      -330.5
        9202       -972.6      -995.8      -2230.      -2236.      -32.98      -356.0
        9203       -420.5      -1061.      -1592.      -2346.      -21.09      -351.5
        9204       -1471.      -914.3      -648.0      -352.7      -124.2      -2102.
        9205       -2444.      -1016.      -2115.      -302.4       80.88      -1674.
        9206       -1123.      -955.4      -614.6      -1482.      -111.3      -2057.
        9207       -1494.      -1282.      -1521.      -1887.      -186.9      -1772.
        9208       -1374.      -1330.      -1598.      -1924.      -155.0      -1666.
        9209       -2234.      -1229.      -3006.      -1802.      -115.6      -339.6
        9210       -707.5      -1011.      -1301.      -2277.       22.14      -738.3
        9211       -357.8      -823.4      -1970.      -2467.       11.05      -244.7
        9212       -1661.      -939.4      -1552.      -326.7      -91.99      -579.0
        9213       -1685.      -1254.      -1567.      -1664.      -197.4      -1922.
        9214       -2517.      -1004.      -2506.      -326.6       29.50      -835.2
        9215       -1673.      -951.4      -1719.      -284.1      -123.5      -1143.
        9216       -2319.      -1225.      -1215.      -733.8      -49.19      -2321.
        9217       -2226.      -1100.      -1213.      -352.5      -107.7      -2233.
        9218       -2032.      -880.9      -1960.      -392.1       42.81      -167.4
        9219       -2503.      -1149.      -2631.      -511.9       23.18      -188.9
        9220       -2390.      -1105.      -2702.      -1453.      -3.133      -320.1
        9221       -1287.      -1075.      -1864.      -2118.      -144.4      -1457.
        9222       -2077.      -986.4      -2420.      -1227.      -104.0      -289.5
        9223       -907.6      -953.7      -1757.      -2185.      -198.6      -1347.
        9224       -1620.      -998.8      -2515.      -1658.      -145.0      -329.9
        9225       -927.8      -869.4      -1546.      -1967.      -35.84      -348.7
        9226       -896.8      -955.2      -2025.      -2106.      -12.93      -358.0
        9227       -874.4      -812.6      -1744.      -2244.      -124.1      -1031.
        9228       -977.8      -956.4      -273.9      -229.0      -12.98      -2425.
        9229       -3454.      -1251.      -2671.      -332.6       62.41      -1833.
        9230       -2586.      -1240.      -2115.      -334.0       91.41      -1522.
        9231       -2196.      -1014.      -1824.      -276.8      -34.26      -1342.
        9232       -2878.      -1061.      -2855.      -327.9      -28.96      -1011.
        9233       -1675.      -1196.      -1625.      -1784.      -207.5      -1835.
        9234       -1147.      -1123.      -1315.      -2038.      -133.6      -1527.
        9235       -1349.      -1148.      -2151.      -2216.      -201.3      -1170.
        9236       -662.4      -1201.      -2066.      -2275.      -90.31      -881.3
        9237       -1299.      -1082.      -2978.      -2289.      -84.91      -583.7
        9238       -2261.      -1174.      -2228.      -311.5      -13.93      -711.8
        9239       -1447.      -1004.      -1321.      -1578.      -158.6      -1992.
        9240       -1846.      -1190.      -1265.      -1409.      -126.6      -2143.
        9241       -1491.      -1161.      -963.4      -1258.      -154.4      -2193.
        9242       -1698.      -1063.      -957.3      -1121.      -109.4      -2251.
        9243       -1331.      -1012.      -745.5      -1063.      -94.34      -2260.
        9244       -2876.      -1402.      -1362.      -837.0      -58.30      -2274.
        9245       -2304.      -1268.      -1457.      -320.8      -101.3      -1951.
        9246       -1445.      -1120.      -715.8      -515.7      0.3781      -2329.
        9247       -1374.      -985.5      -351.5      -394.4      -51.12      -2391.
        9248       -2352.      -1086.      -2688.      -429.3      -24.00      -383.8
        9249       -2118.      -861.5      -2428.      -865.9       69.16      -375.8
        9250       -3174.      -972.6      -3553.      -1218.       48.86      -410.1
        9251       -1486.      -1157.      -2203.      -2072.      -193.4      -1244.
        9252       -1321.      -979.6      -2090.      -2096.      -2.138      -483.6
        9253       -2715.      -1098.      -1452.      -467.4       55.80      -1702.
        9254       -1499.      -1116.      -1440.      -1680.      -220.4      -1757.
        9255       -1708.      -1017.      -2350.      -1626.      -197.1      -507.8
        9256       -962.1      -1057.      -2243.      -2197.       9.517      -542.7
        9257       -1894.      -966.1      -1833.      -373.7       8.044      -365.0
        9258       -2253.      -863.8      -2311.      -414.5      -75.32      -866.6
        9259       -1696.      -1146.      -1734.      -1766.      -185.5      -1647.
        9260       -1044.      -815.2      -768.4      -497.8      -44.75      -1812.
        9261       -1989.      -1010.      -963.7      -515.9      -67.99      -2190.
        9262       -1282.      -768.9      -1045.      -989.1      -4.765      -347.3
        9263       -3209.      -1104.      -2866.      -478.6      -75.21      -1136.
        9264       -1436.      -951.0      -819.3      -1088.      -113.6      -2091.
        9265       -1944.      -1192.      -1308.      -1352.      -135.6      -2070.
        9266       -1430.      -1003.      -2246.      -1962.      -97.22      -485.2
        9267       -2677.      -1133.      -2173.      -412.8       37.04      -1552.
        9268       -2239.      -857.6      -2096.      -764.1       44.86      -357.6
        9269       -986.8      -988.7      -1198.      -1822.      -156.7      -1518.
        9270       -1688.      -801.9      -1948.      -1437.      -75.61      -503.2
        9271       -1495.      -1008.      -1882.      -1991.      -136.6      -1371.
        9272       -899.5      -1064.      -1772.      -2154.      -145.9      -941.6
        9273       -1660.      -898.9      -2174.      -1772.      -130.5      -501.2
        9274       -382.3      -899.2      -1481.      -2183.      -19.36      -710.8
        9275       -1902.      -1230.      -2986.      -2208.      -95.90      -834.6
        9276       -1717.      -875.1      -1029.      -479.2      -114.6      -1938.
        9277       -1261.      -995.1      -852.5      -1342.      -96.67      -1985.
        9278       -3150.      -907.4      -3127.      -436.8      -14.75      -1316.
        9279       -2072.      -1084.      -1812.      -1609.      -219.7      -1836.
        9280       -1895.      -800.6      -1663.      -469.1      -85.56      -1052.
        9281       -1122.      -989.9      -1339.      -1889.      -149.1      -1466.
        9282       -1500.      -1202.      -2507.      -2125.      -183.4      -1101.
        9283       -2639.      -1081.      -2744.      -455.5       69.81      -706.0
        9284       -1583.      -1084.      -1361.      -1478.      -159.9      -1900.
        9285       -1889.      -1102.      -1074.      -1210.      -169.5      -2087.
        9286       -2116.      -1003.      -1275.      -995.2      -30.17      -2122.
        9287       -1868.      -896.2      -1145.      -496.0      -148.8      -2077.
        9288       -1859.      -996.3      -1176.      -804.4       3.887      -2140.
        9289       -2425.      -975.4      -2842.      -622.9      -136.6      -619.5
        9290       -1230.      -817.3      -1395.      -921.9       78.76      -404.5
        9291       -1880.      -855.2      -2223.      -1537.      -117.7      -698.7
        9292       -1617.      -822.0      -2164.      -1301.      -66.31      -643.9
        9293       -2528.      -1005.      -2097.      -538.3      -85.31      -1572.
        9294       -2757.      -1227.      -3560.      -1659.      -108.6      -662.8
        9295       -2067.      -1289.      -2258.      -1693.      -149.3      -1496.
        9296       -1759.      -1008.      -2599.      -2100.      -84.13      -647.1
        9297       -1685.      -836.5      -1916.      -570.1      -42.32      -1022.
        9298       -3387.      -1137.      -2703.      -543.4      -136.1      -1725.
        9299       -2190.      -1210.      -1446.      -777.9      -43.33      -2055.
        9300       -1522.      -525.3      -876.5      -608.9      -93.04      -1894.
        9301       -1894.      -846.3      -1964.      -482.1      -18.59      -452.1
        9302       -2903.      -960.7      -3226.      -981.4      -31.41      -379.8
        9303       -1779.      -1200.      -2545.      -1786.      -185.2      -606.8
        9304       -1902.      -1101.      -1604.      -1065.      -124.8      -1978.
        9305       -1031.      -1014.      -1342.      -1746.      -104.6      -1416.
        9306       -2338.      -1046.      -2564.      -1080.      -81.14      -357.0
        9307       -1895.      -976.9      -1362.      -1250.      -140.1      -1929.
        9308       -1113.      -888.7      -1955.      -1961.      -202.0      -623.8
        9309       -1820.      -842.2      -1681.      -561.6       57.46      -1374.
        9310       -985.0      -1041.      -1279.      -1882.      -69.24      -1346.
        9311       -1120.      -909.6      -1473.      -1952.      -94.73      -1198.
        9312       -1770.      -1196.      -2824.      -2064.      -142.6      -908.4
        9313       -1937.      -1233.      -2763.      -2098.      -132.0      -793.8
        9314       -2138.      -882.4      -1562.      -518.5      -105.8      -1772.
        9315       -2068.      -1033.      -2100.      -1473.      -181.9      -1780.
        9316       -1165.      -817.5      -1138.      -568.7       73.59      -1187.
        9317       -2215.      -1082.      -2166.      -1589.      -186.8      -1640.
        9318       -1362.      -806.9      -1693.      -589.3      -225.9      -902.8
        9319       -1799.      -1017.      -2363.      -1793.      -74.90      -1391.
        9320       -1699.      -1104.      -2835.      -2025.      -117.9      -1063.
        9321       -1987.      -1314.      -2158.      -707.2       119.3      -396.9
        9322       -2133.      -1097.      -1818.      -1396.      -141.7      -1855.
        9323       -2441.      -1150.      -1672.      -921.7      -67.37      -2014.
        9324       -1634.      -976.3      -1052.      -642.0      -45.53      -2064.
        9325       -2970.      -1219.      -3015.      -788.6      -84.30      -955.7
        9326       -2299.      -983.4      -1948.      -795.2      -37.23      -1425.
        9327       -2122.      -1002.      -2464.      -1419.      -69.76      -810.5
        9328       -1594.      -915.7      -1085.      -1207.      -124.1      -1911.
        9329       -2182.      -1029.      -1791.      -891.4      -90.86      -1903.
        9330       -1822.      -987.8      -1930.      -1659.      -60.05      -1364.
        9331       -1232.      -665.8      -1237.      -974.2       141.2      -524.9
        9332       -2453.      -984.0      -1907.      -704.9      -40.48      -1601.
        9333       -2064.      -900.1      -2791.      -1833.      -32.05      -1132.
        9334       -1974.      -1078.      -2324.      -1776.      -41.97      -1253.
        9335       -2314.      -1049.      -2699.      -1164.      -2.182      -542.5
        9336       -2441.      -979.9      -1804.      -773.0      -133.6      -1908.
        9337       -2276.      -934.7      -2869.      -1701.      -130.6      -856.4
        9338       -2767.      -1078.      -3281.      -1181.       10.79      -559.9
        9339       -2205.      -1060.      -2205.      -1397.      -193.3      -1597.
        9340       -1597.      -1111.      -2359.      -1955.      -196.3      -769.9
        9341       -3900.      -1294.      -3644.      -816.1      -136.3      -1282.
        9342       -1774.      -1026.      -2391.      -1953.      -131.0      -881.2
        9343       -1580.      -868.7      -2227.      -1818.      -199.7      -815.6
        9344       -2144.      -912.5      -1644.      -742.7      -175.6      -1776.
        9345       -1953.      -1083.      -2089.      -1487.      -156.0      -1499.
        9346       -2392.      -1091.      -2236.      -864.2      -59.46      -1221.
        9347       -2389.      -1330.      -2627.      -1617.      -131.7      -1424.
        9348       -3110.      -1135.      -3333.      -770.1      -68.51      -789.4
        9349       -1663.      -974.0      -1970.      -1701.      0.7662      -1317.
        9350       -1424.      -1006.      -2016.      -1910.      -93.01      -980.4
        9351       -1887.      -915.1      -2038.      -882.2      -3.087      -594.1
        9352       -1614.      -793.9      -1309.      -1303.      -165.6      -1754.
        9353       -2408.      -1194.      -1972.      -855.6      -125.2      -1725.
        9354       -1652.      -1016.      -2057.      -1681.      -61.99      -1145.
        9355       -1803.      -1028.      -2317.      -1613.      -94.16      -1025.
        9356       -1794.      -1008.      -1878.      -1108.       75.67      -641.7
        9357       -1656.      -930.4      -2244.      -1854.      -163.7      -868.8
        9358       -2072.      -1013.      -2149.      -1389.      -181.4      -1409.
        9359       -2316.      -979.3      -2060.      -1056.      -69.01      -1257.
        9360       -1825.      -946.6      -1903.      -1000.       85.50      -667.6
        9361       -2984.      -1160.      -2483.      -998.3      -181.4      -1389.
        9362       -1973.      -1038.      -2080.      -1490.      -162.7      -1319.
        9363       -2499.      -1109.      -3338.      -1235.       30.77      -698.7
        9364       -2652.      -1150.      -2256.      -959.7      -149.5      -1559.
        9365       -2772.      -1211.      -2761.      -983.9      -21.28      -1161.
        9366       -2540.      -1075.      -2252.      -1111.      -89.32      -1316.
        9367       -1890.      -965.9      -2357.      -1355.       2.927      -900.1
        9368       -2117.      -1037.      -2160.      -1222.      -111.7      -1324.
        9369       -2539.      -1163.      -2319.      -1081.      -170.7      -1640.
        9370       -2548.      -1126.      -2319.      -1092.      -169.1      -1446.
        9371       -1611.      -1135.      -1389.      -1037.      -31.89      -864.7
        9372       -2394.      -1041.      -2218.      -1154.      -74.42      -1223.
        9373       -1813.      -1080.      -2103.      -1557.      -70.94      -1101.
        9374       -1769.      -966.8      -2110.      -1591.      -57.61      -1230.
        9375       -1813.      -944.3      -2060.      -1502.      -59.83      -965.5
        9376       -2507.      -1089.      -2507.      -1230.      -83.55      -1178.
        9377       -3112.      -1232.      -3118.      -1140.      -30.51      -1094.
        9378       -1712.      -927.3      -2037.      -1485.      -99.33      -1166.
        9379       -2224.      -1024.      -2463.      -1448.      -64.31      -1053.
        9380       -1195.      -882.8      -188.6      -211.0       29.06      -2466.
        9381       -2156.      -1142.      -1191.      -667.0      -51.71      -2155.
        9382       -1748.      -1016.      -1147.      -1203.      -170.4      -1989.
        9383       -1792.      -978.1      -2150.      -1599.      -80.42      -901.6
        9384       -1604.      -878.5      -2252.      -1751.      -149.6      -966.7
        9385       -1484.      -1137.      -1785.      -1190.       138.1      -798.6
        9386       -2439.      -994.3      -2004.      -1044.      -74.22      -1916.
        9387       -2844.      -1044.      -2108.      -682.0      -158.2      -1726.
        9388       -2821.      -1079.      -3159.      -1284.       70.33      -968.9
        9389       -1616.      -927.9      -1507.      -1232.      -137.1      -1811.
        9390       -1998.      -845.4      -1932.      -1066.      -125.0      -1770.
        9391       -2578.      -1029.      -2097.      -1205.      -129.1      -1815.
        9392       -2021.      -984.7      -2030.      -1310.      -155.3      -1267.
        9393       -2423.      -1027.      -2517.      -1347.      -69.83      -1112.
        9394       -2040.      -930.5      -2165.      -1413.      -152.8      -1220.
        9395       -1486.      -853.7      -2258.      -1782.      -86.16      -1079.
        9396       -2005.      -1206.      -2048.      -1577.      -93.51      -1258.
        9397       -1650.      -774.5      -1337.      -1204.      -158.2      -1676.
        9398       -1725.      -870.0      -1579.      -1276.      -151.1      -1455.
        9399       -723.3       597.8      -140.5      -1332.       49.20      -1977.
        9400       -664.0       502.2      -421.2      -1628.       70.58      -1977.
        9401       -933.8       249.9      -969.9      -1899.       18.38      -1861.
        9402       -641.3       305.9      -1089.      -1943.       17.86      -1800.
        9403       -361.1       526.9      -863.2      -2011.       57.82      -1555.
        9404       -176.4       597.3      -851.3      -1970.      -18.96      -192.6
        9405       -47.98       126.4      -603.4      -2271.      -14.92      -361.5
        9406       -83.97       195.3      -1203.      -2183.       33.81      -584.0
        9407        20.84       562.1      -595.3      -2159.       14.11      -865.1
        9408       -356.6       17.62      -1235.      -2274.      -28.65      -1196.
        9409       -123.8       634.9      -1477.      -2025.       5.906      -1072.
        9410       -154.0       345.1      -870.3      -2185.       15.36      -1206.
        9411       -192.5       693.7      -945.2      -1905.       82.45      -1331.
        9412       -293.3       139.8      -910.0      -2180.      -65.92      -1441.
        9413       -333.3       125.1      -1007.      -2278.      -71.28      -1285.
        9414       -231.8       650.3      -1034.      -1933.       113.0      -1248.
        9415       -316.5       737.2      -977.9      -1963.       38.05      -1436.
        9416       -288.4       21.00      -552.2      -2207.      -88.00      -1618.
        9417       -721.7       324.2      -988.7      -2026.       39.44      -1653.
        9418       -274.6      -39.03      -735.8      -2188.      -42.08      -1724.
        9419       -388.9       757.6      -524.8      -1990.       40.40      -1725.
        9420       -282.7       212.7      -715.8      -2118.      -54.73      -1813.
        9421       -317.0       153.6      -480.8      -1973.      -74.54      -1975.
        9422       -730.0      -150.7      -904.2      -2081.      -93.20      -1904.
        9423       -668.7       385.2      -632.4      -1722.       53.64      -1947.
        9424       -998.7      -262.0      -719.6      -1825.      -43.42      -2132.
        9425       -591.1       125.7      -548.1      -1902.      -58.42      -2058.
        9426       -990.4       441.8      -777.1      -1796.       41.16      -1908.
        9427       -661.9      -82.70      -576.9      -1727.      -13.84      -2183.
        9428       -938.5       569.2      -450.4      -1464.       47.64      -1990.
        9429       -897.6       150.9      -301.2      -1613.      -33.93      -2179.
        9430       -665.0       547.9      -469.4      -1555.       41.74      -1982.
        9431       -963.8       74.53      -349.5      -1494.      -33.36      -2205.
        9432       -941.8       635.6      -314.9      -1049.       32.58      -2050.
        9433       -893.0       91.46      -518.3      -1329.      -25.53      -2216.
        9434       -1122.       639.0      -184.3      -916.6       64.95      -2061.
        9435       -597.2       19.83       58.13      -752.7       1.186      -2357.
        9436       -1173.       16.96      -402.7      -538.8      -11.81      -2308.
        9437       -1567.       440.0      -270.6      -160.6       5.448      -1938.
        9438       -734.1       338.9      -85.24      -392.4      -15.34      -2256.
        9439       -33.71       502.4      -940.3      -1998.       32.41      -341.6
        9440       -999.4       497.1      -61.99      -338.3       4.129      -2009.
        9441       -285.2       511.7      -932.3      -1996.       37.72      -1162.
        9442       -1007.       622.5       50.14      -705.5       39.08      -2064.
        9443       -138.1       364.2      -862.1      -2202.      -36.97      -218.8
        9444       -1322.       361.5      -173.2      -180.2       13.93      -2212.
        9445       -1055.       468.7      -118.1      -510.2       13.40      -2061.
        9446       -372.6       785.1      -166.4      -1275.       107.5      -1910.
        9447       -661.5       198.6      -212.2      -965.6       3.433      -2302.
        9448       -1052.       205.5      -372.8      -1135.      -42.30      -2296.
        9449       -399.8      -166.0      -1202.      -2305.      -39.64      -964.8
        9450       -206.9       482.9      -1194.      -1972.       55.07      -499.8
        9451       -173.8       406.6      -804.0      -2127.       2.281      -1275.
        9452       -205.6       620.8      -1171.      -2032.       39.46      -1356.
        9453       -968.7       636.6      -245.6      -1210.       63.39      -1985.
        9454       -1266.       1055.      -7.796      -367.4       188.7      -623.3
        9455       -762.9       1206.       131.2      -597.7       291.2      -615.3
        9456       -849.5       804.8       278.0      -673.2       145.3      -1412.
        9457       -742.9       1189.       64.63      -951.8       493.5      -704.0
        9458       -806.1       1232.      -8.642      -1035.       536.6      -731.5
        9459       -589.1       1561.       59.04      -1184.       722.0      -862.7
        9460       -528.0       1661.      -89.97      -1166.       778.1      -900.4
        9461       -443.7       1700.      -442.3      -1092.       864.4      -1048.
        9462       -434.7       850.3      -472.1      -1496.       300.6      -1540.
        9463       -418.0       1726.      -479.0      -1084.       826.0      -1084.
        9464       -433.3       783.7      -308.3      -1483.       277.5      -1497.
        9465        78.83       1778.      -702.8      -901.1       781.6      -1302.
        9466       -216.0       820.3      -518.9      -1544.       259.3      -1415.
        9467        27.13       1469.      -842.3      -1062.       641.2      -1271.
        9468       -131.1       1304.      -990.7      -603.8       568.7      -1109.
        9469        30.90       1210.      -997.2      -687.6       550.0      -1066.
        9470       -13.36       945.1      -1201.      -573.9       302.9      -722.4
        9471       -45.65       1075.      -1357.      -584.5       106.9      -330.8
        9472        381.1       978.2      -716.5      -1223.       37.64      -185.8
        9473        268.0       918.6      -912.0      -638.8       88.61      -245.2
        9474        257.5       841.7      -780.0      -932.9       55.89      -188.9
        9475        221.3       1028.      -1112.      -754.8       149.4      -451.1
        9476        52.91       861.2      -1086.      -1302.       84.47      -360.5
        9477        25.30       983.9      -1142.      -606.4       254.9      -613.9
        9478        270.1       978.9      -1143.      -851.3       248.3      -630.1
        9479        297.2       886.5      -1153.      -1339.       120.2      -542.7
        9480        362.7       861.8      -1139.      -997.9       125.6      -411.9
        9481        127.1       1130.      -1102.      -559.2       160.0      -461.8
        9482        231.5       839.9      -941.2      -1084.       195.1      -581.1
        9483        175.9       782.6      -1190.      -1404.       158.7      -702.8
        9484        65.84       1012.      -1199.      -591.4       355.9      -823.1
        9485        154.7       808.0      -1219.      -1459.       202.8      -867.9
        9486        100.2       837.9      -1085.      -1157.       245.2      -720.5
        9487        347.5       942.8      -929.5      -978.3       285.0      -756.5
        9488        44.88       1115.      -1096.      -639.0       400.3      -907.4
        9489        249.9       960.9      -1077.      -1010.       333.7      -895.0
        9490        200.5       862.3      -1069.      -1236.       254.2      -898.0
        9491        36.16       1359.      -820.6      -648.5       472.1      -974.0
        9492        158.8       1317.      -941.5      -827.4       458.3      -1008.
        9493        271.2       1044.      -936.3      -1448.       270.3      -1006.
        9494        74.74       1214.      -1135.      -883.7       533.3      -1164.
        9495        227.5       1313.      -996.7      -918.5       474.1      -1104.
        9496        42.28       1013.      -1031.      -1299.       317.7      -1057.
        9497       -74.66       818.4      -1153.      -1493.       207.1      -1103.
        9498        155.5       887.1      -966.6      -1193.       323.1      -1024.
        9499        258.8       1399.      -961.7      -777.7       521.0      -1074.
        9500        361.4       1409.      -1064.      -1007.       491.0      -1221.
        9501        33.12       1000.      -1042.      -1073.       389.5      -1131.
        9502       -107.7       771.2      -1168.      -1520.       252.8      -1181.
        9503        260.9       1657.      -946.7      -952.6       619.6      -1244.
        9504        134.7       964.1      -652.0      -1493.       280.1      -1247.
        9505       -82.97       1351.      -1027.      -725.0       595.7      -1136.
        9506        66.49       1524.      -799.6      -1001.       643.6      -1250.
        9507        103.4       1156.      -760.1      -1105.       502.8      -1244.
        9508        25.48       795.7      -583.7      -1283.       393.0      -1231.
        9509        103.9       1122.      -717.1      -1134.       528.6      -1272.
        9510       -22.51       1016.      -715.4      -1453.       304.0      -1304.
        9511       -74.27       1498.      -813.2      -1044.       734.3      -1279.
        9512        103.5       1208.      -518.2      -1114.       661.2      -1294.
        9513        61.27       906.1      -648.3      -1450.       329.0      -1359.
        9514        150.5       1181.      -772.3      -1587.       273.0      -1419.
        9515      -0.4729       1118.      -698.6      -1288.       433.6      -1315.
        9516        26.25       1343.      -652.2      -1139.       545.9      -1282.
        9517        90.78       1232.      -458.6      -1174.       631.9      -1328.
        9518       -88.45       928.3      -410.2      -1389.       392.8      -1365.
        9519       -49.75       1653.      -498.2      -975.2       801.4      -1204.
        9520       -224.2       856.4      -642.5      -1509.       309.9      -1441.
        9521        9.779       1061.      -621.0      -1313.       507.1      -1371.
        9522        63.32       1604.      -440.6      -929.1       804.7      -1217.
        9523       -232.3       1854.      -574.4      -1035.       805.2      -1189.
        9524       -165.1       1273.      -299.3      -1222.       646.7      -1318.
        9525       -183.2       1038.      -489.4      -1332.       473.7      -1386.
        9526       -166.4       964.7      -514.2      -1505.       306.2      -1455.
        9527       -337.4       1706.      -546.3      -1073.       804.9      -1132.
        9528       -296.8       1390.      -527.9      -1235.       664.0      -1270.
        9529       -251.0       1096.      -396.1      -1473.       283.9      -1462.
        9530       -248.3       1489.      -222.8      -1200.       762.9      -1167.
        9531       -262.5       1207.      -381.0      -1267.       635.4      -1308.
        9532       -343.2       946.7      -411.4      -1411.       405.7      -1423.
        9533       -321.7       995.7      -481.3      -1342.       492.9      -1378.
        9534       -219.5       1598.      -143.6      -1199.       711.6      -1227.
        9535       -153.2       1362.      -120.9      -1235.       685.1      -1213.
        9536       -262.9       1242.      -241.3      -1354.       549.6      -1330.
        9537       -425.5       1521.      -119.0      -1157.       831.5      -965.9
        9538       -163.4       827.9      -184.1      -1482.       321.2      -1544.
        9539       -347.6       1040.      -247.2      -1417.       403.6      -1404.
        9540       -274.5       1353.      -172.3      -1398.       481.9      -1342.
        9541       -393.8       1592.      -317.9      -1122.       855.2      -1009.
        9542       -502.8       1597.      -242.8      -1168.       797.3      -917.7
        9543       -391.9       1433.      -87.11      -1267.       729.8      -1155.
        9544       -231.4       1100.      -151.9      -1391.       446.4      -1385.
        9545       -506.6       1542.       18.58      -1273.       697.8      -1105.
        9546       -592.5       1397.       35.36      -1315.       627.3      -1152.
        9547       -795.6       837.8      -384.4      -1419.       310.2      -1508.
        9548       -677.9       1617.      -107.1      -1170.       745.4      -904.0
        9549       -614.7       1322.      -10.30      -1268.       648.1      -1078.
        9550       -437.1       1193.       35.01      -1347.       411.1      -1341.
        9551       -728.1       1015.      -151.8      -1361.       466.5      -1330.
        9552       -595.2       1517.       53.14      -1266.       684.8      -1047.
        9553       -628.9       1215.       181.6      -1297.       576.8      -1136.
        9554       -697.8       1136.      -40.93      -1286.       547.8      -1176.
        9555       -447.4       905.7      -19.47      -1409.       293.7      -1497.
        9556       -616.2       1277.       73.36      -1260.       618.3      -1016.
        9557       -569.7       920.9      -56.19      -1325.       315.9      -1447.
        9558       -377.5       1009.      -5.031      -1302.       462.9      -1251.
        9559       -854.6       1347.       15.12      -1184.       677.6      -794.7
        9560       -813.5       1348.      -104.5      -1156.       646.9      -752.2
        9561       -746.0       1379.       104.7      -1220.       568.0      -964.6
        9562       -967.7       854.9       155.7      -1266.       397.0      -1305.
        9563       -642.1       737.7      -78.73      -1270.       316.7      -1503.
        9564       -1037.       1456.       50.23      -1105.       598.6      -755.4
        9565       -891.8       1113.       286.1      -1184.       447.3      -1105.
        9566       -839.5       731.0      -95.76      -1196.       374.6      -1304.
        9567       -1073.       1185.       89.33      -1007.       457.5      -881.5
        9568       -973.7       944.5       118.3      -1039.       388.0      -1029.
        9569       -846.5       777.2      -137.6      -1109.       331.9      -1263.
        9570       -896.5       1021.      -27.98      -1198.       266.9      -1525.
        9571       -902.5       1018.       98.34      -1123.       397.7      -1072.
        9572       -907.7       1407.       213.8      -1101.       483.7      -921.5
        9573       -946.9       1007.       346.4      -973.8       377.7      -1010.
        9574       -888.8       828.8       81.29      -1030.       356.4      -1188.
        9575       -1022.       707.9      -371.4      -1096.       240.1      -1488.
        9576       -887.6       1073.       260.9      -848.8       377.0      -851.7
        9577       -1075.       1005.       327.5      -950.0       257.2      -1384.
        9578       -1195.       904.9       68.53      -876.9       359.7      -1028.
        9579       -1142.       1208.      -65.79      -896.8       449.0      -679.6
        9580       -1214.       1193.       43.05      -687.5       335.1      -632.7
        9581       -1124.       851.0       87.86      -771.1       268.2      -1221.
        9582       -691.4       822.5       129.6      -799.5       161.6      -1433.
        9583       -1191.       1127.       198.9      -745.4       344.1      -839.5
        9584       -969.6       1081.       299.0      -646.0       255.0      -1063.
        9585       -886.5       1001.       357.3      -659.9       182.3      -1233.
        9586       -1468.       956.4       71.50      -507.3       237.7      -816.1
        9587       -1014.       997.0       387.5      -514.8       202.5      -1029.
        9588       -969.1       918.4       112.4      -509.1       106.8      -1392.
        9589       -1130.       1099.       309.6      -650.6       310.3      -837.9
        9590       -1239.       953.5       315.1      -425.8       114.1      -992.3
        9591       -1108.       896.6       253.9      -288.7       93.06      -842.6
        9592       -1314.       881.3       427.7      -188.3      0.6272      -1088.
        9593       -889.3       703.1       297.2      -179.1       20.57      -1345.
        9594       -599.1       706.0       97.76      -279.4       65.35      -1313.
        9595       -1605.       810.9       224.5      -250.3       119.9      -621.7
        9596       -1026.       840.6      -18.91      -133.5       71.28      -612.0
        9597        74.65       915.0      -1066.      -801.0       329.9      -803.1
        9598       -272.1       1490.      -117.3      -1305.       660.5      -1233.
        9599       -1262.       784.3       233.7      -155.9       15.90      -838.8
        9600       -1216.       938.1       238.4      -389.6       157.1      -820.4
        9601       -1308.       883.8       161.4      -772.6       330.4      -1029.
        9602       -1209.       1102.       125.7      -939.9       428.1      -861.6
        9603        123.2       962.6      -1094.      -760.2       308.1      -732.8
        9604        218.6       1666.      -929.1      -933.8       567.9      -1220.
        9605       -484.8       1461.      -206.4      -1234.       750.5      -1153.
        9606       -417.4       1252.       163.5      -1295.       557.2      -1140.
        9607       -610.9       1200.       62.17      -1268.       656.1      -1049.
        9608       -910.9       864.3       346.8      -336.7       93.08      -1072.
        9609       -27.90       962.7      -840.4      -1063.       467.4      -1210.
        9610       -120.2       1346.      -559.4      -1171.       675.7      -1333.
        9611       -1613.       960.2      -10.15      -482.9       227.9      -593.9
        9612       -943.9       1221.       78.94      -802.2       372.8      -643.0
        9613       -15.79       1257.      -765.8      -774.3       621.7      -1165.
        9614        7.364       1433.      -745.1      -795.1       678.7      -1192.
        9615        43.00       1504.      -709.2      -841.6       695.4      -1222.
        9616       -20.08       1648.      -736.3      -932.2       743.4      -1215.
        9617        92.40       976.4      -673.1      -1288.       429.8      -1290.
        9618       -6.038       1070.      -558.6      -1248.       510.0      -1318.
        9619       -760.9       1238.       249.7      -1158.       548.6      -933.9
        9620       -84.91       1422.      -790.6      -1096.       705.2      -1330.
        9621       -900.9       1026.       185.3      -1244.       494.9      -1136.
        9622       -935.9       1015.       131.3      -525.3       163.0      -1182.
        9623       -780.3       1075.      -40.29      -1341.       429.8      -1295.
        9624        260.8       998.7      -1130.      -818.3       399.4      -901.1
        9625        306.9       1136.      -859.7      -991.9       410.7      -1017.
        9626       -1234.       819.8       92.99      -899.8       333.3      -1168.
        9627        24.48       975.9      -1179.      -1246.       332.4      -1194.
        9628       -826.6       907.9       313.3      -1001.       325.3      -1127.
        9629       -487.7       1187.      -155.7      -1324.       587.2      -1233.
        9630       -360.6       1323.      -50.60      -1337.       583.1      -1275.
        9631       -516.3       1268.       69.82      -1306.       505.1      -1260.
        9632        58.31       1336.      -591.0      -1157.       574.0      -1272.
        9633       -733.6       983.7       151.3      -1332.       497.2      -1197.
        9634       -459.9       1397.       90.48      -1318.       581.3      -1202.
        9635        710.0      -177.7       996.5      -2379.       59.87      -277.4
        9636        318.7      -444.4       51.51      -2470.       38.46      -476.4
        9637        689.9      -87.80       654.6      -2456.       64.61      -580.1
        9638        927.7       36.31       1120.      -2435.       53.81      -832.1
        9639        727.0      -192.6       1008.      -2401.       84.50      -1011.
        9640        665.8      -310.0       721.5      -2414.       2.901      -1223.
        9641        426.2      -625.8       387.8      -2366.       10.51      -1393.
        9642        1117.      -73.41       1505.      -2335.       50.13      -1532.
        9643        885.2      -303.6       1020.      -2352.       63.69      -1687.
        9644        876.0      -338.5       740.7      -2283.       44.52      -1794.
        9645        750.0      -232.2       573.5      -2217.       52.73      -1912.
        9646        904.6      -530.8       1097.      -2156.       32.58      -2030.
        9647        674.0      -580.8       343.9      -2110.       70.12      -2102.
        9648        238.2      -370.6       449.9      -2014.       50.60      -2138.
        9649        711.1      -329.2       540.6      -1917.       50.23      -2217.
        9650        721.1      -281.9       628.3      -1775.       69.72      -2293.
        9651        938.7      -20.85       990.6      -1678.       85.15      -2344.
        9652        918.2      -322.8       758.7      -1526.       61.80      -2387.
        9653        708.0      -133.4       463.0      -1381.       35.19      -2401.
        9654        653.3      -219.0       660.4      -1234.      -5.623      -2421.
        9655        884.0      -198.1       685.2      -1043.       10.96      -2428.
        9656        1083.      -137.8       801.9      -836.3       49.17      -2478.
        9657        1346.      -201.7       864.2      -664.3       118.9      -2447.
        9658        295.5      -328.7       365.8      -451.6       60.65      -2396.
        9659        824.6      -217.2       698.0      -244.7       38.91      -2430.
        9660        467.2       610.4       1206.      -1715.       30.54      -177.5
        9661        473.4       511.3       735.8      -1773.       67.48      -359.7
        9662        318.3       453.3       484.7      -1778.       73.53      -570.7
        9663        314.9       600.8       768.7      -1807.       79.59      -777.0
        9664        371.8       717.0       921.7      -1837.       145.1      -944.5
        9665        439.9       405.3       542.2      -1818.       208.7      -1081.
        9666        500.0       600.4       859.7      -1842.       168.3      -1240.
        9667        306.8       531.9       488.4      -1860.       193.6      -1387.
        9668        344.6       796.0       266.8      -1841.       197.0      -1489.
        9669        459.0       678.0       745.5      -1837.       221.2      -1557.
        9670        282.8       510.6       316.5      -1880.       214.7      -1664.
        9671        447.9       537.8       493.5      -1883.       232.5      -1712.
        9672        381.9       422.8       475.1      -1871.       206.5      -1769.
        9673        640.0       693.7       561.1      -1869.       186.6      -1828.
        9674        35.25       109.3      -52.30      -1852.       190.2      -1832.
        9675        420.6       736.3       377.9      -1832.       198.6      -1869.
        9676        557.6       628.9       562.2      -1771.       231.1      -1903.
        9677        550.1       574.0       373.0      -1708.       213.9      -1901.
        9678        290.3       529.9       301.3      -1646.       207.8      -1896.
        9679        531.8       638.3       450.2      -1566.       215.0      -1858.
        9680        399.8       466.2       308.5      -1448.       162.8      -1863.
        9681        759.4       511.9       469.1      -1350.       127.8      -1872.
        9682        904.0       477.0       504.0      -1225.       177.4      -1843.
        9683        838.6       428.6       423.4      -1095.       165.7      -1832.
        9684        445.6       579.5       383.0      -946.8       130.1      -1802.
        9685        930.1       686.4       467.5      -748.4       100.5      -1778.
        9686        713.8       374.1       259.2      -559.0       43.99      -1810.
        9687        839.8       451.3       315.8      -365.8       34.44      -1735.
        9688        202.7       442.5       311.2      -199.9       15.89      -1715.
        9689       -152.8       91.66      -292.1      -83.16       45.85      -187.7
        9690       -49.68       352.5      -4.413      -32.72       66.59      -353.6
        9691       -173.8       312.0      -476.1      -49.18       69.84      -510.0
        9692       -185.1       258.6      -345.2      -66.25       115.2      -638.1
        9693       -189.5       440.0      -286.2      -66.47       141.9      -761.6
        9694       -93.52       621.5      -272.5      -83.32       197.1      -856.0
        9695       -47.53       654.3      -288.5      -105.2       210.4      -941.2
        9696       -102.7       1036.      -521.1      -164.8       212.4      -1015.
        9697        15.15       1019.       41.34      -184.7       248.5      -1079.
        9698        97.32       968.5      -54.38      -220.8       276.9      -1092.
        9699        137.6       1114.       177.9      -278.3       270.9      -1112.
        9700        129.5       1207.      -87.17      -330.7       261.0      -1113.
        9701        79.06       1282.      -277.8      -358.6       252.3      -1101.
        9702        82.27       1438.      -102.3      -387.8       271.2      -1065.
        9703        120.7       1525.      -61.99      -539.0       324.4      -1130.
        9704        437.7       1621.       416.6      -513.9       310.8      -1008.
        9705        232.0       1677.       213.7      -558.1       292.5      -985.3
        9706        211.0       1650.       237.4      -631.2       276.9      -918.5
        9707        251.7       1711.       224.2      -706.7       272.5      -843.3
        9708        108.1       1651.       126.5      -763.2       263.6      -784.6
        9709        210.0       1578.       239.8      -830.1       292.3      -725.9
        9710        333.7       1555.       263.3      -890.0       304.7      -655.7
        9711        78.35       1507.       100.3      -920.5       290.8      -603.0
        9712        416.4       1720.       169.2      -953.5       259.6      -537.3
        9713        51.05       1623.      -46.94      -992.5       272.8      -478.8
        9714        259.5       1543.       272.0      -1030.       283.6      -426.2
        9715        57.94       1450.       119.4      -1052.       306.2      -371.6
        9716        70.79       1237.       112.0      -1066.       267.6      -321.6
        9717        47.17       1424.       124.0      -1056.       233.9      -285.2
        9718       -469.6       1219.      -178.5      -1015.       224.8      -247.4
        9719        52.35       944.1      -20.95      -978.1       247.8      -236.8
        9720        46.49       738.4       65.84      -963.3       246.2      -208.5
        9721       -329.7       635.8      -122.7      -891.4       209.6      -177.4
        9722       -151.9       673.0      -48.38      -824.2       179.4      -171.4
        9723       -377.8       502.4      -109.5      -740.5       152.4      -140.2
        9724       -367.0       331.8      -121.1      -663.3       131.6      -133.7
        9725       -439.6       183.3      -242.7      -556.1       88.03      -100.8
        9726       -313.4       503.1       81.86      -437.1       79.28      -97.51
        9727       -471.8       315.1      -28.59      -254.1       60.33      -98.41
        9728       -346.4       318.0      -153.8      -126.7       13.35      -130.0
        9729        617.6      -714.2       518.6      -1685.       17.74      -2250.
        9730        57.19      -1092.       86.62      -1163.      -12.13      -2422.
        9731        407.2      -760.2       465.8      -638.5       53.10      -2491.
        9732        1734.      -798.7       1920.      -201.5      -107.5      -190.1
        9733        288.4      -1035.       9.630      -1018.       7.716      -280.1
        9734        1285.      -430.9       1151.      -2042.      -6.428      -2053.
        9735        1206.      -759.1       1037.      -1159.      -81.16      -234.2
        9736        1647.      -746.1       1745.      -1387.      -54.12      -225.7
        9737        1006.      -661.5       957.0      -2257.       27.97      -1703.
        9738        1201.      -806.2       1108.      -1547.      -56.32      -218.0
        9739        1209.      -684.5       831.5      -1740.      -26.89      -161.7
        9740        561.5      -832.5       535.4      -2375.      0.3396      -1345.
        9741        1409.      -638.7       1656.      -1908.       79.36      -164.7
        9742        727.4      -736.5       436.8      -2032.       45.17      -182.4
        9743        1204.      -806.3       1215.      -2168.      -43.80      -178.6
        9744        383.3      -802.7      -144.6      -2479.       48.59      -576.7
        9745        958.6      -878.5       937.9      -2317.      -45.24      -190.3
        9746        582.8      -913.3       570.3      -2464.      -23.27      -228.0
        9747        1007.      -649.0       780.4      -424.8       77.32      -2488.
        9748        46.72      -741.2       277.3      -778.3       57.41      -2466.
        9749        1236.      -299.1       962.8      -1020.       2.893      -2409.
        9750        812.5      -746.8       671.1      -1333.      -13.89      -2400.
        9751        607.8      -923.5       424.6      -1440.       1.172      -2379.
        9752        842.8      -890.2       746.4      -1604.       22.30      -2308.
        9753        398.6      -777.6       327.4      -1826.       10.88      -2186.
        9754        782.8      -762.3       839.5      -1949.      -11.11      -2130.
        9755        619.3      -817.7       618.0      -2100.       17.64      -1967.
        9756        663.8      -927.2       475.1      -2174.       32.53      -1820.
        9757        453.6      -805.6       349.8      -2298.       32.75      -1664.
        9758        337.5      -1044.       287.7      -2359.       44.79      -1485.
        9759        302.3      -715.3       103.4      -2388.      -42.48      -1220.
        9760        826.8      -774.0       745.7      -2395.       16.34      -981.5
        9761        861.6      -644.6       1505.      -2478.       90.69      -821.8
        9762        551.5      -571.1       882.8      -2433.       22.70      -428.3
        9763        2186.      -649.0       1991.      -193.8     -0.1581      -608.6
        9764        1693.      -819.5       1475.      -168.5       47.58      -794.8
        9765        735.4      -827.7       995.7      -170.4       27.15      -893.4
        9766        1847.      -774.8       1859.      -169.6      -76.09      -993.7
        9767        845.6      -775.4       862.6      -186.4     -0.7907      -1187.
        9768        1615.      -762.0       1697.      -190.8       42.95      -1354.
        9769        1008.      -741.2       1039.      -180.3       3.313      -1509.
        9770        566.3      -626.7       833.7      -229.2      -13.38      -1754.
        9771        1141.      -701.9       1028.      -183.8       66.27      -1899.
        9772        340.0      -666.5       563.1      -196.4       34.20      -2110.
        9773        1052.      -649.1       1181.      -227.7      -58.69      -2220.
        9774        1579.      -775.9       1426.      -214.9      -73.93      -2334.
        9775        1986.      -505.9       2109.      -871.9       70.78      -255.0
        9776        1610.      -759.6       1608.      -741.5       18.78      -275.8
        9777        2197.      -618.8       2051.      -190.6      -40.69      -447.2
        9778        1006.      -835.5       911.9      -1153.      -94.14      -376.5
        9779        892.8      -708.6       793.0      -2283.     -0.3702      -344.6
        9780        849.6      -775.0       852.8      -2368.      -5.380      -369.4
        9781        975.2      -676.6       1055.      -359.4      -104.2      -2202.
        9782        579.0      -935.8       654.4      -312.6       12.57      -1749.
        9783        699.4      -754.8       765.4      -1575.      -28.23      -2163.
        9784        386.3      -915.8       467.8      -2008.     -2.1590E-02  -1860.
        9785        560.6      -780.6       522.8      -2069.      -22.80      -1729.
        9786        1275.      -657.1       1473.      -1872.       6.961      -337.4
        9787        840.1      -831.2       712.7      -2374.       62.98      -757.5
        9788        668.0      -592.2       587.2      -2499.       14.42      -279.9
        9789        1670.      -698.7       1584.      -351.7       89.52      -597.8
        9790        137.5      -895.4       109.2      -1787.      -49.30      -2019.
        9791        1322.      -621.7       1345.      -330.4      -26.94      -881.8
        9792        765.7      -842.3       760.0      -294.0      -33.62      -1173.
        9793        957.2      -835.0       966.9      -718.6       20.71      -2373.
        9794        591.6      -811.5       731.9      -392.4      -82.12      -2305.
        9795        1461.      -799.7       1514.      -392.6      -87.65      -233.4
        9796        1371.      -647.6       1580.      -607.6       48.29      -233.9
        9797        434.7      -792.9       336.2      -1524.      -17.14      -350.7
        9798        835.9      -816.9       834.9      -2209.      -29.40      -1592.
        9799        852.9      -671.1       1025.      -1323.      -38.20      -370.5
        9800        790.2      -743.8       584.4      -2278.      -1.585      -1463.
        9801        744.8      -858.1       613.9      -1734.      -140.4      -365.5
        9802        902.0      -692.0       868.7      -2050.      0.7960      -317.6
        9803        1182.      -719.1       918.8      -2201.      -20.98      -349.7
        9804        1009.      -718.3       964.6      -2350.      -32.26      -1137.
        9805        875.4      -846.0       699.8      -227.7       16.42      -2450.
        9806        389.8      -786.9       506.0      -374.6       96.35      -1922.
        9807        750.2      -929.2       839.1      -314.6       43.60      -1553.
        9808        1461.      -452.8       1730.      -330.8       38.38      -1420.
        9809        1081.      -626.1       1058.      -298.8      -49.46      -981.6
        9810        89.49      -924.2       186.5      -1938.      -55.87      -1941.
        9811        989.8      -544.8       977.8      -2134.      -21.70      -1624.
        9812        902.3      -736.5       866.8      -2309.      -15.92      -1278.
        9813        17.16      -830.4      -286.5      -2340.      -62.13      -938.3
        9814        918.3      -818.2       1247.      -2407.       26.71      -583.4
        9815        406.6      -1007.       276.0      -342.3       76.93      -759.0
        9816        901.2      -680.0       759.3      -1670.      -32.30      -2090.
        9817        594.8      -739.3       650.9      -1514.      -32.05      -2228.
        9818        906.5      -702.8       964.2      -1370.      -11.67      -2298.
        9819        857.6      -630.4       965.2      -1251.      -21.32      -2313.
        9820        651.6      -606.9       752.4      -1107.       64.52      -2329.
        9821        557.5      -923.6       554.5      -947.1       33.71      -2370.
        9822        630.5      -676.7       674.7      -398.7      -35.04      -2043.
        9823        987.3      -752.3       982.8      -562.5      -13.14      -2426.
        9824        745.0      -762.2       794.5      -400.6      -4.682      -2462.
        9825        1041.      -917.3       828.8      -551.2       41.52      -419.6
        9826        855.7      -822.0       979.6      -864.9       93.32      -395.6
        9827        72.33      -829.4       109.6      -1310.      -51.38      -450.2
        9828        743.2      -746.0       718.1      -2154.      -38.32      -1372.
        9829        946.8      -737.6       760.1      -2169.       10.16      -505.4
        9830        667.1      -772.3       671.2      -479.1      -31.26      -1772.
        9831        412.0      -591.0       613.9      -1769.      -108.0      -1833.
        9832       -8.853      -969.8       135.4      -1683.      -140.7      -486.0
        9833        749.6      -710.5       822.2      -2273.       13.12      -543.2
        9834        1849.      -746.3       1871.      -397.0      -23.06      -419.9
        9835        1444.      -773.9       1477.      -498.1      -103.5      -900.6
        9836        1068.      -729.0       1252.      -1877.      -52.93      -1742.
        9837        1107.      -611.9       1572.      -513.7       40.39      -1883.
        9838        896.9      -741.7       887.0      -496.0      -34.50      -2260.
        9839        1525.      -672.9       1596.      -1001.       49.70      -376.5
        9840        409.2      -926.7       344.5      -504.4      -65.23      -1225.
        9841        158.6      -749.2       317.6      -1174.       23.13      -2205.
        9842        381.8      -830.2       560.1      -1477.      -30.44      -2176.
        9843        1123.      -613.4       1021.      -2043.      -65.21      -457.7
        9844        1269.      -583.8       1499.      -486.0       9.470      -1597.
        9845        2025.      -622.2       2111.      -763.6       27.86      -376.7
        9846        1192.      -802.8       1331.      -1942.      -41.55      -1626.
        9847        1769.      -414.4       1820.      -1484.       4.634      -521.9
        9848        610.8      -831.3       676.3      -2087.      -25.30      -1498.
        9849        195.3      -927.0       105.4      -2264.      -64.57      -1052.
        9850        418.7      -819.8       429.3      -1864.      -153.8      -466.7
        9851        873.8      -865.0       810.1      -2253.      -7.995      -687.4
        9852        1185.      -795.0       1332.      -2271.       9.623      -884.8
        9853        1708.      -427.6       1554.      -532.9      -27.87      -2058.
        9854        557.7      -846.0       585.0      -1429.      -15.32      -2086.
        9855        782.5      -736.4       787.7      -480.5       12.94      -1411.
        9856        311.5      -940.5       291.4      -1650.      -85.62      -1914.
        9857        1075.      -730.5       1099.      -503.4      -21.37      -1026.
        9858        763.8      -572.1       918.5      -1999.      -39.39      -1507.
        9859        747.9      -769.3       701.0      -2193.      -78.70      -1234.
        9860        1668.      -573.7       1521.      -492.1       40.51      -748.4
        9861        745.8      -781.2       682.8      -1582.      -37.98      -2006.
        9862        381.7      -786.8       535.3      -1294.       1.043      -2182.
        9863        292.6      -655.3       594.7      -1034.       40.93      -2217.
        9864        1278.      -559.2       1284.      -515.2      -70.41      -2139.
        9865        1115.      -647.0       1009.      -854.4       39.46      -2274.
        9866        1223.      -497.9       1247.      -692.2     -0.9808      -699.8
        9867        859.1      -835.3       767.2      -904.0       120.1      -433.6
        9868        1308.      -623.6       1165.      -1600.       11.54      -758.0
        9869        1528.      -576.5       1237.      -1375.      -7.971      -644.0
        9870        1674.      -503.9       1452.      -585.8      -36.70      -1631.
        9871        1212.      -801.0       1273.      -1742.      -41.14      -734.1
        9872        647.9      -819.5       653.5      -1747.      -51.25      -1618.
        9873        1153.      -685.2       1121.      -2146.       4.734      -644.4
        9874        1407.      -699.3       1354.      -625.0      -24.10      -1064.
        9875        500.9      -811.5       763.9      -576.0      -30.61      -1810.
        9876        644.0      -956.0       727.6      -806.3      -47.75      -2131.
        9877        1044.      -656.6       1081.      -630.1      -61.42      -1982.
        9878        1343.      -930.2       1418.      -509.0       81.14      -457.9
        9879        462.9      -915.0       591.8      -998.0       39.95      -469.9
        9880        1068.      -844.4       881.1      -1893.      -220.7      -658.0
        9881        626.6      -848.8       627.4      -1129.       14.41      -2075.
        9882        247.7      -996.4       428.5      -1826.      -35.12      -1509.
        9883        720.0      -763.2       445.1      -1130.      -134.8      -411.5
        9884        595.5      -761.2       585.3      -1373.      -66.54      -1990.
        9885        766.5      -718.5       539.5      -2027.      -154.0      -632.9
        9886        1097.      -907.5       1341.      -589.6      -49.42      -1437.
        9887        752.5      -792.5       894.2      -1971.      -26.05      -1413.
        9888        884.2      -641.6       799.8      -2016.      -37.71      -1311.
        9889        496.0      -858.0       404.8      -2142.      -78.42      -981.3
        9890        461.7      -798.8       187.2      -2188.      -51.13      -811.6
        9891        907.7      -749.7       781.7      -633.3      -62.03      -1883.
        9892        599.5      -834.2       422.4      -1553.      -117.2      -1830.
        9893        749.8      -798.2       908.8      -587.0      -17.22      -1263.
        9894        952.1      -534.7       1061.      -1648.      -105.9      -1741.
        9895        1383.      -761.1       1025.      -602.1      -70.68      -880.0
        9896        449.3      -861.6       538.7      -1906.      -26.06      -1459.
        9897        1004.      -630.4       915.5      -2090.      -57.35      -1148.
        9898        1618.      -908.1       1786.      -760.0       174.5      -438.6
        9899        798.3      -556.2       1142.      -1481.      -83.54      -1907.
        9900        963.7      -910.3       860.2      -959.5      -30.10      -2115.
        9901        717.1      -975.7       834.0      -646.3      -2.580      -2136.
        9902        1161.      -781.0       1193.      -888.8      -96.57      -992.8
        9903        1841.      -541.7       1559.      -774.2      -52.57      -1478.
        9904        1431.      -655.5       1374.      -1476.      -44.21      -859.9
        9905        749.3      -704.5       710.8      -1237.      -15.16      -1994.
        9906        1637.      -794.2       1579.      -945.6      -67.50      -2026.
        9907        796.8      -885.0       917.1      -1724.      -40.73      -1392.
        9908        2049.      -428.2       2127.      -971.9       111.3      -584.1
        9909        793.6      -770.7       800.4      -757.4       11.62      -1685.
        9910        987.0      -642.6       1028.      -1884.      -23.35      -1229.
        9911        1045.      -704.4       1062.      -1831.      -23.63      -1290.
        9912        1334.      -601.2       1494.      -1156.      -69.30      -583.1
        9913        1197.      -802.2       1145.      -773.9      -95.65      -1981.
        9914        1176.      -559.4       1175.      -1787.      -44.40      -904.5
        9915        148.6      -928.6       34.20      -1305.       6.884      -567.0
        9916        956.8      -493.0       1158.      -1443.      -96.58      -1704.
        9917        560.6      -742.7       360.5      -2044.      -81.54      -804.1
        9918        853.0      -649.8       919.7      -835.4      -85.36      -1379.
        9919        627.4      -713.2       533.8      -2001.       13.38      -974.7
        9920        1209.      -629.0       1070.      -1912.      -73.69      -819.8
        9921        923.2      -634.6       1214.      -761.8      -57.66      -1892.
        9922        1008.      -692.2       801.7      -1530.      -117.5      -1597.
        9923        983.5      -816.9       993.7      -951.6      -88.53      -1225.
        9924        663.1      -882.2       666.3      -1643.      -79.21      -1493.
        9925        697.0      -973.2       580.9      -816.8       25.75      -801.3
        9926        999.6      -688.1       1002.      -1774.      -15.85      -1367.
        9927        894.7      -634.1       763.8      -1938.       14.06      -1118.
        9928        1361.      -569.6       1007.      -837.7       112.2      -655.0
        9929        664.3      -542.4       898.4      -1362.      -78.77      -1840.
        9930        613.7      -823.0       681.8      -933.8      -34.93      -1804.
        9931        951.3      -659.3       875.3      -1766.       40.96      -1214.
        9932        901.7      -760.0       966.4      -1730.       12.99      -1109.
        9933        1442.      -894.3       1711.      -1105.       37.67      -714.8
        9934        610.3      -703.6       410.3      -1928.       21.58      -964.0
        9935        557.1      -772.5       600.0      -1456.      -77.61      -1461.
        9936        833.7      -719.4       507.9      -1070.      -60.83      -1328.
        9937        2056.      -648.9       2121.      -973.7       9.511      -737.2
        9938        523.8      -813.9       998.1      -999.5      -68.15      -1449.
        9939        762.2      -750.4       791.4      -1548.      -62.17      -1373.
        9940        875.9      -833.8       674.3      -1322.      -15.33      -789.1
        9941        1301.      -556.4       1551.      -974.7      -1.489      -1612.
        9942        1060.      -808.5       1106.      -976.8      -81.67      -1163.
        9943        1480.      -796.9       1477.      -1200.       12.31      -1395.
        9944        446.6      -779.7       264.5      -1428.      -47.24      -932.3
        9945        937.2      -844.3       868.1      -1308.      -20.58      -1387.
        9946        381.0      -1006.       240.9      -1179.      -34.46      -1717.
        9947       -186.8      -880.1       8.241      -1219.      -19.00      -1510.
        9948        1947.      -654.6       2149.      -1039.      -48.24      -927.2
        9949        951.8      -789.6       955.0      -1184.      -37.59      -1273.
        9950        853.7      -812.2       955.8      -1634.       12.78      -1167.
        9951        1049.      -735.4       1117.      -1697.       4.073      -1267.
        9952        719.2      -766.9       797.7      -1571.      -20.66      -1020.
        9953        1187.      -770.8       1262.      -1305.       18.48      -1215.
        9954        1803.      -669.0       1795.      -1141.       26.18      -1048.
        9955        876.0      -678.5       745.4      -1564.       23.08      -1228.
        9956        739.3      -794.4       709.9      -1497.      -9.790      -1085.
        9957        941.0      -707.2       757.7      -235.4       33.76      -2493.
        9958        671.0      -842.1       705.2      -681.4       2.091      -2260.
        9959        305.2      -852.6       506.1      -1270.       2.106      -2072.
        9960        1051.      -756.9       1143.      -1671.      -5.939      -970.7
        9961        584.1      -760.4       522.5      -1841.       32.95      -1061.
        9962        1068.      -1024.       1037.      -1204.       53.88      -859.3
        9963        839.7      -729.8       620.7      -1096.      -28.21      -2019.
        9964        293.8      -867.0       621.6      -704.3       7.259      -1825.
        9965        1249.      -711.2       874.1      -1329.       71.55      -1018.
        9966        264.8      -801.1       542.1      -1284.      -74.22      -1921.
        9967        743.1      -743.9       819.8      -1138.      -49.43      -1857.
        9968        590.0      -711.6       681.3      -1237.      -82.35      -1889.
        9969       -270.9      -756.3      -323.3      -1404.      -23.99      -1343.
        9970        1431.      -711.1       1174.      -1406.       43.11      -1141.
        9971        1315.      -694.2       1237.      -1485.       13.79      -1296.
        9972        739.1      -689.4       732.0      -1849.       33.89      -1175.
        9973        639.6      -972.6       892.9      -1634.      -26.94      -1315.
        9974        636.4      -841.3       526.5      -1300.      -70.17      -1767.
        9975        1091.      -416.8       1221.      -1375.      -23.95      -1568.
        9976        448.7       381.2       318.2      -1445.       115.2      -2073.
        9977        202.5       441.5       180.6      -1786.       184.5      -2121.
        9978        604.2       288.4       640.6      -2020.       155.8      -1980.
        9979        388.8       356.7       370.6      -2064.       164.1      -1949.
        9980        333.9       310.4       203.0      -2113.       193.9      -1721.
        9981        510.5       344.1       842.7      -1991.      -5.451      -194.9
        9982        491.1      -53.47       810.6      -2312.       14.64      -410.5
        9983        411.0       118.3       625.0      -2222.       47.30      -712.9
        9984        192.3       10.59       590.9      -2216.       83.01      -915.0
        9985        419.9      -50.08       408.3      -2351.       78.59      -1255.
        9986        544.0       333.5       520.7      -2150.       141.2      -1139.
        9987        348.5       303.3       479.9      -2275.       130.1      -1327.
        9988        454.9       457.5       457.7      -2039.       153.2      -1516.
        9989        87.97      -266.9      -33.25      -2262.       74.28      -1555.
        9990        320.6      -60.11       518.2      -2334.       6.687      -1430.
        9991        336.5       496.9       538.6      -2072.       143.7      -1409.
        9992        409.8       466.6       418.4      -2082.       135.8      -1597.
        9993        571.9      -54.10       603.1      -2280.       112.5      -1726.
        9994        416.7       487.7       784.9      -2098.       165.8      -1800.
        9995        661.7      -32.22       587.6      -2234.       109.1      -1848.
        9996        452.9       152.7       441.7      -2066.       156.0      -1865.
        9997        559.1      -15.99       389.2      -2195.       115.8      -1933.
        9998        377.4       246.2       404.2      -2099.       112.5      -2093.
        9999        416.7      -206.2       90.91      -2160.       108.0      -2028.
       10000        370.1       64.88       258.3      -1880.       174.4      -2086.
       10001        780.3      -124.5       553.6      -1951.       101.9      -2213.
       10002        424.4      -42.64       359.9      -2030.       106.6      -2151.
       10003        342.6       381.9       384.5      -1941.       168.0      -2029.
       10004        662.6      -128.1       541.5      -1805.       130.0      -2280.
       10005        530.8       357.0       483.1      -1583.       149.1      -2105.
       10006        374.6      -94.92       438.6      -1716.       119.1      -2282.
       10007        371.6       465.0       310.8      -1693.       154.7      -2139.
       10008        761.4      -133.9       454.1      -1561.       98.64      -2275.
       10009        782.4       284.2       502.4      -1163.       117.3      -2110.
       10010        763.4       26.61       563.9      -1395.       55.42      -2263.
       10011        432.2       551.3       506.2      -1023.       145.2      -2131.
       10012        1322.       94.78       845.6      -820.7       78.76      -2375.
       10013        378.0      -151.4       187.6      -598.3       45.95      -2329.
       10014        734.5       546.4       580.8      -229.2       14.72      -2004.
       10015        923.0       219.1       675.2      -415.8       12.63      -2275.
       10016        393.5       246.9       515.2      -2085.       23.92      -374.7
       10017        949.6       528.0       476.1      -386.0       31.57      -2054.
       10018        338.1       376.0       575.4      -2094.       144.6      -1290.
       10019        668.0       300.7       367.6      -771.8       91.26      -2133.
       10020        374.4       165.2       519.8      -2213.       25.58      -227.8
       10021        955.3       207.4       595.0      -250.1       37.21      -2263.
       10022        612.4       289.7       469.9      -570.1       21.12      -2100.
       10023        436.1       398.8       480.8      -1394.       102.1      -2003.
       10024        793.5      -94.35       485.2      -1053.       99.37      -2354.
       10025        581.1       75.48       535.6      -1226.       57.83      -2310.
       10026        552.1      -149.4       908.6      -2344.       128.4      -1027.
       10027        514.1       461.2       540.4      -2035.       75.46      -593.5
       10028        345.8       354.6       505.3      -2234.       87.66      -1427.
       10029        531.1       325.1       404.5      -2172.       138.1      -1522.
       10030        619.3       414.9       521.8      -1315.       115.0      -2082.
       10031        95.13       596.2      -16.15      -427.9       101.2      -394.2
       10032       -77.56       679.1       57.89      -695.6       160.5      -416.2
       10033        721.4       715.4       235.9      -744.0       109.0      -1512.
       10034        154.9       993.7       24.64      -1054.       328.7      -580.7
       10035       -87.21       1241.      -5.780      -1100.       313.3      -632.5
       10036        247.2       1059.       159.5      -1299.       414.2      -843.6
       10037        220.9       1326.       208.1      -1275.       401.6      -953.5
       10038        259.8       1285.       242.5      -1231.       461.7      -1158.
       10039        399.1       619.2       328.5      -1699.       276.2      -1719.
       10040        275.9       1295.       261.3      -1197.       437.0      -1208.
       10041        291.3       1143.       404.3      -1693.       257.8      -1676.
       10042        284.1       1227.       428.2      -931.6       465.6      -1377.
       10043        430.4       802.1       453.3      -1690.       247.3      -1598.
       10044        231.8       976.6       443.4      -1074.       420.5      -1363.
       10045        17.89       941.0       56.39      -546.6       365.6      -1215.
       10046        104.9       935.5       248.6      -586.9       336.8      -1145.
       10047        36.27       734.8       143.6      -342.5       222.3      -720.9
       10048       -129.1       636.0      -13.71      -219.7       95.64      -354.3
       10049        276.8       598.1       781.7      -1311.       59.40      -173.2
       10050       -7.736       679.7       238.5      -440.7       53.15      -224.3
       10051        292.5       810.5       384.0      -877.1       60.37      -202.1
       10052        110.5       685.8       152.3      -643.7       116.9      -454.9
       10053        340.8       577.2       688.2      -1354.       93.44      -392.7
       10054       -8.875       646.2       78.41      -353.8       163.6      -598.2
       10055        168.9       696.7       354.3      -749.8       166.9      -650.9
       10056        343.9       355.4       653.6      -1393.       114.1      -555.8
       10057        260.9       708.8       393.8      -969.3       110.7      -428.0
       10058        23.57       668.6       136.7      -317.2       107.5      -470.2
       10059        295.4       816.7       410.5      -1074.       142.4      -607.8
       10060        311.7       651.7       581.8      -1489.       116.4      -771.5
       10061        37.60       803.4       195.5      -379.4       251.1      -853.8
       10062        405.5       774.3       320.8      -1548.       182.4      -965.0
       10063        257.3       745.0       524.4      -1195.       172.0      -794.2
       10064        204.0       786.6       455.5      -916.6       198.6      -833.6
       10065        81.94       799.8       51.70      -429.6       271.3      -958.8
       10066        274.2       899.7       383.9      -967.9       228.8      -983.3
       10067        334.9       788.2       397.0      -1263.       195.9      -983.5
       10068        101.5       1046.       67.46      -530.6       298.5      -1059.
       10069        216.3       938.3       291.4      -737.8       275.3      -1074.
       10070        564.7       721.8       518.5      -1533.       251.4      -1118.
       10071        118.4       901.3      -69.16      -802.1       347.2      -1231.
       10072        228.7       854.4       387.7      -919.3       318.1      -1171.
       10073        283.9       730.9       682.7      -1381.       284.5      -1197.
       10074        291.8       725.6       375.3      -1591.       208.7      -1213.
       10075        264.6       598.2       408.5      -1243.       248.4      -1145.
       10076        192.9       991.6       239.4      -713.9       323.2      -1125.
       10077        123.4       891.4       113.2      -1011.       314.3      -1309.
       10078        374.1       865.4       782.1      -1099.       271.4      -1238.
       10079        392.3       651.6       570.1      -1619.       238.5      -1368.
       10080        109.1       1023.       161.4      -907.6       362.9      -1338.
       10081        382.0       694.1       547.0      -1605.       239.3      -1440.
       10082        135.6       1047.       188.0      -640.6       393.1      -1232.
       10083        245.6       1048.       372.6      -972.7       381.9      -1348.
       10084        126.4       679.8       138.6      -1154.       331.5      -1368.
       10085        367.5       650.3       675.6      -1384.       290.5      -1396.
       10086        287.6       915.8       368.6      -1186.       367.5      -1411.
       10087        251.2       688.9       428.5      -1588.       269.8      -1490.
       10088        333.1       1187.       326.0      -1020.       434.2      -1345.
       10089        267.7       970.9       524.7      -1179.       420.2      -1386.
       10090        325.0       665.3       575.2      -1560.       294.9      -1528.
       10091        320.6       763.5       299.0      -1723.       266.2      -1600.
       10092        224.8       573.0       674.8      -1390.       343.0      -1476.
       10093        321.9       963.9       420.8      -1232.       387.5      -1429.
       10094        319.7       1018.       468.1      -1272.       396.2      -1433.
       10095        295.5       844.7       372.0      -1533.       304.5      -1545.
       10096        329.8       1496.       271.5      -1043.       444.5      -1323.
       10097        465.0       768.1       406.1      -1684.       306.1      -1633.
       10098        227.6       720.7       414.4      -1449.       370.6      -1521.
       10099        297.4       1253.       311.6      -982.2       448.2      -1348.
       10100        164.8       1091.       207.7      -1130.       450.1      -1288.
       10101        272.8       1265.       176.2      -1292.       400.7      -1386.
       10102        494.4       856.6       364.7      -1484.       358.1      -1539.
       10103        533.1       800.4       386.0      -1662.       295.0      -1658.
       10104        239.5       1302.       185.3      -1176.       431.5      -1251.
       10105        296.7       1236.       263.0      -1290.       379.5      -1353.
       10106        306.0       1008.       311.2      -1663.       276.1      -1663.
       10107        259.8       1139.       249.6      -1265.       427.9      -1226.
       10108        354.8       910.1       316.9      -1360.       394.2      -1417.
       10109        316.6       996.2       307.0      -1572.       340.1      -1569.
       10110        304.9       837.9       283.2      -1475.       350.6      -1500.
       10111        363.6       1238.       234.7      -1255.       415.6      -1301.
       10112        273.5       899.1       268.7      -1314.       425.5      -1302.
       10113        315.8       827.1       147.3      -1473.       383.5      -1465.
       10114        410.1       1157.       243.5      -1262.       436.3      -1059.
       10115        470.4       670.0       400.3      -1664.       313.8      -1728.
       10116        297.1       812.9       252.4      -1579.       335.5      -1599.
       10117        318.8       1025.       379.3      -1547.       382.0      -1504.
       10118        312.5       1199.       325.4      -1253.       470.8      -1102.
       10119        373.3       1428.       317.3      -1272.       414.1      -1013.
       10120        402.3       1037.       341.5      -1320.       414.3      -1171.
       10121        321.7       707.0       192.4      -1550.       380.3      -1547.
       10122        205.9       1201.       222.5      -1343.       409.9      -1133.
       10123        306.2       985.9       189.1      -1419.       420.3      -1215.
       10124        309.4       611.2       297.7      -1623.       285.8      -1694.
       10125        551.7       1342.       599.5      -1291.       402.2      -907.8
       10126        167.3       1147.       292.9      -1363.       387.0      -1097.
       10127        393.7       861.1       424.5      -1515.       347.0      -1508.
       10128        482.7       797.6       216.4      -1520.       371.9      -1477.
       10129        301.0       1180.       211.1      -1340.       379.6      -1078.
       10130        221.2       929.4       198.3      -1430.       369.5      -1185.
       10131        268.2       949.8       297.2      -1427.       387.7      -1261.
       10132        530.3       786.4       467.8      -1561.       270.4      -1667.
       10133        264.4       855.5       94.73      -1321.       383.2      -953.5
       10134        501.5       779.2       341.4      -1491.       272.4      -1586.
       10135        227.6       815.4       371.8      -1423.       328.9      -1360.
       10136        135.2       1138.       97.47      -1266.       407.2      -778.7
       10137        191.7       1114.       166.6      -1205.       380.5      -724.3
       10138        270.7       981.9       187.1      -1268.       367.4      -933.2
       10139        280.5       963.4       302.5      -1384.       295.9      -1407.
       10140        293.8       613.5       220.7      -1424.       227.7      -1642.
       10141       -73.70       1027.      -35.68      -1149.       339.2      -664.9
       10142        418.4       699.2       201.4      -1275.       327.2      -1141.
       10143        469.4       712.9       302.7      -1298.       300.2      -1385.
       10144        349.3       1063.       225.5      -1110.       272.3      -820.1
       10145        291.2       797.4       310.9      -1130.       264.4      -1069.
       10146        612.3       530.8       223.5      -1213.       268.9      -1342.
       10147        773.6       758.8       529.5      -1322.       226.4      -1642.
       10148        548.2       950.5       387.7      -1201.       272.5      -1111.
       10149        334.6       1000.       262.8      -1165.       284.5      -853.5
       10150        191.7       681.7       202.1      -1044.       240.1      -1013.
       10151        496.8       773.7       426.2      -1139.       249.8      -1276.
       10152        823.6       728.0       521.8      -1213.       228.4      -1584.
       10153        403.8       816.7       200.6      -922.2       204.6      -774.9
       10154        604.8       554.3       226.6      -1050.       205.6      -1505.
       10155        316.4       779.6       311.7      -947.3       209.7      -1003.
       10156       -93.97       806.6      -20.09      -968.6       279.4      -529.2
       10157       -56.65       668.1       41.46      -782.6       184.4      -468.2
       10158        597.9       745.9       318.9      -833.2       182.4      -1285.
       10159        763.2       644.2       361.5      -882.2       144.8      -1532.
       10160        294.5       809.5       202.4      -826.1       175.9      -749.4
       10161        138.8       767.7       245.7      -706.3       155.9      -1019.
       10162        271.2       815.1       260.8      -710.0       147.7      -1281.
       10163        318.0       769.8       182.0      -583.2       135.5      -722.2
       10164        303.7       722.2       205.1      -579.9       149.5      -995.0
       10165        567.7       600.5       353.2      -564.7       81.41      -1487.
       10166        316.9       751.6       166.4      -712.2       145.4      -719.0
       10167        217.3       716.1       231.8      -452.5       95.82      -970.8
       10168        385.6       678.9       251.9      -311.7       74.22      -765.9
       10169        462.8       517.0       190.5      -176.8       40.37      -1060.
       10170        312.7       594.9       192.3      -184.7       13.15      -1379.
       10171        1005.       615.3       463.8      -363.7       44.16      -1420.
       10172        280.0       658.7       22.96      -272.0       79.07      -416.1
       10173        278.4       773.4       39.52      -113.8       28.31      -395.1
       10174        121.4       787.2       288.2      -666.4       213.0      -861.3
       10175        225.7       1014.       176.3      -1379.       404.0      -1310.
       10176        493.9       482.8       66.47      -150.0       42.11      -743.7
       10177       0.4292       746.8       95.88      -436.0       101.4      -730.4
       10178        382.8       786.7       315.1      -830.2       183.3      -1026.
       10179        107.9       841.3       256.3      -1014.       243.6      -787.0
       10180        111.2       776.2       197.1      -617.3       205.2      -774.2
       10181        170.5       1000.       238.8      -854.7       334.7      -1302.
       10182        403.6       1064.       275.1      -1296.       430.0      -1185.
       10183        138.0       974.6       200.0      -1384.       364.7      -1164.
       10184        236.2       890.8       156.6      -1371.       368.2      -1000.
       10185        320.8       747.6       327.3      -377.9       81.25      -1087.
       10186        213.7       911.5       85.83      -1100.       300.6      -1324.
       10187        460.4       1176.       411.6      -1228.       421.4      -1426.
       10188        137.2       773.1       33.88      -584.7       110.0      -380.1
       10189        264.0       888.2       160.7      -880.4       231.8      -506.8
       10190        112.5       1065.       182.9      -696.8       377.4      -1269.
       10191        84.69       1070.       118.5      -747.1       405.3      -1297.
       10192        147.2       1259.       71.83      -798.7       409.0      -1303.
       10193        188.3       1168.       203.0      -891.5       419.9      -1291.
       10194        163.7       643.9       349.1      -1393.       318.2      -1447.
       10195        306.4       872.7       411.7      -1388.       366.4      -1482.
       10196        292.2       831.1       116.9      -1211.       329.0      -902.1
       10197        330.9       1349.       291.5      -1104.       434.7      -1389.
       10198        677.8       968.5       247.1      -1346.       347.6      -1163.
       10199        307.2       762.7       434.2      -557.0       134.1      -1207.
       10200        325.4       828.8       262.8      -1499.       336.2      -1420.
       10201        190.8       839.7       254.2      -705.4       245.9      -978.9
       10202        266.7       698.9       309.0      -983.2       247.4      -1105.
       10203        586.5       730.5       317.7      -980.4       208.5      -1218.
       10204        214.2       648.6      -22.00      -1319.       258.2      -1345.
       10205        351.4       689.6       231.4      -1087.       234.5      -1165.
       10206        141.3       999.0       249.6      -1445.       403.1      -1303.
       10207        100.4       1063.       197.5      -1448.       410.8      -1362.
       10208        359.6       948.6       380.6      -1445.       378.6      -1390.
       10209        281.6       1001.       452.1      -1266.       409.0      -1405.
       10210       -321.3       1058.       104.9      -1461.       375.5      -1303.
       10211        324.4       929.1       333.8      -1425.       398.9      -1305.
       10212        2532.       2.753       5434.      -1981.       100.4      -184.0
       10213        2472.      -420.4       4555.      -1944.       111.3      -361.2
       10214        2960.       45.30       5637.      -1966.       98.87      -591.7
       10215        2838.      -25.88       5085.      -1965.       162.6      -707.1
       10216        2913.       15.63       4964.      -1992.       216.8      -873.7
       10217        2699.       23.73       4483.      -1957.       239.6      -1007.
       10218        2712.      -274.5       4429.      -1959.       279.4      -1203.
       10219        2803.      -252.5       4305.      -1950.       348.6      -1283.
       10220        2998.      -185.1       4136.      -1918.       349.4      -1393.
       10221        3386.      -39.53       4281.      -1892.       266.0      -1526.
       10222        2960.      -107.6       3538.      -1851.       287.5      -1603.
       10223        3520.      -136.1       3782.      -1833.       375.7      -1653.
       10224        3552.      -33.42       3620.      -1742.       341.9      -1748.
       10225        3331.      -167.3       3085.      -1690.       328.4      -1818.
       10226        4177.       35.68       3682.      -1596.       308.3      -1849.
       10227        4457.      -108.5       3449.      -1493.       316.7      -1885.
       10228        4007.      -263.6       2997.      -1385.       330.2      -1920.
       10229        4045.      -201.6       2583.      -1269.       278.2      -1956.
       10230        4311.      -151.0       2779.      -1169.       227.2      -1979.
       10231        4442.      -94.02       2725.      -990.0       167.5      -1976.
       10232        4732.       12.58       3048.      -880.9       123.3      -1959.
       10233        4843.      -90.85       2793.      -780.8       161.9      -1958.
       10234        4948.      -130.7       2962.      -598.9       174.4      -1978.
       10235        5455.      -126.2       2611.      -400.0       129.2      -2003.
       10236        5123.      -149.6       2397.      -184.1       74.16      -2003.
       10237        1151.       174.1       3704.      -1351.       51.21      -164.0
       10238        988.4       241.7       3893.      -1412.       68.66      -334.6
       10239        1208.       47.31       3948.      -1469.       153.0      -493.7
       10240        1370.       375.5       3640.      -1497.       161.0      -671.7
       10241        1306.       296.5       3743.      -1524.       161.3      -754.0
       10242        1326.       203.2       3860.      -1511.       188.6      -915.2
       10243        1447.       254.6       3519.      -1533.       228.7      -1039.
       10244        1613.       160.2       3609.      -1528.       229.2      -1122.
       10245        1513.       175.9       3093.      -1567.       177.8      -1263.
       10246        1733.       276.7       3210.      -1562.       219.0      -1318.
       10247        1762.       187.9       2803.      -1594.       266.7      -1391.
       10248        1705.       129.9       2454.      -1584.       217.0      -1470.
       10249        1971.       352.6       2619.      -1583.       242.4      -1496.
       10250        2226.       272.7       2587.      -1573.       239.3      -1551.
       10251        2060.       79.17       1857.      -1585.       262.0      -1567.
       10252        2768.       298.2       2602.      -1537.       244.9      -1578.
       10253        2289.       192.9       1779.      -1493.       251.6      -1590.
       10254        2607.       272.7       1818.      -1465.       272.0      -1617.
       10255        2886.       274.4       1863.      -1372.       284.5      -1612.
       10256        2779.       269.7       1607.      -1280.       233.8      -1581.
       10257        2931.       334.4       1592.      -1204.       173.0      -1578.
       10258        3340.       134.3       1502.      -1077.       152.4      -1553.
       10259        3669.       256.7       1566.      -977.5       152.4      -1531.
       10260        3572.       343.0       1387.      -878.9       173.8      -1508.
       10261        3641.       286.2       1280.      -811.3       191.7      -1493.
       10262        3935.       263.6       1240.      -655.8       91.87      -1489.
       10263        3981.       275.0       1377.      -532.2       37.97      -1463.
       10264        3823.       268.6       1379.      -373.4       34.74      -1411.
       10265        4019.       237.8       1306.      -201.7       35.20      -1364.
       10266       -56.34      -3.180       2155.       9.497      -43.18      -116.8
       10267       -90.24       33.21       2013.       26.43      -80.09      -204.4
       10268       -58.44       87.76       2118.       23.71      -95.62      -325.6
       10269       -80.48      -1.759       2042.       34.31      -111.7      -424.2
       10270       -71.35       107.9       1836.       20.73      -121.4      -488.6
       10271       -29.89       148.0       1924.       17.47      -135.4      -577.3
       10272        16.80       275.7       1834.       33.97      -167.9      -625.5
       10273        2.936       291.3       1940.       16.87      -189.3      -658.8
       10274        46.95       416.4       1710.       32.72      -204.2      -675.6
       10275        162.1       327.3       1906.       10.74      -239.5      -681.2
       10276        140.7       476.7       1480.      -15.04      -241.1      -697.3
       10277        226.4       526.3       1479.      -35.77      -251.1      -697.9
       10278        279.2       442.2       1401.      -65.26      -288.6      -684.8
       10279        241.1       479.9       1308.      -96.96      -313.7      -663.8
       10280        350.9       609.5       1148.      -194.5      -328.4      -700.0
       10281        396.6       693.3       1111.      -164.7      -350.2      -568.4
       10282        391.6       621.4       916.8      -204.0      -346.5      -541.2
       10283        498.6       676.1       960.8      -268.4      -361.4      -507.4
       10284        665.5       720.4       917.9      -315.9      -380.9      -447.2
       10285        631.8       731.2       748.5      -378.6      -387.2      -390.1
       10286        741.7       680.3       735.7      -423.2      -383.8      -319.0
       10287        977.0       660.9       664.9      -457.1      -380.6      -286.9
       10288        917.7       562.5       488.3      -495.7      -373.0      -243.9
       10289        1186.       644.4       492.9      -519.6      -360.2      -209.0
       10290        1174.       539.9       364.9      -579.7      -353.9      -164.0
       10291        1040.       596.1       264.0      -589.8      -351.0      -113.5
       10292        1424.       526.2       355.8      -629.1      -353.2      -97.64
       10293        1444.       449.2       260.3      -654.3      -331.4      -85.18
       10294        1449.       420.6       228.6      -645.6      -288.8      -55.54
       10295        1459.       280.7       116.5      -660.0      -267.6      -32.74
       10296        1448.       359.6       160.8      -645.3      -256.8      -1.146
       10297        1533.       243.0       37.73      -611.6      -221.7      -6.949
       10298        1764.       330.7       118.0      -578.8      -182.0      -22.58
       10299        1596.       176.6      -78.21      -516.0      -170.8      -11.10
       10300        2047.       246.0       56.91      -489.2      -162.5      -17.47
       10301        1752.       185.2      -28.52      -416.7      -143.6      -5.953
       10302        1930.       109.7       9.706      -349.3      -107.1      -10.38
       10303        1970.       64.82      -42.56      -237.3      -88.65      -13.59
       10304        1879.      -67.23      -79.31      -175.8      -66.77      -14.98
       10305        2074.       55.50      -90.86      -89.62      -37.30      -28.72
       10306        4242.      -469.5       3438.      -1450.       285.2      -1850.
       10307        5257.      -338.6       3440.      -949.4       210.2      -1942.
       10308        5261.      -327.7       3174.      -538.3       113.5      -1995.
       10309       1.0182E+04  -175.3      1.0180E+04  -85.11      -95.06      -113.3
       10310        8070.      -515.9       8283.      -821.3      -28.61      -159.6
       10311        4407.      -216.9       4484.      -1657.       294.4      -1692.
       10312        9025.       17.70       9459.      -986.8       20.02      -136.1
       10313        8342.      -460.6       9358.      -1093.       12.56      -158.0
       10314        3296.      -300.0       4043.      -1849.       234.5      -1470.
       10315        7551.      -232.1       8511.      -1225.       61.30      -125.6
       10316        7136.      -176.4       8230.      -1348.       53.97      -148.1
       10317        3094.      -512.7       4541.      -1946.       296.4      -1126.
       10318        6753.      -273.0       8032.      -1442.       54.47      -141.8
       10319        5858.      -224.1       7059.      -1555.       59.36      -148.5
       10320        5043.      -512.9       6821.      -1684.       12.36      -170.7
       10321        3301.      -198.9       5222.      -1972.       155.3      -545.7
       10322        4257.      -545.8       6209.      -1806.      -12.61      -181.6
       10323        3721.      -456.2       5904.      -1905.      -11.20      -168.9
       10324        5607.      -505.0       3094.      -381.0       126.6      -2024.
       10325        5424.      -161.1       3263.      -720.8       65.49      -2001.
       10326        4982.      -168.3       3173.      -810.6       93.25      -1981.
       10327        4820.      -339.1       3213.      -1112.       229.8      -1939.
       10328        4725.      -307.1       3390.      -1219.       247.1      -1906.
       10329        4418.      -456.8       3531.      -1345.       285.4      -1889.
       10330        4005.      -389.7       3536.      -1528.       261.6      -1794.
       10331        4174.      -314.2       3997.      -1598.       264.2      -1735.
       10332        3927.      -286.3       4160.      -1737.       351.8      -1602.
       10333        3710.      -368.9       4236.      -1817.       302.3      -1546.
       10334        3355.      -438.0       4487.      -1902.       301.0      -1326.
       10335        3375.      -436.3       4806.      -1908.       329.1      -1233.
       10336        3268.      -368.7       5052.      -1963.       278.0      -973.8
       10337        3303.      -259.9       5158.      -1989.       136.8      -807.1
       10338        3174.      -175.8       5273.      -1979.       111.2      -702.6
       10339        3058.      -181.8       5120.      -2009.       79.20      -339.6
       10340        9548.      -160.0       9608.      -148.5       8.907      -324.8
       10341        9506.      -308.2       9451.      -114.8      -101.4      -518.7
       10342        9190.      -375.7       8888.      -134.5      -73.00      -740.4
       10343        9225.      -292.2       9137.      -139.5       96.45      -832.0
       10344        8789.      -401.2       8537.      -148.0       104.7      -962.5
       10345        8558.      -348.5       7889.      -136.3       55.30      -1076.
       10346        8734.      -107.7       7908.      -114.8       49.29      -1231.
       10347        8348.      -104.0       7382.      -99.85      -30.13      -1370.
       10348        8073.      -51.98       6997.      -144.3       7.380      -1497.
       10349        7011.      -183.7       6014.      -149.3       18.89      -1605.
       10350        6832.      -354.7       5240.      -164.2      -22.24      -1679.
       10351        6079.      -509.0       4415.      -182.9       35.38      -1801.
       10352        9495.      -141.5       9741.      -643.5       32.90      -114.1
       10353       1.0941E+04   10.19      1.1193E+04  -535.2       69.92      -83.12
       10354        9401.      -397.6       9484.      -102.3      -4.147      -240.6
       10355        8837.      -348.3       9539.      -968.2      -48.06      -275.3
       10356        4888.      -127.4       7038.      -1807.       13.41      -322.4
       10357        3893.      -96.23       6063.      -1932.       50.01      -358.3
       10358        7336.      -109.5       5710.      -304.5       13.83      -1692.
       10359        8600.      -126.8       7430.      -249.5      -2.109      -1367.
       10360        5153.      -437.4       4443.      -1319.       243.0      -1768.
       10361        4863.      -243.1       5035.      -1614.       299.8      -1499.
       10362        4595.      -268.2       5106.      -1699.       306.6      -1433.
       10363        6124.      -265.5       7356.      -1453.       48.29      -298.1
       10364        3431.      -479.2       4885.      -1901.       88.40      -680.4
       10365        3450.      -140.6       6318.      -1996.       63.77      -145.3
       10366       1.0347E+04  -382.6      1.0560E+04  -195.4      -43.63      -402.2
       10367        4690.      -292.7       4516.      -1492.       191.9      -1652.
       10368       1.0151E+04  -242.4       9481.      -292.0       92.17      -694.9
       10369        9968.       39.64       9390.      -280.7       46.91      -991.2
       10370        5861.      -247.1       4048.      -644.1       95.98      -1925.
       10371        6100.      -510.2       4452.      -314.0       25.40      -1815.
       10372       1.0175E+04  -264.4      1.0238E+04  -262.8      -111.0      -130.3
       10373       1.0179E+04  -190.6      1.0226E+04  -369.1      -44.89      -113.4
       10374        7337.      -169.2       8150.      -1199.       111.6      -311.9
       10375        4953.      -192.2       5794.      -1776.       194.5      -1241.
       10376        7694.      -263.3       8321.      -1098.       54.53      -300.5
       10377        4182.      -229.7       5575.      -1815.       265.8      -1141.
       10378        7086.      -264.5       8011.      -1279.       83.54      -293.0
       10379        5818.      -111.1       7316.      -1546.       43.28      -293.5
       10380        5633.      -76.25       7434.      -1669.       28.06      -281.9
       10381        4325.      -394.9       6151.      -1856.       242.9      -938.6
       10382        6091.      -488.2       3807.      -165.4       36.63      -1929.
       10383        7672.      -396.8       6437.      -226.2       44.65      -1462.
       10384        9071.      -226.8       8163.      -254.8       82.94      -1228.
       10385        9291.      -340.4       8289.      -285.7       69.76      -1099.
       10386        8613.      -287.6       8320.      -292.3       8.295      -815.3
       10387        4469.      -396.3       4474.      -1548.       233.9      -1579.
       10388        3778.      -451.4       4178.      -1746.       189.6      -1351.
       10389        3967.      -381.0       5378.      -1847.       237.9      -1044.
       10390        3862.      -453.7       5847.      -1877.       172.7      -744.3
       10391        3744.      -335.9       6021.      -1936.       47.44      -479.7
       10392        9742.      -354.9       9670.      -251.4       56.01      -517.3
       10393        5210.      -340.3       4865.      -1429.       229.1      -1707.
       10394        5387.      -412.5       4401.      -1251.       244.0      -1806.
       10395        5736.      -391.5       4338.      -1140.       241.3      -1816.
       10396        5233.      -247.1       3959.      -1040.       200.3      -1854.
       10397        5947.      -233.3       4328.      -918.9       161.5      -1880.
       10398        5908.      -147.9       4292.      -722.2       104.3      -1902.
       10399        8125.       73.21       6629.      -268.9       66.63      -1581.
       10400        5677.      -330.8       3910.      -512.6       81.00      -1923.
       10401        6279.      -242.1       4110.      -334.5       64.15      -1917.
       10402        9156.      -287.2       9306.      -427.9      -93.53      -254.7
       10403        8908.      -347.0       9062.      -673.9       137.8      -288.8
       10404        7401.      -264.8       8432.      -1025.       65.09      -454.4
       10405        5047.      -115.6       6171.      -1700.       132.2      -1068.
       10406        5239.      -280.8       6831.      -1665.       57.03      -409.0
       10407        8379.      -225.9       7326.      -357.6       77.97      -1347.
       10408        5295.      -210.3       5210.      -1412.       188.4      -1472.
       10409        7517.      -74.80       8307.      -1291.       66.35      -465.5
       10410        4325.      -388.1       6033.      -1805.       46.56      -448.1
       10411       1.0927E+04  -70.26      1.0870E+04  -264.2      -100.6      -296.4
       10412        9922.       197.5       9649.      -445.8       179.3      -687.3
       10413        4929.      -309.3       5290.      -1465.       259.1      -1408.
       10414        7344.      -345.4       6525.      -363.4       70.92      -1465.
       10415        6195.      -343.3       4648.      -463.8       75.65      -1813.
       10416        9556.      -215.9       9952.      -798.5       32.65      -258.7
       10417        8514.      -578.6       7857.      -408.2       25.33      -1014.
       10418        6276.      -217.9       4952.      -975.1       166.0      -1787.
       10419        5248.      -269.8       4471.      -1195.       230.1      -1779.
       10420        5865.      -383.5       7299.      -1557.       42.42      -385.8
       10421        8855.      -246.2       7950.      -363.6      -28.94      -1240.
       10422        8094.      -557.8       8241.      -530.2       132.5      -278.7
       10423        5211.      -230.7       5752.      -1545.       287.5      -1334.
       10424        8171.      -199.2       8967.      -1211.       21.71      -537.3
       10425        3875.      -545.6       4549.      -1662.       66.65      -1154.
       10426        4868.      -371.2       6418.      -1742.       215.8      -882.1
       10427        6923.      -319.8       8046.      -1452.       129.6      -421.4
       10428        4733.      -403.5       6896.      -1784.       99.75      -609.5
       10429        4954.      -313.2       6794.      -1743.       228.2      -729.3
       10430        7423.      -502.3       5913.      -360.5       93.02      -1534.
       10431        5610.      -348.6       4829.      -1201.       211.0      -1672.
       10432        7239.      -300.7       6870.      -390.7      -50.71      -1151.
       10433        5238.      -355.6       5127.      -1367.       152.4      -1534.
       10434        8302.      -547.1       8011.      -447.8       90.39      -819.2
       10435        5270.      -33.61       6155.      -1610.       183.5      -1280.
       10436        5108.      -185.7       6368.      -1733.       191.0      -994.4
       10437        7976.      -553.2       8115.      -435.3       114.5      -536.0
       10438        5591.      -341.6       5050.      -1304.       177.0      -1601.
       10439        5762.      -163.7       4696.      -1079.       223.5      -1743.
       10440        6332.      -268.6       4782.      -812.6       139.7      -1778.
       10441        6571.      -529.6       5261.      -410.1       92.24      -1689.
       10442        5733.      -543.4       4235.      -660.2       169.6      -1774.
       10443        9177.      -201.7       9132.      -505.0       32.41      -556.6
       10444        9569.      -113.6       9867.      -680.3       9.434      -474.1
       10445        7117.      -195.5       7777.      -1270.       56.98      -586.1
       10446        7821.      -216.7       8299.      -1099.       34.32      -574.5
       10447        7733.      -390.5       7219.      -508.3      -89.71      -1262.
       10448        5861.      -438.2       6574.      -1329.       71.04      -595.8
       10449        6231.      -233.3       6664.      -1367.       196.3      -1315.
       10450        5500.      -219.1       6876.      -1659.       163.4      -564.1
       10451        9429.      -79.74       9207.      -587.3       84.80      -880.4
       10452        7724.      -208.7       6952.      -476.8       56.53      -1349.
       10453        7033.      -294.0       5741.      -628.8       204.8      -1647.
       10454        7323.      -269.8       6267.      -467.2       107.5      -1546.
       10455        8415.      -379.8       8672.      -493.6       74.01      -432.7
       10456        7331.      -547.8       7459.      -808.2       61.83      -452.8
       10457        7107.      -81.42       8282.      -1473.       159.7      -560.9
       10458        5662.      -496.2       4499.      -887.2       151.7      -1663.
       10459        5636.      -405.9       5885.      -1426.       215.3      -1246.
       10460        8539.      -377.4       9101.      -970.2       89.45      -486.4
       10461        6407.      -233.9       5662.      -1081.       188.9      -1534.
       10462        6337.      -208.5       7687.      -1553.       174.3      -557.6
       10463        8872.      -66.23       8171.      -539.2      -106.4      -1189.
       10464        5619.      -104.2       6230.      -1530.       90.65      -1033.
       10465        5140.      -228.2       5882.      -1593.       103.5      -990.7
       10466        5184.      -264.7       6524.      -1641.       191.5      -830.5
       10467        5788.      -475.2       7421.      -1647.       212.6      -700.4
       10468        7585.      -203.1       6586.      -474.1       88.27      -1461.
       10469        5822.      -382.6       5580.      -1254.       64.58      -1428.
       10470        8868.      -281.1       8530.      -559.1      -19.47      -1018.
       10471        5899.      -234.3       5958.      -1314.       121.7      -1357.
       10472        8993.      -261.9       8986.      -580.5       126.8      -639.8
       10473        5668.      -150.8       6341.      -1486.       177.0      -1170.
       10474        5088.      -262.6       6008.      -1621.       139.9      -917.7
       10475        9889.      -152.4       9988.      -487.3       81.07      -409.9
       10476        6203.      -290.1       5638.      -1183.       133.7      -1479.
       10477        6370.      -379.3       5164.      -797.2       140.8      -1683.
       10478        6709.      -158.7       5319.      -536.9       156.8      -1639.
       10479        8464.      -220.4       8564.      -726.6      -20.60      -788.8
       10480        8141.      -33.44       7782.      -637.4       49.01      -1236.
       10481        8205.      -186.6       8559.      -1141.       108.4      -600.4
       10482        6438.      -177.7       5611.      -1004.       262.6      -1566.
       10483        7003.      -330.9       6047.      -773.2       95.29      -1524.
       10484        6360.      -353.1       6844.      -1325.       170.0      -1151.
       10485        9320.      -152.8       9583.      -813.2       132.9      -516.9
       10486        7950.      -153.7       7062.      -642.7       59.96      -1316.
       10487        5171.      -301.4       5976.      -1498.       112.7      -927.2
       10488        5311.      -579.2       6151.      -1433.       120.5      -995.1
       10489        8166.      -216.9       8641.      -932.2      -16.12      -536.6
       10490        6212.      -555.0       5325.      -647.2       99.46      -1526.
       10491        6076.      -233.3       7113.      -1372.       84.70      -658.0
       10492        8316.      -117.7       8835.      -1059.       39.52      -500.8
       10493        6021.      -229.3       5882.      -1166.       120.8      -1321.
       10494        5699.      -320.2       6879.      -1568.       158.6      -691.8
       10495        9713.      -124.5       9275.      -711.5       30.81      -1094.
       10496        5856.      -130.0       6679.      -1560.       65.47      -768.4
       10497        6287.      -176.5       7284.      -1469.       32.08      -661.3
       10498        6936.      -438.9       6329.      -617.4       125.8      -1438.
       10499        6375.      -239.1       6039.      -1239.       123.1      -1292.
       10500        8411.      -410.6       8436.      -771.0      0.7797      -952.3
       10501        6450.      -232.0       6708.      -1283.       160.3      -1218.
       10502        8514.      -86.72       8677.      -648.8      -27.10      -634.5
       10503        6102.      -295.0       6903.      -1407.       153.6      -1069.
       10504        6181.      -187.4       7194.      -1519.       97.22      -852.4
       10505        8229.      -465.5       8579.      -676.1       171.5      -533.9
       10506        6469.      -258.8       6026.      -1111.       149.1      -1388.
       10507        7186.      -328.1       6635.      -719.9       213.0      -1387.
       10508        6388.      -223.1       7485.      -1383.       144.8      -895.2
       10509        6837.      -272.7       7562.      -1369.       153.2      -778.8
       10510        9303.      -47.25       9362.      -872.1       14.01      -571.6
       10511        6405.      -113.5       7547.      -1503.       36.60      -730.3
       10512        6754.      -270.0       6568.      -1127.       190.7      -1196.
       10513        7888.      -286.2       7610.      -834.3       59.46      -1061.
       10514        9393.      -25.08       9576.      -788.6      -39.34      -627.9
       10515        7527.      -190.9       7413.      -801.8       134.3      -1168.
       10516        6953.      -321.8       6844.      -1184.       216.7      -1104.
       10517        8268.      -41.81       8342.      -1025.       17.32      -576.7
       10518        7452.      -180.7       7131.      -755.1       216.2      -1238.
       10519        8572.      -504.2       8722.      -817.5      -1.280      -873.1
       10520        7773.       33.79       7670.      -894.8       105.5      -1118.
       10521        8003.      -166.7       8336.      -1068.       67.80      -685.3
       10522        7585.      -123.0       7483.      -944.3       199.2      -1079.
       10523        7014.      -430.0       6803.      -852.2       197.6      -1292.
       10524        7589.      -154.5       7442.      -869.2       218.3      -1205.
       10525        8044.      -231.6       8242.      -820.0      -113.4      -710.3
       10526        8624.      -126.3       8582.      -870.2       76.62      -968.3
       10527        6874.      -231.5       7473.      -1284.       210.5      -831.7
       10528        6594.      -385.9       7315.      -1337.       151.6      -946.2
       10529        7169.      -134.4       7421.      -1220.       208.6      -726.4
       10530        7835.      -255.7       7940.      -954.0       90.83      -909.1
       10531        8887.      -26.20       9042.      -884.8      -38.44      -817.1
       10532        6660.      -420.8       7016.      -1192.       222.7      -897.3
       10533        6361.      -507.0       6857.      -1132.       150.2      -792.6
       10534        5997.      -178.2       3466.      -200.7       45.47      -2014.
       10535        6048.      -278.6       4250.      -581.1       157.8      -1792.
       10536        6051.      -302.9       5017.      -1012.       217.0      -1651.
       10537        7600.      -327.3       8083.      -1306.       224.5      -671.7
       10538        6359.      -99.62       7491.      -1458.       66.04      -761.8
       10539        8348.      -61.65       8595.      -902.1       6.434      -651.2
       10540        7551.      -38.19       6685.      -884.4       249.5      -1520.
       10541        7673.      -265.3       6677.      -553.2       95.69      -1382.
       10542        8052.      -212.7       8236.      -964.4      -15.25      -768.1
       10543        6597.      -288.0       5772.      -1054.       141.3      -1471.
       10544        7749.      -25.99       7190.      -859.6       210.9      -1413.
       10545        6282.      -327.0       5698.      -977.2       143.3      -1431.
       10546        7274.      -209.9       7073.      -1035.       221.4      -1040.
       10547        8045.      -152.5       8283.      -1051.       85.80      -862.8
       10548        7265.      -314.6       7210.      -1117.       219.4      -973.7
       10549        6146.      -193.9       7197.      -1426.       116.9      -886.5
       10550        6687.      -340.4       7279.      -1274.       183.7      -1044.
       10551        6661.      -263.2       6556.      -1004.       176.0      -1354.
       10552        7095.      -328.6       6881.      -1029.       209.4      -1263.
       10553        3178.       162.9       1773.      -1218.       186.3      -1750.
       10554        3069.       100.9       2139.      -1533.       311.1      -1753.
       10555        2755.       188.9       2822.      -1677.       314.5      -1720.
       10556        2507.       206.5       2992.      -1684.       298.8      -1657.
       10557        2077.       171.9       3411.      -1736.       279.9      -1441.
       10558        1477.       172.3       3994.      -1632.       53.90      -179.3
       10559        2123.      -5.139       4915.      -1822.       103.3      -391.2
       10560        1941.       43.76       4936.      -1819.       93.86      -659.2
       10561        1681.      -40.53       3525.      -1806.       199.8      -758.4
       10562        2329.       133.9       4340.      -1913.       257.2      -1031.
       10563        1873.       120.7       4586.      -1748.       237.3      -962.7
       10564        2341.       223.5       4272.      -1848.       264.9      -1073.
       10565        1869.       252.9       3159.      -1719.       189.0      -1299.
       10566        2091.      -11.58       3515.      -1923.       272.0      -1300.
       10567        2284.       126.9       4126.      -1931.       254.4      -1165.
       10568        1665.       184.4       3859.      -1699.       254.1      -1156.
       10569        2353.       294.6       4034.      -1766.       236.5      -1386.
       10570        2645.      -45.71       3831.      -1866.       302.0      -1449.
       10571        2234.       58.30       3496.      -1723.       244.9      -1516.
       10572        2593.       22.68       3246.      -1842.       281.1      -1551.
       10573        2374.       249.9       2851.      -1721.       258.8      -1566.
       10574        2553.      -48.02       3075.      -1807.       295.9      -1593.
       10575        3050.      -54.14       3230.      -1753.       349.9      -1772.
       10576        2950.      -132.4       3034.      -1792.       345.9      -1674.
       10577        2999.       84.06       2286.      -1548.       289.7      -1719.
       10578        3514.       137.9       2883.      -1598.       303.9      -1814.
       10579        2931.      -137.6       2653.      -1668.       325.2      -1786.
       10580        2765.       51.92       2319.      -1650.       284.2      -1720.
       10581        4177.      -42.94       3085.      -1532.       286.1      -1846.
       10582        3265.       178.2       1872.      -1305.       251.1      -1781.
       10583        3494.      -37.01       2433.      -1410.       309.7      -1894.
       10584        3679.       162.5       2392.      -1390.       294.1      -1774.
       10585        4246.       62.42       2795.      -1314.       262.7      -1897.
       10586        3972.       202.6       1836.      -933.4       177.7      -1716.
       10587        4032.       13.62       2291.      -1171.       204.7      -1886.
       10588        4496.       158.0       1928.      -872.6       177.7      -1718.
       10589        5744.       141.9       2549.      -760.7       211.1      -1899.
       10590        4391.       182.9       2234.      -603.4       198.2      -1874.
       10591        3902.       209.6       1593.      -192.4       17.99      -1645.
       10592        4796.      0.8281       2320.      -407.6       92.77      -1838.
       10593        1632.       36.29       4364.      -1653.       101.9      -348.4
       10594        3837.       15.40       1456.      -398.3       60.26      -1654.
       10595        1452.       142.3       3590.      -1718.       250.9      -1058.
       10596        4577.       264.1       1842.      -728.7       158.0      -1741.
       10597        1929.       116.5       4870.      -1827.       74.97      -198.9
       10598        4684.       124.9       2237.      -184.4       30.23      -1886.
       10599        3774.       34.98       1549.      -564.9       101.5      -1710.
       10600        3255.       207.3       1595.      -1122.       145.0      -1669.
       10601        3736.       59.41       2204.      -887.7       126.2      -1865.
       10602        3824.      -66.53       1931.      -959.7       162.6      -1874.
       10603        2368.      -29.11       4921.      -1935.       219.2      -862.0
       10604        1524.       13.19       4363.      -1697.       183.5      -555.2
       10605        2428.       35.12       4110.      -1845.       273.4      -1154.
       10606        1952.       4.080       3297.      -1841.       202.5      -1269.
       10607        3533.       152.3       1576.      -1048.       182.1      -1727.
       10608        2421.       87.28       22.53      -285.6      -63.88      -149.8
       10609        2204.       231.3       97.13      -466.1      -65.03      -178.5
       10610        3150.       420.4       897.2      -628.6       51.83      -1220.
       10611        1950.       286.5       153.8      -719.1      -130.3      -265.9
       10612        1799.       458.6       267.9      -778.4      -133.2      -295.5
       10613        1688.       474.8       443.5      -880.0      -187.7      -441.5
       10614        1154.       590.1       528.3      -884.2      -221.9      -539.4
       10615        1093.       640.6       1072.      -776.5      -229.7      -703.8
       10616        2371.       327.7       2108.      -1441.       203.1      -1440.
       10617        912.5       568.5       1000.      -767.8      -231.5      -768.6
       10618        1875.       266.6       1747.      -1466.       208.4      -1427.
       10619        484.7       670.9       1250.      -482.3      -215.0      -960.2
       10620        1403.       260.4       2623.      -1432.       238.3      -1356.
       10621        627.8       358.6       1709.      -736.9      -43.46      -1048.
       10622        226.9       491.0       1864.      -186.5      -146.1      -847.1
       10623        185.4       466.9       1874.      -231.8      -98.26      -811.1
       10624        113.8       170.5       2212.      -120.0      -60.02      -558.1
       10625        44.45       241.2       2306.      -64.94      -28.09      -241.5
       10626        606.5       227.6       3479.      -963.6       30.01      -166.7
       10627        137.5       395.9       2607.      -215.2      -7.676      -165.4
       10628        228.4       309.7       3026.      -620.3       2.990      -163.1
       10629        250.0       300.9       2842.      -374.2       8.003      -299.0
       10630        645.0       194.6       3311.      -1054.       62.81      -290.5
       10631        134.1       299.9       2300.      -124.8      -53.06      -438.2
       10632        241.7       132.9       2753.      -432.8       16.85      -462.1
       10633        793.9       271.4       3444.      -1125.       89.60      -493.8
       10634        280.3       256.1       3175.      -680.7       53.23      -274.2
       10635        187.8       358.6       2366.      -114.1      -47.48      -327.1
       10636        525.3       234.5       3102.      -783.0       39.70      -470.4
       10637        875.9       415.2       3333.      -1197.       155.1      -629.7
       10638        44.30       154.8       2336.      -151.3      -53.26      -632.7
       10639        905.3       281.4       3606.      -1206.       103.8      -762.6
       10640        551.5       228.4       3154.      -903.9       79.42      -611.3
       10641        331.0       261.8       2870.      -620.3       22.91      -644.4
       10642        99.69       270.3       2160.      -175.9      -72.20      -714.4
       10643        508.9       300.9       2705.      -671.1       39.99      -757.5
       10644        650.1       332.4       3113.      -929.7       84.44      -767.9
       10645        139.5       299.4       2356.      -196.1      -94.37      -753.9
       10646        317.7       328.4       2212.      -426.3      -7.893      -793.8
       10647        829.2       179.5       3393.      -1255.       154.6      -917.6
       10648        432.6       357.4       2224.      -468.8      -37.52      -944.9
       10649        542.6       425.2       2128.      -614.6       29.76      -865.0
       10650        909.7       276.8       3097.      -1170.       136.8      -968.9
       10651        1150.       280.6       3171.      -1331.       185.7      -1021.
       10652        709.1       255.7       2971.      -968.3       95.64      -884.4
       10653        347.9       362.0       2461.      -374.7      -39.91      -831.7
       10654        523.0       302.6       2461.      -690.5       56.19      -1028.
       10655        704.5       372.1       2260.      -842.8       99.48      -966.9
       10656        1303.       143.5       3452.      -1324.       196.1      -1073.
       10657        481.2       399.6       1602.      -622.5      -12.73      -1022.
       10658        1228.       224.6       2659.      -1334.       193.2      -1181.
       10659        295.0       375.2       1952.      -276.2      -135.2      -848.1
       10660        545.6       358.4       1609.      -693.2      -29.33      -1045.
       10661        782.5       427.2       2509.      -883.2       78.52      -1081.
       10662        807.6       286.3       2315.      -1093.       152.8      -1129.
       10663        770.3       318.8       2224.      -915.6       68.21      -1122.
       10664        1230.       364.3       2577.      -1342.       173.4      -1229.
       10665        517.3       482.0       1474.      -683.8      -129.3      -961.7
       10666        640.0       519.1       1504.      -835.8      -28.61      -1074.
       10667        1165.       260.2       2533.      -1285.       187.6      -1252.
       10668        1457.       363.0       2558.      -1435.       226.0      -1363.
       10669        986.2       283.3       1884.      -1111.       106.4      -1200.
       10670        814.5       319.7       2045.      -924.4       26.67      -1126.
       10671        811.6       405.6       1731.      -998.1       41.50      -1132.
       10672        1137.       259.0       2263.      -1294.       171.1      -1265.
       10673        740.7       655.9       1346.      -631.9      -190.5      -901.2
       10674        1491.       329.4       2249.      -1405.       194.4      -1376.
       10675        1123.       360.3       1857.      -1177.       120.8      -1246.
       10676        559.9       653.3       1303.      -557.9      -198.2      -910.6
       10677        738.9       482.0       1232.      -679.1      -212.8      -871.5
       10678        978.0       464.1       1398.      -956.2      -36.28      -1096.
       10679        1304.       371.4       1796.      -1211.       81.52      -1246.
       10680        1620.       323.4       2296.      -1397.       169.9      -1395.
       10681        817.5       692.4       970.2      -723.3      -236.8      -825.9
       10682        1111.       451.5       1241.      -991.3      -68.81      -1047.
       10683        1635.       281.0       1886.      -1416.       187.5      -1394.
       10684        1291.       548.8       1144.      -934.4      -109.4      -888.1
       10685        1387.       336.0       1377.      -1079.       29.26      -1110.
       10686        1700.       274.1       1556.      -1351.       149.9      -1309.
       10687        1234.       204.6       1449.      -1219.       87.82      -1224.
       10688        1098.       428.9       1176.      -962.6      -96.17      -966.8
       10689        1407.       443.5       1304.      -1005.      -37.06      -1003.
       10690        1579.       319.3       1521.      -1208.       72.40      -1183.
       10691        1222.       629.1       692.2      -811.1      -230.3      -625.9
       10692        2055.       231.2       1370.      -1391.       202.6      -1432.
       10693        1988.       183.0       1622.      -1335.       155.7      -1323.
       10694        1681.       347.2       1302.      -1289.       81.43      -1245.
       10695        1094.       635.7       814.8      -792.6      -228.5      -663.4
       10696        1186.       580.0       542.1      -829.9      -229.0      -579.2
       10697        1389.       567.0       944.7      -985.7      -101.7      -853.1
       10698        1862.       248.7       1328.      -1295.       128.0      -1282.
       10699        1443.       596.6       876.9      -1004.      -102.1      -801.2
       10700        1808.       500.4       938.8      -1125.      -22.23      -900.7
       10701        2483.       243.3       1536.      -1375.       219.9      -1426.
       10702        1762.       558.1       729.2      -870.8      -219.4      -494.5
       10703        1859.       502.5       876.1      -1044.      -67.30      -785.3
       10704        2204.       137.8       1105.      -1241.       138.6      -1245.
       10705        1943.       244.1       1101.      -1270.       124.9      -1209.
       10706        1454.       489.6       757.1      -1032.      -106.7      -769.0
       10707        1857.       451.5       645.1      -1083.       15.22      -882.7
       10708        1863.       351.4       742.4      -1120.       40.37      -968.8
       10709        2485.       147.6       1457.      -1307.       219.4      -1408.
       10710        1882.       357.6       530.2      -998.5      -70.76      -664.1
       10711        2447.       222.7       1092.      -1244.       144.0      -1320.
       10712        2450.       259.5       867.6      -1122.       105.6      -1067.
       10713        1699.       464.3       342.1      -879.4      -200.7      -421.1
       10714        1694.       389.8       305.1      -857.4      -169.3      -376.0
       10715        1892.       315.6       426.9      -955.0      -67.17      -625.8
       10716        2525.       352.9       937.8      -1085.       120.4      -1088.
       10717        2913.       327.4       1273.      -1162.       151.4      -1339.
       10718        1995.       444.7       320.2      -840.6      -145.0      -331.6
       10719        2373.       394.8       635.3      -969.4       36.95      -857.7
       10720        2444.       326.8       618.7      -1022.       119.5      -1108.
       10721        2189.       343.9       367.8      -786.2      -40.64      -508.6
       10722        2518.       247.1       547.2      -856.6       36.93      -743.6
       10723        2241.       450.2       823.8      -964.6       95.37      -1077.
       10724        3174.       241.2       1221.      -1055.       170.9      -1339.
       10725        2511.       196.4       582.6      -932.6       67.12      -822.2
       10726        2316.       256.8       423.7      -844.5      -29.81      -571.2
       10727        2526.       344.2       576.9      -797.9       28.79      -683.9
       10728        2936.       214.1       640.7      -877.8       114.4      -997.6
       10729        3300.       82.11       1107.      -966.0       115.4      -1316.
       10730        2302.       265.5       310.6      -684.1      -42.59      -461.6
       10731        3057.       344.5       1084.      -831.4       145.6      -1236.
       10732        2577.       322.8       498.6      -703.5       12.78      -689.6
       10733        2183.       409.7       200.1      -663.0      -115.7      -254.5
       10734        2382.       345.4       133.7      -541.2      -82.95      -197.7
       10735        3055.       324.6       703.4      -687.3       62.71      -992.4
       10736        3397.       241.4       966.8      -746.4       141.0      -1264.
       10737        2398.       298.6       277.6      -591.7      -20.74      -459.9
       10738        2822.       313.4       411.4      -565.6       30.33      -707.6
       10739        3212.       301.5       771.7      -594.2       30.33      -958.3
       10740        2576.       398.0       184.8      -423.3      -21.93      -397.7
       10741        3135.       304.8       482.3      -459.9       24.05      -650.6
       10742        3512.       260.4       835.8      -486.9       59.78      -1190.
       10743        2570.       270.2       317.2      -497.0       2.159      -430.0
       10744        2938.       252.9       284.7      -384.5       45.10      -614.6
       10745        2373.       203.0       199.2      -268.0       13.53      -417.0
       10746        3109.       84.07       474.2      -144.6       27.59      -768.1
       10747        3228.       171.2       650.0      -177.5       32.22      -1076.
       10748        3478.       285.0       1048.      -340.3       47.14      -1132.
       10749        2239.       252.3       223.7      -221.3      -33.75      -155.3
       10750        2453.       243.3       167.0      -126.0       6.329      -160.3
       10751        261.8       244.3       2472.      -386.4       9.241      -668.2
       10752        1498.       512.1       1140.      -1079.      -12.44      -1012.
       10753        2766.       352.4       439.9      -160.4       31.02      -430.9
       10754        2540.       227.9       120.8      -333.0      -13.32      -390.6
       10755        2655.       345.1       425.7      -639.0       17.19      -735.1
       10756        2231.       449.9       334.4      -736.4      -42.20      -463.8
       10757        166.9       170.8       2567.      -324.6       3.351      -579.4
       10758        511.8       435.0       2161.      -544.8      -14.05      -967.1
       10759        1324.       558.7       1016.      -951.7      -107.3      -861.3
       10760        2324.       499.3       768.3      -1070.       32.79      -859.0
       10761        1517.       304.8       424.3      -989.6      -61.43      -686.0
       10762        3185.       291.0       464.5      -302.2       53.65      -765.7
       10763        618.7       360.2       2347.      -807.8       87.65      -1023.
       10764        1059.       490.5       1764.      -886.4      -15.50      -1109.
       10765        2223.       220.4       22.48      -378.2      -81.68      -165.1
       10766        1960.       164.6       68.54      -624.0      -97.31      -235.6
       10767        241.4       374.8       1784.      -320.0      -113.4      -880.1
       10768        364.1       471.9       1603.      -366.6      -130.3      -906.8
       10769        437.6       499.0       1473.      -422.9      -157.9      -911.5
       10770        301.2       567.9       1359.      -517.2      -174.2      -885.6
       10771        1068.       418.1       2601.      -1115.       133.0      -1180.
       10772        932.8       304.9       2042.      -1093.       71.25      -1169.
       10773        2380.       427.8       505.4      -916.3      -47.08      -604.6
       10774        720.1       396.3       1729.      -794.3      -57.67      -1068.
       10775        2353.       286.0       625.7      -1013.       23.68      -866.0
       10776        3262.       259.7       559.5      -480.4       47.12      -912.2
       10777        2164.       332.8       968.9      -1200.       105.9      -1146.
       10778        259.5       333.9       2271.      -427.1      -11.25      -735.7
       10779        493.2       219.2       2834.      -684.3       53.34      -831.4
       10780        2809.       391.7       620.1      -747.7       83.30      -952.9
       10781        927.8       176.3       3013.      -1058.       139.9      -1030.
       10782        2787.       345.4       658.1      -837.4       95.73      -863.8
       10783        1796.       471.6       1049.      -1155.       29.71      -999.3
       10784        1786.       367.4       1242.      -1170.       20.53      -1087.
       10785        2065.       266.7       1039.      -1178.       79.60      -1115.
       10786        758.1       375.4       1750.      -942.1       16.39      -1100.
       10787        2009.       404.6       701.8      -1129.       57.32      -997.9
       10788        1574.       318.6       888.0      -1152.       56.37      -1018.
       10789        3299.      -215.7       7211.      -1256.       57.00      -99.02
       10790        3303.      -153.3       7074.      -1219.       125.8      -209.6
       10791        3925.       29.63       7814.      -1229.       138.1      -409.3
       10792        3775.      -62.03       7367.      -1263.       219.5      -464.8
       10793        3629.      -153.1       7035.      -1275.       211.3      -572.1
       10794        3379.      -76.40       5816.      -1250.       292.6      -654.8
       10795        3997.      -115.8       6620.      -1258.       376.5      -758.7
       10796        3465.      -160.3       5808.      -1264.       419.3      -837.5
       10797        4175.      -230.7       6105.      -1227.       385.0      -922.5
       10798        3903.      -318.0       4996.      -1235.       355.2      -959.8
       10799        4666.      -138.1       5651.      -1198.       393.8      -1045.
       10800        4650.      -322.3       5162.      -1151.       435.1      -1072.
       10801        4886.       153.3       4934.      -1125.       420.6      -1120.
       10802        4553.      -238.1       4136.      -1084.       411.0      -1174.
       10803        5170.      -178.5       4297.      -1016.       400.0      -1173.
       10804        5215.      -156.1       4104.      -989.9       391.2      -1212.
       10805        5918.      -156.4       4196.      -907.9       373.2      -1216.
       10806        6066.      -100.4       4159.      -839.2       332.0      -1242.
       10807        6923.      -11.15       4329.      -751.9       292.3      -1261.
       10808        6156.      -90.21       3707.      -646.9       218.7      -1269.
       10809        6072.      -150.7       3393.      -571.4       101.1      -1271.
       10810        6316.       1.003       3470.      -491.1       206.2      -1245.
       10811        6756.       49.22       3666.      -377.1       222.5      -1247.
       10812        7436.      -68.98       2580.      -230.9       118.2      -1274.
       10813        7565.      -106.5       3679.      -105.0       49.47      -1279.
       10814        1127.       36.20       5399.      -840.3       40.18      -101.0
       10815        1074.      -107.2       5418.      -888.9       66.49      -212.6
       10816        1294.      -50.84       5682.      -949.6       124.4      -338.8
       10817        1319.      -69.89       4654.      -979.2       180.2      -414.4
       10818        1316.      -62.79       4973.      -974.5       151.2      -527.6
       10819        1507.       24.46       4969.      -975.9       166.0      -604.6
       10820        1460.       23.95       4437.      -994.2       208.5      -669.5
       10821        1545.      -80.12       4486.      -997.2       211.0      -717.2
       10822        1676.      -9.313       4023.      -1027.       198.8      -814.9
       10823        1873.       22.06       3768.      -1026.       189.1      -842.2
       10824        1979.      -161.5       3699.      -1039.       227.5      -902.2
       10825        2210.      -78.75       3570.      -1034.       201.9      -962.0
       10826        2457.       92.26       3245.      -1040.       185.5      -977.9
       10827        2675.       56.56       3217.      -1031.       213.7      -1003.
       10828        2420.      -75.77       2529.      -1031.       234.6      -1027.
       10829        3154.      -25.86       2695.      -1008.       240.1      -1040.
       10830        3340.       103.7       2501.      -988.8       188.4      -1055.
       10831        3060.      -36.34       2071.      -962.2       233.7      -1057.
       10832        4144.       239.3       2479.      -898.3       241.9      -1054.
       10833        3724.       50.40       1758.      -825.4       197.0      -1037.
       10834        4294.       22.04       1994.      -790.9       164.4      -1004.
       10835        4171.       69.44       1632.      -716.9       133.3      -1010.
       10836        4657.      -10.47       1634.      -636.4       104.0      -990.9
       10837        4613.       26.69       1466.      -540.2       133.3      -964.8
       10838        4956.      -38.27       1498.      -492.1       183.3      -955.6
       10839        5281.      -6.570       1525.      -475.0       93.74      -950.3
       10840        5093.       92.24       1376.      -361.5       59.65      -927.3
       10841        5372.       8.583       1282.      -252.5       47.31      -910.5
       10842        5394.      -4.004       1239.      -107.2       3.874      -873.2
       10843       -284.3      -55.29       3010.       43.88      -71.69      -64.83
       10844       -381.7      -148.7       2818.       76.13      -126.1      -122.0
       10845       -420.8      -178.1       2786.       97.23      -167.1      -206.1
       10846       -322.2      -170.6       2707.       68.61      -200.2      -278.7
       10847       -264.7      -48.96       2501.       63.62      -226.7      -335.5
       10848       -229.4       4.693       2480.       68.52      -268.7      -386.8
       10849       -106.2       193.0       2256.       85.46      -312.0      -423.8
       10850       -165.7       86.84       2338.       86.73      -358.4      -437.4
       10851       -34.87       155.7       2104.       100.2      -393.0      -428.5
       10852       -109.9       123.1       2230.       99.36      -413.9      -426.3
       10853       -14.68       173.2       1815.       64.74      -433.0      -452.3
       10854        58.33       160.2       1850.       54.55      -459.1      -449.8
       10855        40.16       200.5       1648.       40.10      -476.0      -427.9
       10856        142.9       179.3       1562.       16.75      -512.8      -436.2
       10857        143.2       175.6       1316.      -64.48      -523.2      -447.0
       10858        320.7       289.7       1205.      -40.22      -559.5      -339.1
       10859        367.5       258.7       1128.      -68.15      -554.7      -313.8
       10860        452.1       251.4       1072.      -109.5      -580.0      -286.3
       10861        564.0       274.6       887.5      -149.0      -586.5      -233.5
       10862        653.5       229.1       687.2      -186.0      -591.0      -195.3
       10863        814.2       237.5       696.3      -209.5      -594.8      -147.9
       10864        843.2       159.2       467.7      -242.4      -588.4      -102.7
       10865        1103.       229.4       465.4      -266.4      -581.9      -82.16
       10866        1221.       278.5       408.1      -309.0      -578.9      -60.97
       10867        1184.       199.6       301.8      -349.5      -562.5      -21.86
       10868        1397.       289.9       289.8      -344.8      -568.6       10.30
       10869        1261.       225.3       150.2      -393.8      -559.6       21.59
       10870        1503.       177.0       124.0      -423.7      -523.6       19.64
       10871        1815.       149.6       109.5      -428.4      -488.5       45.24
       10872        1920.       120.7       26.30      -437.3      -466.2       62.71
       10873        2082.       73.00      -174.1      -416.8      -439.9       66.25
       10874        2282.       162.8      -14.86      -380.7      -405.3       65.15
       10875        2294.       17.05      -166.1      -357.6      -370.0       51.64
       10876        2324.      -42.74      -115.4      -337.2      -318.7       38.16
       10877        2546.       48.04      -206.9      -297.6      -282.1       42.86
       10878        2356.       85.35      -203.7      -288.8      -241.6       40.25
       10879        2554.       1.698      -326.2      -228.3      -188.2       29.74
       10880        2635.      -105.3      -382.1      -172.6      -148.5       25.36
       10881        2769.      -103.2      -370.6      -103.0      -90.23       48.72
       10882        2928.      -42.08      -239.7      -50.52      -42.17       37.41
       10883        6220.      -146.3       5183.      -949.2       368.9      -1182.
       10884        7833.      -40.39       5018.      -605.2       311.0      -1243.
       10885        7565.      -172.4       4563.      -347.0       156.4      -1265.
       10886       1.5295E+04   64.04      1.5404E+04  -6.124      -54.62      -6.539
       10887       1.3045E+04  -139.2      1.3764E+04  -514.6      -25.59      -10.20
       10888        5981.      -335.7       6034.      -1067.       375.4      -1076.
       10889       1.2654E+04  -393.7      1.3676E+04  -586.2       31.07      -59.87
       10890       1.2114E+04  -133.5      1.3155E+04  -660.4       36.15      -81.88
       10891        5207.      -212.6       6399.      -1187.       365.0      -939.1
       10892       1.1095E+04  -257.1      1.2550E+04  -746.5       41.28      -97.48
       10893       1.0486E+04  -180.9      1.2110E+04  -790.6       53.80      -76.64
       10894        4639.      -282.4       6805.      -1243.       361.3      -689.2
       10895        9514.      -196.6      1.1584E+04  -860.7       50.41      -86.98
       10896        8637.      -297.3      1.1065E+04  -936.6       68.66      -106.0
       10897        7576.      -286.4      1.0175E+04  -999.2       72.64      -94.01
       10898        4462.      -140.0       7979.      -1236.       152.0      -328.1
       10899        6573.      -263.5       9584.      -1112.       31.94      -112.2
       10900        5759.      -285.0       9383.      -1184.       19.93      -99.76
       10901        7829.      -227.9       4738.      -232.5       143.3      -1271.
       10902        7243.      -233.2       4443.      -466.3       105.3      -1270.
       10903        7044.      -232.0       4560.      -502.6       131.3      -1245.
       10904        7068.      -130.9       4867.      -692.6       295.9      -1237.
       10905        7010.      -106.9       5226.      -792.0       288.5      -1200.
       10906        6352.      -249.1       4834.      -876.4       357.3      -1205.
       10907        6412.      -134.9       5503.      -1004.       348.2      -1130.
       10908        5874.      -207.5       5503.      -1029.       341.8      -1098.
       10909        5561.      -333.1       5857.      -1105.       442.9      -1022.
       10910        5693.      -196.8       6480.      -1133.       397.8      -1017.
       10911        4935.      -36.86       6654.      -1200.       372.8      -850.7
       10912        4910.      -211.8       6991.      -1211.       371.7      -788.7
       10913        5245.      -101.8       8014.      -1238.       359.8      -617.9
       10914        4419.      -158.8       6877.      -1258.       168.3      -539.4
       10915        4586.      -247.1       7238.      -1244.       164.5      -473.8
       10916        4398.      -265.7       8163.      -1266.       120.3      -204.1
       10917       1.4449E+04  -421.8      1.4207E+04  -71.58      -16.96      -174.3
       10918       1.6212E+04  -103.2      1.5973E+04  -82.67      -128.1      -309.2
       10919       1.3660E+04  -193.1      1.3530E+04  -13.73      -10.44      -407.7
       10920       1.4066E+04  -297.8      1.3568E+04  -79.10       90.64      -507.4
       10921       1.3679E+04  -152.4      1.2936E+04  -79.56       82.68      -598.6
       10922       1.2829E+04  -175.1      1.1758E+04  -79.64       83.69      -679.2
       10923       1.2246E+04   17.96      1.1204E+04  -62.64       80.18      -768.9
       10924       1.2802E+04   93.54      1.1196E+04  -42.67      -99.67      -827.4
       10925       1.0786E+04  -244.6       9017.      -63.01      -28.59      -862.9
       10926       1.0680E+04  -296.2       8556.      -79.51       57.14      -940.2
       10927       1.0185E+04  -153.4       7713.      -73.44       15.85      -999.5
       10928        9089.      -299.9       6587.      -93.95       50.47      -1093.
       10929       1.3703E+04  -393.3      1.4148E+04  -384.7      -35.22      -47.79
       10930       1.4939E+04   204.7      1.5285E+04  -291.8       50.87      -51.84
       10931       1.3895E+04  -321.6      1.4050E+04  -95.49       96.06      -84.42
       10932       1.2446E+04  -210.2      1.3151E+04  -599.8       49.19      -149.7
       10933        6947.      -9.117       9981.      -1094.       65.56      -190.6
       10934        5679.      -105.1       8770.      -1197.       96.96      -235.2
       10935        9972.      -32.37       7529.      -166.8       50.18      -1033.
       10936       1.3084E+04   152.7      1.1584E+04  -92.57       22.53      -796.7
       10937        8065.      -52.82       6643.      -841.6       374.0      -1114.
       10938        6651.      -180.2       7015.      -1022.       427.5      -952.1
       10939        6734.      -258.7       7445.      -1071.       412.3      -887.6
       10940        9578.      -101.3      1.1459E+04  -840.8       104.8      -194.2
       10941        5344.      -442.5       8177.      -1190.       175.0      -421.4
       10942        4564.      -126.7       8058.      -1242.       37.67      -60.56
       10943       1.5283E+04   115.1      1.5328E+04  -122.9      -183.5      -240.6
       10944        6907.      -83.85       6781.      -953.1       284.4      -1046.
       10945       1.3699E+04  -380.1      1.3512E+04  -200.1       110.3      -418.0
       10946       1.3576E+04  -184.8      1.2912E+04  -175.1       174.7      -567.6
       10947        8078.      -286.2       5424.      -441.2       118.8      -1214.
       10948        9001.      -283.9       6626.      -192.4       77.55      -1105.
       10949       1.4048E+04  -240.3      1.4399E+04  -142.8       13.52      -87.69
       10950       1.3786E+04  -346.3      1.3875E+04  -208.2       40.44      -78.10
       10951       1.1293E+04  -1.065      1.2705E+04  -748.2       77.07      -175.3
       10952        6300.      -275.9       7735.      -1099.       279.3      -763.7
       10953       1.2133E+04  -166.9      1.3168E+04  -665.3       79.78      -176.1
       10954        6157.      -193.1       7976.      -1117.       304.3      -709.7
       10955       1.0561E+04  -19.44      1.2152E+04  -779.5       113.4      -172.7
       10956        8252.      -144.1      1.0405E+04  -947.2       120.7      -187.3
       10957        7741.      -130.7      1.0439E+04  -1014.       122.2      -187.0
       10958        5818.      -240.9       8273.      -1147.       346.0      -558.5
       10959        9318.      -191.2       5875.      -81.41       76.31      -1187.
       10960       1.0719E+04  -333.3       8948.      -94.65       43.75      -858.8
       10961       1.2286E+04  -116.6      1.1186E+04  -118.6       39.98      -765.6
       10962       1.2917E+04  -302.6      1.1923E+04  -98.61       114.0      -682.9
       10963       1.4153E+04  -38.79      1.3711E+04  -162.9       101.9      -503.9
       10964        6729.      -188.0       6759.      -974.2       334.4      -999.9
       10965        6012.      -482.7       7070.      -1094.       333.6      -873.6
       10966        5555.      -333.6       7522.      -1154.       332.9      -650.1
       10967        5837.      -221.9       8491.      -1163.       284.3      -486.4
       10968        5975.      -239.8       9115.      -1209.       109.1      -294.1
       10969       1.5653E+04  -112.7      1.5568E+04  -64.38      -134.0      -335.8
       10970        7719.     -0.2659       6879.      -911.4       336.0      -1070.
       10971        7680.      -82.79       6087.      -786.0       364.0      -1133.
       10972        7435.      -140.0       5787.      -721.0       319.9      -1129.
       10973        6978.      -446.4       5116.      -664.8       314.8      -1172.
       10974        8531.      -23.18       5918.      -553.3       290.5      -1194.
       10975        7950.      -353.9       5429.      -478.0       145.0      -1185.
       10976       1.0493E+04  -253.7       8593.      -121.3       26.24      -957.9
       10977        8554.      -58.80       5719.      -342.7       114.8      -1210.
       10978        8947.       159.8       5529.      -195.6       110.4      -1186.
       10979       1.4077E+04  -224.4      1.4591E+04  -230.9      -222.2      -122.2
       10980       1.3718E+04  -272.9      1.4137E+04  -372.5       39.95      -98.14
       10981       1.2603E+04   57.74      1.3602E+04  -603.6       138.0      -303.1
       10982        6798.      -215.7       8404.      -1037.       254.9      -684.2
       10983        7900.       29.72      1.0631E+04  -1015.       133.8      -287.0
       10984       1.1590E+04  -227.6      1.0044E+04  -200.7       162.9      -783.1
       10985        7310.      -279.7       7422.      -881.2       338.1      -930.3
       10986       1.0236E+04  -54.82      1.1631E+04  -808.4       195.1      -322.1
       10987        6445.      -188.0       9110.      -1109.       122.9      -309.7
       10988       1.5395E+04   71.34      1.5581E+04  -145.4       116.5      -152.7
       10989       1.5214E+04   602.5      1.5158E+04  -281.7       232.6      -422.2
       10990        7385.      -264.4       7759.      -906.0       425.4      -876.5
       10991       1.1029E+04  -239.4       9276.      -204.8       145.3      -839.0
       10992        9284.      -3.154       6586.      -309.6       115.6      -1126.
       10993       1.3701E+04  -91.65      1.4384E+04  -494.9       10.99      -140.2
       10994       1.2695E+04  -230.2      1.2076E+04  -256.7       114.9      -655.8
       10995        8809.      -141.8       6706.      -602.7       277.1      -1094.
       10996        7718.      -168.1       6346.      -735.2       406.6      -1101.
       10997        8253.      -222.9      1.0196E+04  -959.1       154.9      -281.4
       10998       1.2461E+04  -113.0      1.1654E+04  -221.8      -20.50      -756.2
       10999       1.4647E+04   27.80      1.4767E+04  -327.4       38.57      -85.75
       11000        7254.      -397.1       7916.      -964.0       430.0      -840.9
       11001       1.0861E+04  -139.0      1.2133E+04  -750.7       112.7      -331.0
       11002        6715.      -207.1       7975.      -1004.       225.7      -692.7
       11003        6880.      -205.3       9252.      -1068.       319.7      -528.2
       11004        9557.      -99.91      1.1345E+04  -859.4       237.2      -289.0
       11005        6873.      -157.2       9562.      -1097.       177.7      -398.1
       11006        6680.      -137.7       9125.      -1070.       340.2      -453.0
       11007       1.0339E+04  -294.1       8500.      -184.0       95.83      -927.7
       11008        6782.      -562.0       5762.      -731.7       339.1      -1031.
       11009       1.2575E+04  -164.4      1.1936E+04  -253.3       7.480      -673.9
       11010        7798.       64.42       7384.      -846.1       281.7      -958.2
       11011       1.2024E+04  -537.3      1.1529E+04  -282.4       97.08      -505.7
       11012        7198.       1.184       8189.      -1006.       344.7      -810.8
       11013        6737.      -228.0       8776.      -1058.       310.0      -621.2
       11014       1.3041E+04  -402.7      1.2865E+04  -251.9       173.4      -333.9
       11015        7626.      -52.46       6840.      -801.9       297.7      -1004.
       11016        8601.      -212.0       6749.      -666.1       394.5      -1081.
       11017        9779.       156.3       7556.      -544.0       204.5      -1111.
       11018        9757.      -34.11       7431.      -251.4       118.4      -1021.
       11019        8551.      -275.6       6480.      -423.2       219.5      -1089.
       11020       1.3448E+04  -116.2      1.3619E+04  -345.3      0.4235      -335.9
       11021       1.4638E+04   177.5      1.4899E+04  -403.0      -63.80      -282.4
       11022       1.0182E+04  -267.7      1.1342E+04  -727.7       126.3      -332.9
       11023       1.1384E+04  -307.8      1.2267E+04  -668.0       143.8      -393.1
       11024       1.1231E+04  -228.5      1.0353E+04  -324.6       47.54      -774.5
       11025        9386.      -192.5      1.0839E+04  -808.5       113.9      -354.1
       11026        8498.      -412.3       8804.      -819.1       387.1      -815.6
       11027        7611.      -144.8       9928.      -989.1       229.7      -372.4
       11028       1.3205E+04  -209.3      1.2667E+04  -422.2       130.9      -540.9
       11029       1.1338E+04  -104.0      1.0107E+04  -296.3       191.2      -798.2
       11030        8546.      -25.79       6856.      -418.2       304.4      -984.8
       11031       1.0557E+04  -79.08       8572.      -293.7       166.8      -924.7
       11032       1.4232E+04  -102.9      1.4658E+04  -278.5      -125.0      -291.8
       11033       1.3001E+04  -252.7      1.3739E+04  -502.4       40.64      -266.3
       11034       1.0050E+04   174.1      1.1788E+04  -882.1       261.9      -359.5
       11035        8417.      -156.1       7148.      -585.3       267.3      -1014.
       11036        8214.      -373.8       8948.      -875.0       402.1      -792.5
       11037       1.2682E+04  -311.1      1.3561E+04  -574.5       123.7      -269.5
       11038        9507.      -12.49       8390.      -690.8       309.1      -955.1
       11039        8602.      -109.7      1.0630E+04  -935.3       262.6      -344.9
       11040       1.2513E+04  -105.2      1.1684E+04  -402.6      -30.07      -716.9
       11041        7554.      -232.8       8516.      -960.6       270.3      -652.0
       11042        7381.      -212.1       8490.      -961.7       225.7      -600.7
       11043        7463.       24.38       9300.      -991.6       271.0      -501.9
       11044        7307.      -13.69       9617.      -971.6       312.6      -434.9
       11045       1.0992E+04  -18.55       9334.      -283.8       217.6      -854.0
       11046        7870.      -89.00       7604.      -774.7       206.2      -888.5
       11047       1.2462E+04   32.79      1.2044E+04  -393.6      -24.31      -662.3
       11048        7954.      -252.7       8144.      -806.4       298.3      -838.2
       11049       1.3671E+04  -67.80      1.3740E+04  -341.1       190.4      -397.1
       11050        7956.      -318.7       8853.      -914.8       362.1      -716.2
       11051        7332.      -49.96       8981.      -987.8       255.9      -564.2
       11052       1.3497E+04  -229.1      1.3571E+04  -355.0       36.08      -272.7
       11053        9231.      -89.60       8449.      -723.5       263.1      -927.2
       11054        9782.      -92.75       7875.      -525.7       250.5      -1010.
       11055        9741.      -126.4       7629.      -333.0       192.8      -992.7
       11056       1.2863E+04  -143.4      1.2861E+04  -414.7       116.9      -484.2
       11057       1.1493E+04  -184.8      1.0790E+04  -404.8       152.3      -739.9
       11058       1.1366E+04  -95.31      1.2102E+04  -679.0       200.8      -401.3
       11059        9470.      -168.4       8165.      -608.0       375.7      -913.5
       11060        9697.      -224.5       8277.      -503.7       232.1      -918.0
       11061        8941.      -277.1       9649.      -803.1       317.1      -701.3
       11062       1.2453E+04  -257.6      1.3007E+04  -495.6       121.7      -389.8
       11063       1.1338E+04  -299.5      1.0155E+04  -382.0       193.7      -783.1
       11064        7990.      -60.95       9025.      -928.0       190.3      -537.4
       11065        8428.      -201.4       9576.      -902.7       271.5      -581.4
       11066       1.1497E+04  -476.3      1.2202E+04  -580.8       35.53      -393.8
       11067       1.0285E+04  -175.0       8363.      -423.5       250.6      -941.3
       11068        8446.      -222.1      1.0167E+04  -847.1       84.83      -432.3
       11069       1.1462E+04  -338.2      1.2344E+04  -661.1       130.6      -307.9
       11070        9235.      -193.4       8688.      -732.6       228.8      -782.8
       11071        8243.      -210.5      1.0108E+04  -949.4       265.8      -434.3
       11072       1.2751E+04   175.8      1.2175E+04  -432.2       79.47      -661.8
       11073        7914.      -138.8       9296.      -946.5       177.8      -466.1
       11074        8744.      -185.7      1.0294E+04  -914.7       106.4      -428.6
       11075       1.0672E+04  -83.28       9080.      -375.7       238.9      -863.1
       11076        9421.      0.1698       9207.      -760.7       273.9      -778.9
       11077       1.2335E+04  -414.1      1.2209E+04  -425.0       91.77      -608.4
       11078        9398.      -47.38       9613.      -759.2       311.5      -742.7
       11079       1.2203E+04  -337.5      1.2458E+04  -426.0       80.79      -418.4
       11080        8549.      -365.1       9666.      -872.9       277.7      -637.3
       11081        7919.       116.0       9568.      -947.0       128.4      -517.6
       11082       1.2625E+04  -203.5      1.2877E+04  -422.3       110.3      -345.4
       11083        8994.      -195.7       8349.      -694.1       244.5      -829.1
       11084       1.0778E+04  -127.7       9574.      -426.6       299.5      -823.6
       11085        9500.      -214.9      1.0936E+04  -867.3       249.5      -525.9
       11086       1.0173E+04  -297.1      1.1036E+04  -822.8       275.0      -465.8
       11087       1.3012E+04   99.60      1.3688E+04  -538.2       34.85      -409.2
       11088        8698.      -220.8      1.0315E+04  -927.6       82.56      -466.4
       11089        9622.      -111.7       9359.      -655.8       299.1      -729.9
       11090       1.1542E+04  -238.7      1.1181E+04  -520.1       174.8      -662.5
       11091       1.3578E+04  -39.12      1.4199E+04  -504.1       9.555      -428.0
       11092       1.1370E+04  -319.3      1.0916E+04  -512.2       172.6      -711.7
       11093        9797.      -247.0       9998.      -699.5       320.6      -659.4
       11094       1.1804E+04  -11.10      1.2520E+04  -577.0       73.35      -408.3
       11095       1.0442E+04  -213.1       9889.      -462.0       292.2      -742.3
       11096       1.2672E+04  -332.8      1.2605E+04  -521.1       121.8      -514.1
       11097       1.0850E+04  -88.18      1.0751E+04  -529.1       233.2      -710.6
       11098       1.0804E+04  -159.4      1.1427E+04  -623.1       110.2      -405.2
       11099       1.1002E+04  -261.9      1.0782E+04  -569.3       319.1      -661.3
       11100        9757.      -165.2       9121.      -530.0       254.4      -759.8
       11101       1.0574E+04  -152.8      1.0203E+04  -528.8       278.9      -737.5
       11102       1.1715E+04  -207.0      1.1934E+04  -525.2       1.122      -442.7
       11103       1.1918E+04  -517.6      1.1775E+04  -557.3       210.7      -606.2
       11104        9458.      -113.9      1.0520E+04  -750.8       303.8      -522.7
       11105        9364.      -135.8      1.0620E+04  -815.9       262.8      -584.7
       11106       1.0340E+04  -164.3      1.1192E+04  -687.6       278.3      -421.9
       11107       1.1083E+04  -101.1      1.1150E+04  -571.7       194.6      -551.4
       11108       1.2215E+04  -397.7      1.2303E+04  -574.0       68.75      -488.2
       11109        9762.      -147.2      1.0487E+04  -714.6       300.1      -564.9
       11110       1.0743E+04  -152.3      1.1330E+04  -688.9       210.3      -476.4
       11111        8019.      -141.3       4454.      -89.13       43.33      -1274.
       11112        8959.      -289.6       6550.      -382.3       213.1      -1112.
       11113        9143.      -154.6       7521.      -614.1       350.6      -1042.
       11114       1.0428E+04  -163.0      1.1161E+04  -776.7       292.1      -407.5
       11115        9087.       65.61      1.0651E+04  -893.6       85.19      -453.7
       11116       1.2015E+04   59.74      1.2493E+04  -576.6       29.43      -415.5
       11117       1.0504E+04  -20.46       9113.      -553.4       367.3      -893.3
       11118       1.1381E+04  -115.2       9916.      -384.5       176.3      -831.4
       11119       1.1907E+04   202.9      1.2071E+04  -570.7       52.11      -463.2
       11120        9261.      -126.5       8277.      -645.9       264.5      -903.6
       11121       1.0812E+04   68.72       9852.      -532.2       280.5      -852.6
       11122        9068.      -79.77       8316.      -615.1       259.1      -847.9
       11123       1.0382E+04  -7.845      1.0197E+04  -612.6       325.5      -627.7
       11124       1.0997E+04  -313.5      1.1089E+04  -589.6       174.5      -503.8
       11125       1.0281E+04  -258.0      1.0460E+04  -649.8       314.9      -578.9
       11126        8848.      -49.22      1.0312E+04  -904.5       195.9      -507.4
       11127        9558.      -247.2      1.0102E+04  -763.6       287.1      -619.2
       11128        9761.      -150.7       9219.      -602.3       228.8      -789.5
       11129        9905.       5.072       9496.      -599.7       304.9      -764.2
       11130        4198.       71.81       2134.      -801.3       243.3      -1144.
       11131        4330.       169.3       3116.      -968.6       329.0      -1152.
       11132        3395.      -152.5       3342.      -1089.       302.4      -1108.
       11133        3489.      -34.02       4044.      -1076.       310.0      -1081.
       11134        2659.      -73.27       4311.      -1135.       310.4      -901.5
       11135        1725.       41.40       5782.      -1031.       55.25      -111.1
       11136        2610.      -7.878       6777.      -1128.       119.5      -235.4
       11137        2454.      -48.80       6528.      -1153.       132.8      -422.5
       11138        2144.      -353.1       4741.      -1170.       221.4      -508.3
       11139        3026.      -56.20       6203.      -1226.       288.4      -658.2
       11140        2136.      -44.14       5735.      -1109.       235.8      -640.1
       11141        2529.       7.550       5331.      -1184.       272.3      -692.7
       11142        2249.      -98.55       5086.      -1115.       203.2      -848.8
       11143        3150.       74.02       5140.      -1246.       328.7      -870.3
       11144        3215.      -2.453       5440.      -1259.       350.8      -752.0
       11145        2048.      -49.94       5021.      -1092.       281.9      -742.3
       11146        2282.      -110.2       4696.      -1154.       230.7      -896.3
       11147        3714.       154.6       5605.      -1201.       367.9      -916.1
       11148        2840.       130.4       4226.      -1126.       282.4      -1002.
       11149        3333.      -220.0       4644.      -1182.       343.0      -996.2
       11150        2874.       169.0       3731.      -1109.       295.2      -1021.
       11151        3321.       9.467       4029.      -1199.       377.9      -1052.
       11152        4287.      -78.50       4281.      -1131.       392.3      -1145.
       11153        3872.      -64.89       4543.      -1161.       392.3      -1098.
       11154        3649.      -363.4       2719.      -1005.       285.6      -1138.
       11155        4662.      -202.5       3658.      -1016.       374.9      -1149.
       11156        4491.      -260.5       3883.      -1095.       347.0      -1157.
       11157        3541.      -198.7       3097.      -1063.       287.3      -1093.
       11158        5005.       64.87       3713.      -987.0       343.9      -1191.
       11159        4056.      -9.261       2130.      -842.8       292.6      -1156.
       11160        5151.      -195.4       3433.      -928.9       366.5      -1211.
       11161        4693.       114.9       2926.      -904.0       336.5      -1167.
       11162        5306.      -18.62       3224.      -868.6       324.6      -1232.
       11163        4756.       82.28       2053.      -612.4       162.8      -1120.
       11164        5246.      -30.30       2900.      -756.9       262.3      -1220.
       11165        5541.       133.5       2263.      -521.3       175.5      -1085.
       11166        6924.       141.1       3238.      -490.9       217.8      -1186.
       11167        6024.       52.19       2704.      -412.3       190.7      -1220.
       11168        5877.      -19.82       1862.      -115.9       4.301      -1067.
       11169        6648.      -156.0       2702.      -258.4       103.1      -1189.
       11170        1790.       52.81       6217.      -1030.       101.4      -230.5
       11171        5807.       138.1       2126.      -270.1       76.05      -1079.
       11172        1941.       18.80       4987.      -1100.       239.8      -682.7
       11173        6074.       155.4       2343.      -496.9       158.2      -1096.
       11174        2378.      -81.78       6937.      -1207.       61.01      -110.1
       11175        6720.      -92.59       2412.      -106.1       55.10      -1228.
       11176        5700.       84.90       2130.      -394.5       118.3      -1107.
       11177        4375.       37.85       1944.      -748.4       173.7      -1091.
       11178        4983.       53.61       2774.      -547.5       129.3      -1189.
       11179        5388.      -67.84       2816.      -633.2       182.9      -1221.
       11180        3069.      -135.1       6543.      -1256.       271.3      -560.7
       11181        1711.      -5.118       5918.      -1070.       205.0      -354.5
       11182        2497.       25.80       5737.      -1197.       335.7      -746.3
       11183        2450.       71.07       5173.      -1190.       231.6      -822.5
       11184        4752.       43.39       2107.      -674.8       185.1      -1128.
       11185        2970.      -48.36      -273.1      -196.8      -109.8      -64.66
       11186        2766.       122.4      -125.2      -302.5      -148.6      -81.72
       11187        4318.       82.70       848.7      -418.0       28.48      -786.0
       11188        2534.       100.9      -65.05      -454.3      -267.1      -121.6
       11189        2412.       161.4       28.85      -495.3      -282.5      -151.8
       11190        1792.       49.67       179.9      -566.3      -371.8      -232.2
       11191        1491.       118.3       369.9      -528.4      -386.1      -294.5
       11192        1095.       287.6       936.0      -448.9      -403.4      -407.7
       11193        2848.       147.0       2190.      -959.4       123.9      -944.3
       11194        881.4       110.5       933.1      -450.3      -403.3      -451.6
       11195        2203.       48.57       2202.      -951.3       144.3      -933.0
       11196        353.5       216.7       1621.      -243.8      -366.6      -644.8
       11197        1618.      -19.17       3144.      -944.0       148.3      -878.5
       11198        291.0       66.94       1997.      -465.1      -205.1      -657.1
       11199        53.03       164.8       2704.      -24.60      -288.4      -532.5
       11200       -170.7       81.12       2299.      -98.30      -220.2      -502.4
       11201       -198.8       140.2       3414.      -46.67      -140.8      -338.0
       11202       -284.8       140.4       3230.      -3.582      -44.97      -129.6
       11203        469.3       16.25       4472.      -606.9       14.97      -106.4
       11204       -244.9       85.18       3483.      -104.0      -32.39      -85.93
       11205        16.01       200.3       3717.      -399.2      -8.740      -86.79
       11206       -153.1       44.79       3733.      -210.0      -49.25      -187.8
       11207        475.8       59.63       4726.      -689.8       51.07      -172.0
       11208       -189.6       7.284       3280.      -35.62      -122.9      -276.0
       11209       -120.5       114.6       3679.      -255.5      -32.16      -296.1
       11210        729.1       12.80       4828.      -720.8       57.19      -345.1
       11211        196.6       92.36       4199.      -432.7       3.773      -170.5
       11212       -243.8       38.01       3247.      -13.16      -91.08      -192.2
       11213        184.5       79.23       4026.      -487.2       22.91      -320.4
       11214        770.9       37.68       4267.      -730.9       142.7      -407.9
       11215       -260.8      -33.41       2893.      -57.20      -157.2      -417.2
       11216        749.7      -122.7       4986.      -771.9       66.53      -504.4
       11217        362.9       27.83       4061.      -533.2       34.35      -390.2
       11218       -75.93       34.65       3709.      -382.7      -55.52      -399.5
       11219       -165.9       130.1       2729.      -71.85      -189.3      -461.6
       11220        177.6       59.85       3444.      -423.6      -37.81      -484.8
       11221        418.0       23.14       4179.      -602.6       12.81      -492.0
       11222       -198.7       48.94       2550.      -61.74      -222.6      -488.4
       11223        44.03       289.8       3407.      -240.2      -140.8      -512.9
       11224        845.2      -95.87       4394.      -823.4       141.0      -586.0
       11225        86.69       178.1       2722.      -297.7      -177.9      -600.8
       11226        104.6       117.7       2888.      -344.3      -102.5      -555.5
       11227        848.3      -30.70       3699.      -773.6       87.22      -614.6
       11228        1084.       21.15       3980.      -877.1       133.7      -646.8
       11229        320.4      -24.24       3480.      -627.8       32.60      -553.2
       11230       -30.24       38.99       2531.      -167.1      -178.9      -520.5
       11231        165.1       58.61       2923.      -410.5      -92.85      -689.4
       11232        334.2       38.61       3175.      -543.5      -3.987      -623.9
       11233        1231.       29.27       4097.      -861.9       123.0      -703.3
       11234        226.9       46.29       2314.      -372.9      -169.1      -631.2
       11235        1186.       30.43       3687.      -867.0       134.9      -747.9
       11236        103.8       118.0       2235.      -131.7      -282.4      -537.0
       11237        426.9       251.9       2212.      -419.5      -196.5      -642.8
       11238        430.5       135.8       2848.      -559.9      -64.10      -673.8
       11239        657.0       43.56       3063.      -688.6       33.88      -726.5
       11240        511.3       91.46       2631.      -581.0      -85.78      -681.0
       11241        1283.       130.2       3453.      -869.1       107.6      -782.0
       11242        398.1       202.3       1770.      -418.1      -279.1      -627.7
       11243        420.6       98.03       2117.      -536.7      -179.5      -678.9
       11244        1073.      -54.87       3109.      -838.8       57.72      -802.6
       11245        1550.       65.53       3321.      -961.4       161.2      -904.3
       11246        813.1      -70.24       2793.      -720.8      -22.55      -751.8
       11247        557.6       90.61       2387.      -591.4      -113.0      -705.3
       11248        679.0       62.84       2254.      -628.1      -119.1      -711.1
       11249        1078.      -68.20       2848.      -851.0       46.87      -819.0
       11250        520.6       180.2       1354.      -353.6      -371.5      -555.1
       11251        1790.      -85.97       3100.      -895.9       114.7      -891.4
       11252        1092.       90.82       2293.      -753.5      -26.34      -803.3
       11253        447.4       229.9       1455.      -308.3      -363.9      -572.2
       11254        583.6       171.2       1152.      -384.4      -389.0      -534.9
       11255        870.3       129.1       1598.      -606.6      -218.7      -711.1
       11256        1124.      -16.90       1941.      -789.7      -56.74      -809.5
       11257        1812.       109.9       2557.      -910.8       82.16      -911.2
       11258        743.9       219.2       1059.      -414.2      -404.6      -502.4
       11259        901.9      -3.294       1383.      -635.5      -247.6      -665.6
       11260        1869.       11.81       2197.      -927.6       104.9      -900.2
       11261        1214.       148.8       1048.      -570.9      -298.7      -558.5
       11262        1344.       77.55       1447.      -672.5      -157.3      -713.8
       11263        1925.       13.99       1797.      -882.4       31.39      -876.4
       11264        1430.      -31.27       1652.      -783.8      -62.35      -794.6
       11265        1110.       107.2       1095.      -604.0      -277.5      -617.3
       11266        1427.       69.07       1276.      -598.4      -219.4      -629.7
       11267        1762.      -40.35       1525.      -779.7      -61.48      -791.0
       11268        1386.       113.8       594.8      -487.4      -418.5      -329.9
       11269        2365.       70.75       1500.      -904.3       108.5      -922.7
       11270        2290.      -122.9       1811.      -875.1       19.08      -868.7
       11271        1902.      -48.88       1420.      -859.6      -55.35      -809.4
       11272        1069.       194.2       768.9      -467.0      -417.6      -364.6
       11273        1401.       198.2       507.9      -514.4      -407.2      -312.6
       11274        1473.       280.6       804.8      -633.9      -286.1      -536.1
       11275        2166.      -74.58       1291.      -845.7      -27.12      -834.7
       11276        1572.       91.67       668.0      -657.0      -278.6      -498.3
       11277        1767.       17.79       749.5      -721.8      -183.6      -568.0
       11278        3140.      -100.0       1790.      -916.8       95.43      -921.8
       11279        1740.       237.2       390.1      -528.1      -377.7      -263.9
       11280        2146.       38.75       572.0      -670.5      -212.3      -479.9
       11281        3002.      -74.16       1285.      -812.4       29.16      -831.9
       11282        2180.      -202.4       1062.      -831.6      -27.42      -788.3
       11283        1598.       248.0       675.3      -658.1      -263.7      -466.3
       11284        2228.       8.790       496.0      -672.9      -142.2      -556.4
       11285        2159.       15.71       598.1      -697.6      -105.2      -628.1
       11286        3190.       176.7       1746.      -857.8       138.7      -905.5
       11287        2249.       145.3       334.0      -611.5      -252.7      -403.3
       11288        3258.       60.16       1249.      -795.7       45.34      -838.1
       11289        3027.       121.8       793.1      -707.7      -58.09      -677.0
       11290        1972.       82.02       170.3      -551.1      -364.5      -214.2
       11291        2128.       79.67       203.5      -522.3      -329.4      -185.8
       11292        2425.       204.6       329.3      -593.4      -229.5      -382.5
       11293        3214.       145.5       933.9      -702.5      -19.81      -713.3
       11294        3896.       35.17       1411.      -763.6       62.12      -869.7
       11295        2223.       197.2      -40.36      -512.9      -310.4      -170.1
       11296        2946.       86.36       371.2      -653.8      -110.3      -535.7
       11297        3185.       73.02       698.6      -685.7      -7.386      -721.7
       11298        2757.       69.73      -17.04      -513.1      -165.5      -308.6
       11299        3242.       87.06       336.3      -558.6      -72.98      -472.8
       11300        3781.      -103.4       612.6      -611.2      -5.270      -696.4
       11301        3921.       67.03       1168.      -696.0       70.39      -891.1
       11302        3049.       112.4       368.3      -600.8      -67.05      -515.4
       11303        2667.       258.1       175.0      -561.3      -164.1      -342.0
       11304        3211.       193.3       205.3      -509.6      -60.00      -436.9
       11305        3838.      -24.48       531.8      -565.2       15.07      -634.0
       11306        3986.       52.61       1100.      -624.5       49.96      -857.6
       11307        2813.       174.4       91.28      -426.0      -155.5      -240.0
       11308        4195.       2.372       976.7      -528.2       85.32      -786.4
       11309        3384.       145.3       194.5      -448.2      -76.15      -435.6
       11310        2588.       172.2      -58.85      -420.9      -251.7      -95.75
       11311        3085.       172.0      -54.42      -322.0      -168.1      -83.73
       11312        4127.       2.027       531.3      -430.2       8.749      -647.1
       11313        4317.       73.06       1002.      -472.9       112.9      -823.5
       11314        3277.       143.5       60.41      -376.1      -107.5      -255.3
       11315        3667.      -71.12       3.248      -340.7      -29.21      -448.3
       11316        3931.       67.37       468.5      -389.0      -3.986      -614.9
       11317        3369.     -0.5996      -65.88      -265.9      -79.74      -233.3
       11318        3660.      -33.41       75.51      -291.1      -35.07      -395.7
       11319        4586.       93.58       777.3      -323.2       32.00      -717.4
       11320        3171.      -18.82      -35.58      -305.6      -70.76      -258.1
       11321        3554.      -27.86       32.09      -259.1      -11.31      -364.1
       11322        3330.      -43.15      -228.6      -179.7      -45.59      -217.8
       11323        3975.      -78.17       193.3      -84.39       12.39      -480.9
       11324        4546.      -10.03       531.7      -115.2       27.25      -655.4
       11325        4461.       69.90       691.2      -226.6       25.67      -700.8
       11326        3058.      -40.79      -242.9      -125.2      -60.20      -46.54
       11327        3313.      -24.57      -205.4      -62.12      -20.91      -41.42
       11328        6.993       120.2       3402.      -223.2      -98.21      -422.6
       11329        1500.       141.1       986.1      -691.6      -181.7      -635.1
       11330        3814.       91.03      -165.6      -68.40      -4.565      -265.9
       11331        3234.      -40.26      -157.5      -237.1      -68.50      -201.6
       11332        3251.       130.4       123.1      -396.0      -57.76      -449.5
       11333        2757.       135.9       146.7      -470.1      -143.4      -259.9
       11334       -149.5       137.1       3603.      -172.7      -85.63      -378.1
       11335        112.3       105.7       2513.      -322.6      -170.3      -609.1
       11336        1275.       122.8       835.5      -588.0      -298.1      -522.5
       11337        2497.       131.3       537.6      -677.9      -143.5      -545.9
       11338        1980.       62.66       387.1      -621.3      -250.4      -416.7
       11339        4176.      -33.05       198.6      -209.4      -1.533      -455.3
       11340        274.7       85.93       2923.      -500.2      -63.90      -672.3
       11341        803.4       148.3       1965.      -553.2      -202.1      -733.5
       11342        2939.       68.64      -238.2      -245.5      -136.1      -73.74
       11343        2433.      -25.03      -239.1      -381.2      -206.9      -95.79
       11344        146.1       150.6       2281.      -166.9      -285.3      -542.8
       11345        113.7       144.9       1930.      -171.1      -285.4      -553.4
       11346        230.7       140.5       1920.      -213.7      -319.3      -553.5
       11347        185.2       217.5       1606.      -287.8      -335.2      -538.2
       11348        900.4       70.58       3164.      -708.9       10.71      -744.1
       11349        803.4       1.314       2416.      -718.6      -38.73      -756.3
       11350        2597.       183.7       148.7      -582.7      -202.3      -359.7
       11351        487.6       176.3       1638.      -483.6      -222.7      -698.4
       11352        2875.       223.1       588.1      -650.5      -123.2      -547.8
       11353        4293.       28.68       459.7      -310.1      -1.157      -535.5
       11354        2646.      -59.55       1042.      -761.4      -23.60      -746.0
       11355       -88.49       157.7       2936.      -246.9      -135.0      -467.0
       11356        209.9       87.07       3471.      -425.8      -74.23      -518.1
       11357        3920.       19.62       528.3      -475.4     -0.5840      -601.1
       11358        530.5      -19.92       3730.      -689.5       30.70      -663.7
       11359        3765.       55.75       391.3      -543.1      -6.758      -548.2
       11360        1994.       57.41       897.2      -760.2      -145.4      -650.1
       11361        1746.       39.50       1020.      -760.3      -151.4      -697.3
       11362        2505.      -24.95       885.5      -766.4      -63.72      -766.3
       11363        537.6       61.89       2236.      -607.4      -115.7      -688.6
       11364        2619.       58.98       779.1      -709.8      -72.97      -631.9
       11365        2065.       48.83       789.2      -741.3      -85.35      -666.3
       11366        401.2       3729.       592.4      -15.41       233.9       420.5
       11367        303.7       3538.       709.7      -142.8       264.4       328.4
       11368       -534.1       524.6      -2116.       51.54       46.78       96.81
       11369        6.945       2710.      -2099.      -51.52       160.6       123.7
       11370       -156.6       3375.      -2031.       129.4       161.5       323.4
       11371        176.8       4483.      -1719.       158.0       188.6       665.4
       11372        79.50       4225.      -1106.       138.7       366.7       830.9
       11373        190.8       4729.      -613.9       158.9       308.4       759.2
       11374        275.3       3660.       353.0       81.92       291.3       604.0
       11375        123.7       4119.       805.7      -185.2       265.3       76.68
       11376        23.56       3942.       205.1      -261.8       79.20      -192.7
       11377        159.8       5681.      -68.89      -232.6       70.69      -173.6
       11378       -53.40       4201.      -208.1      -169.5      -55.06      -28.58
       11379       -83.37       3021.       9.505      -203.4      -15.73       73.71
       11380        2.367       1693.       153.9      -108.7      -17.57      -24.11
       11381        258.0       3760.     -0.1456       70.89      -13.06      -9.176
       11382       -3904.       2441.      -161.8       478.7       687.3      -647.7
       11383        191.5       3717.      -23.48       26.95      -5.786      -23.46
       11384       -3402.       3377.      -629.4       500.2       1383.      -844.0
       11385       -43.92       3769.      -23.56      -4.175       30.67       15.90
       11386       -1743.       4649.      -2184.      -592.4       1844.      -239.5
       11387       -3.487       4374.       80.92      -27.81       7.805       32.55
       11388       -37.57       4937.      -41.92       27.25       9.899      -90.29
       11389       -371.3       3105.      -3735.      -705.2       937.1       689.4
       11390       -41.74       1607.      -3526.      -356.0       309.7       120.7
       11391       -31.03       2581.      -3274.      -277.5       374.3       312.1
       11392       -17.74       1984.      -4524.      -598.5       416.8       154.4
       11393        219.8       4403.      -2696.      -238.2       397.0       471.4
       11394       -89.32       3194.      -2988.      -369.0       463.8       515.4
       11395       -166.4       2965.      -3768.      -749.7       752.9       432.2
       11396        3.732       4500.      -1662.      -217.0       523.9       752.1
       11397       -137.0       4087.      -1875.      -194.7       640.9       873.4
       11398       -148.8       3999.      -2942.      -459.4       717.0       760.4
       11399       -22.61       4557.       73.96      -1.063       7.090      -38.75
       11400       -58.60       4367.       97.72      -56.86       48.42      -55.21
       11401        154.2       4606.       251.5       15.73      -6.048      -5.735
       11402        71.07       4308.       471.8       20.02      -49.58       171.9
       11403        94.49       4307.       639.4      -127.8      -89.30       199.2
       11404        171.1       4203.       573.2      -47.48       47.39       488.7
       11405        171.7       4245.       264.3      -71.03       184.3       636.9
       11406        231.8       4629.      -184.7      -178.2       301.3       827.3
       11407       -155.8       4068.      -1422.      -276.1       470.9       957.1
       11408       -194.9       3995.      -2244.      -454.8       754.9       896.0
       11409       -163.9       4107.      -2746.      -587.6       851.0       846.9
       11410       -490.0       3994.      -3418.      -776.3       1167.       780.8
       11411       -35.58       4705.       67.16      -8.055       24.18      -143.2
       11412       -50.34       4839.     -0.1747       129.0      -16.86      -130.8
       11413       0.2138       4973.       24.77       12.76       6.638      -101.1
       11414        129.9       4869.      -13.09       96.07      -2.471      -60.78
       11415       -30.37       3491.      -34.50      -64.50      -7.868      -8.746
       11416       -94.46       2613.      -156.5       45.57       46.20      -45.78
       11417       -13.39       4334.       58.89      -47.46       18.79       46.98
       11418       -12.84       4289.       126.1      -58.06       2.989       82.30
       11419        2.676       4226.       406.7      -53.42      -49.78       200.0
       11420       -14.33       4232.       504.7      -127.4      -46.81       303.8
       11421       -16.22       4219.       391.0      -153.5       2.056       489.6
       11422       -46.97       4123.       200.6      -165.7       81.83       661.5
       11423       -197.3       3955.      -739.3      -251.6       326.3       859.6
       11424       -304.1       4115.      -1667.      -474.5       803.5       843.1
       11425       -311.9       4165.      -2005.      -530.7       881.8       858.0
       11426       -356.3       4033.      -2433.      -605.6       986.8       840.4
       11427       -45.67       4028.       55.21      -41.28       31.03       82.33
       11428       -48.82       4051.       79.05      -41.16       23.68       116.5
       11429       -11.25       4070.       132.1      -64.87      -2.009       157.3
       11430       -29.99       4051.       100.8      -104.0       10.51       231.4
       11431       -68.31       4099.       66.38      -173.0       48.86       366.1
       11432       -124.0       4170.      -131.1      -257.5       160.0       543.1
       11433       -223.3       4262.      -531.3      -326.9       358.9       670.1
       11434       -415.2       4422.      -950.6      -419.8       665.3       551.1
       11435       -626.9       4478.      -1592.      -497.7       914.5       620.3
       11436       -575.2       4349.      -1724.      -599.7       1020.       651.3
       11437       -969.5       4128.      -2870.      -850.8       1552.       511.3
       11438       -816.4       4053.      -3233.      -893.7       1492.       615.1
       11439       -531.9       4195.      -2471.      -716.2       1193.       697.8
       11440       -517.5       4269.      -1760.      -546.4       1028.       733.7
       11441       -290.7       4286.      -1508.      -525.4       824.1       773.4
       11442       -205.1       4163.      -820.4      -340.1       522.6       847.6
       11443       -52.96       4160.       167.5      -205.4       64.62       568.3
       11444       -65.03       4178.       383.3      -164.6     -0.2304       305.9
       11445       -4.573       4164.       304.3      -60.27      -32.71       203.5
       11446       -47.10       4138.       211.7      -31.06       6.963       183.7
       11447       -43.69       4120.       90.00      -67.26       31.14       87.36
       11448       -38.78       4175.       43.38      -48.59       38.17       79.47
       11449       -21.03       4205.       74.87      -24.88       17.06       46.78
       11450       -42.81       3902.       14.43      -16.03       30.76       45.41
       11451       -49.97       3922.       32.33      -28.22       27.14       68.43
       11452       -26.77       3947.       50.72      -57.12       20.78       79.43
       11453       -40.59       3957.       65.09      -67.84       19.30       138.5
       11454       -71.40       4016.       65.57      -107.0       40.23       198.0
       11455       -79.97       4070.       9.548      -160.4       74.60       315.5
       11456       -194.9       4207.      -312.5      -264.8       286.0       495.5
       11457       -349.3       4282.      -639.1      -351.8       482.4       552.1
       11458       -503.6       4480.      -835.6      -364.4       668.5       438.5
       11459       -508.4       4485.      -1125.      -451.8       847.7       518.9
       11460       -710.5       4625.      -1677.      -559.3       1144.       519.4
       11461       -1155.       4723.      -2292.      -723.5       1648.       294.1
       11462       -54.92       3804.      -4.723      -16.48       30.89       12.23
       11463       -34.21       3844.      -19.04      -5.945       27.07       59.90
       11464       -19.92       3842.      -63.11       13.78       37.26       90.11
       11465       -47.27       3880.      -34.36      -28.18       44.52       99.68
       11466       -54.19       3939.      -93.51      -1.016       60.37       189.6
       11467       -146.7       3992.      -87.11      -147.0       100.2       251.8
       11468       -249.4       4174.      -350.8      -222.3       297.0       401.8
       11469       -327.9       4257.      -502.6      -272.5       409.9       425.8
       11470       -535.4       4484.      -788.0      -277.6       656.6       342.8
       11471       -786.7       4628.      -1351.      -427.8       1004.       345.9
       11472       -887.9       4633.      -1685.      -536.4       1232.       352.1
       11473       -1027.       4857.      -1801.      -528.8       1396.       259.9
       11474       -1480.       4886.      -2317.      -725.7       1778.       15.78
       11475       -56.97       3719.      -22.78       15.88       29.81       7.666
       11476       0.6797       3788.      -68.18       23.48       28.79     -0.7455
       11477       -39.35       3805.      -17.04       67.81       35.42       15.18
       11478       -31.34       3947.      -54.74       51.65       70.62       17.44
       11479       -150.1       3835.      -41.99      -26.36       73.14       35.90
       11480       -230.1       3974.      -208.5       22.14       194.7       12.57
       11481       -282.9       4151.      -192.2      -12.88       273.1       88.88
       11482       -387.5       4382.      -343.1      -16.23       413.3       86.29
       11483       -678.2       4606.      -597.2      -95.02       711.8       50.32
       11484       -1189.       4661.      -1214.      -218.4       1122.      -21.08
       11485       -1038.       4787.      -1263.      -344.5       1185.       50.15
       11486       -1279.       4886.      -1265.      -348.1       1308.      -44.04
       11487       -2020.       4857.      -1854.      -444.4       1861.      -426.1
       11488       -1373.       4818.      -1919.      -551.7       1611.      -44.29
       11489       -918.3       4725.      -1496.      -443.7       1172.       288.3
       11490       -758.9       4645.      -1077.      -368.4       978.0       232.2
       11491       -635.0       4588.      -872.1      -261.2       784.5       159.8
       11492       -438.2       4326.      -560.9      -122.9       461.7       187.1
       11493       -231.3       4248.      -252.4      -121.3       266.4       179.4
       11494       -143.5       3974.      -54.90      -119.3       115.3       150.9
       11495       -40.55       3963.      -70.08      -31.74       60.62       109.5
       11496       -69.64       3860.      -31.24      -3.674       57.72       48.88
       11497       -50.02       3804.      -5.427       10.13       35.69       50.57
       11498       -63.71       3786.       2.743      -21.13       33.67       14.75
       11499       -41.47       3714.      -30.26       100.9       34.96      -4.362
       11500       -34.77       3784.      -85.11       65.72       45.18      -31.80
       11501       -127.2       3850.      -61.87       165.6       76.11       87.47
       11502       -129.0       3869.      -113.3       114.5       125.0      -11.43
       11503       -288.9       4099.      -257.2       82.27       284.1      -16.72
       11504       -506.1       4246.      -405.7       89.69       492.7      -87.34
       11505       -616.5       4379.      -475.6       14.35       543.7      -26.75
       11506       -1009.       4503.      -839.1      -30.71       914.8      -157.8
       11507       -1129.       4727.      -1068.      -145.1       1088.      -101.8
       11508       -1762.       4589.      -1471.      -192.6       1507.      -369.2
       11509        19.87       3643.      -24.31       42.66       4.770      -12.72
       11510        20.41       3680.      -17.30       115.5       4.107      -14.47
       11511        19.12       3703.      -45.45       145.2       21.75      -49.06
       11512       -11.11       3736.      -32.08       177.2       30.34      -67.98
       11513       -30.98       3792.      -62.86       202.5       63.17      -88.48
       11514       -163.0       3848.      -96.51       305.2       108.5      -118.4
       11515       -248.9       3897.      -132.4       314.8       174.3      -155.4
       11516       -479.1       4094.      -258.5       347.6       391.9      -219.1
       11517       -625.5       4211.      -348.5       307.6       521.3      -220.3
       11518       -955.1       4327.      -489.2       334.8       749.9      -337.1
       11519       -1364.       4396.      -661.7       252.7       943.4      -396.5
       11520       -1825.       4448.      -837.7       289.1       1219.      -578.7
       11521       -2621.       4395.      -1195.       192.5       1661.      -807.0
       11522       -2539.       4344.      -1580.      -101.3       1788.      -715.2
       11523       -1746.       4638.      -1085.       8.659       1370.      -460.4
       11524       -1339.       4559.      -833.7       51.69       1061.      -309.3
       11525       -1104.       4435.      -710.5       167.7       851.6      -259.8
       11526       -627.2       4287.      -489.6       142.5       588.0      -161.8
       11527       -581.3       4133.      -390.4       201.0       428.7      -166.2
       11528       -206.3       3951.      -145.2       240.1       184.7      -125.5
       11529       -59.45       3878.      -47.98       214.9       111.7      -79.17
       11530       -57.34       3780.      -57.00       134.6       57.19      -79.88
       11531       -19.52       3734.      -54.94       128.1       39.05      -62.06
       11532       -13.68       3708.      -23.61       109.2       23.88      -38.95
       11533       -16.10       3669.      -30.17       68.53       17.10      -25.88
       11534       -7.846       3654.      -38.26       41.28       18.06      -6.403
       11535        78.24       3659.      -30.71       116.7     -0.8438      -12.97
       11536        102.9       3697.      -29.32       184.9      0.6797      -34.29
       11537        67.22       3719.      -45.80       206.3       17.75      -50.07
       11538        85.00       3772.      -28.81       283.2       18.99      -82.59
       11539        9.473       3793.      -50.27       340.0       52.26      -115.9
       11540       -117.6       3854.      -59.01       376.7       103.8      -158.7
       11541       -396.3       3969.      -168.7       422.1       250.9      -190.6
       11542       -813.2       4057.      -355.6       466.2       460.9      -293.8
       11543       -1029.       4100.      -431.4       480.3       623.5      -371.3
       11544       -1269.       4277.      -535.5       424.5       811.8      -410.3
       11545       -2000.       4308.      -755.8       413.5       1216.      -625.3
       11546        114.3       3700.      -6.282       78.57      -14.37      -12.78
       11547        84.74       3706.      0.8242       113.9      -21.15      -9.342
       11548        148.6       3734.      -6.825       171.9      -13.15      -38.08
       11549        152.7       3710.      -19.73       235.1      -11.62      -66.67
       11550        93.17       3727.      -20.46       307.5      -1.492      -80.13
       11551        27.72       3759.      -40.12       388.7       43.31      -109.9
       11552       -118.4       3788.      -59.07       466.9       104.7      -169.4
       11553       -271.4       3883.      -83.07       506.0       211.6      -208.8
       11554       -525.7       3952.      -170.1       523.7       370.3      -299.9
       11555       -942.1       4033.      -288.6       565.2       542.7      -368.3
       11556       -1750.       4079.      -508.4       576.7       916.7      -550.8
       11557       -2224.       3970.      -590.3       587.0       1116.      -651.8
       11558       -3108.       3853.      -847.0       508.0       1520.      -880.5
       11559        199.7       3738.      -7.104       53.18      -10.75      -4.348
       11560        239.0       3784.      -5.311       111.8      -19.86      -10.62
       11561        256.9       3767.      -11.54       153.4      -23.78      -23.69
       11562        291.0       3746.      -1.911       223.2      -23.31      -38.11
       11563        255.9       3701.      -11.86       311.0      -18.20      -37.73
       11564        264.1       3718.       12.77       387.8      -6.837      -44.16
       11565        129.9       3776.       3.851       430.4       21.54      -85.26
       11566       -144.5       3631.      -64.56       540.7       112.9      -165.5
       11567       -565.6       3702.      -154.0       640.5       249.4      -223.1
       11568       -1092.       3674.      -185.8       693.7       446.5      -342.1
       11569       -1655.       3485.      -271.5       658.5       708.9      -421.9
       11570       -2232.       3384.      -291.3       682.0       787.3      -456.9
       11571       -3377.       3169.      -493.9       569.4       1196.      -738.5
       11572       -2448.       3655.      -464.5       642.1       1015.      -608.4
       11573       -1348.       3972.      -331.4       639.2       684.8      -461.0
       11574       -1020.       3821.      -206.6       678.5       508.8      -368.1
       11575       -598.1       3747.      -120.5       637.0       341.1      -267.9
       11576       -315.8       3762.      -121.3       578.5       184.7      -196.9
       11577       -5.239       3693.      -34.98       451.7       54.20      -132.7
       11578        75.01       3741.      -7.440       390.8       13.37      -94.10
       11579        145.6       3717.      -16.17       330.6      -20.17      -58.33
       11580        186.8       3683.      -51.48       200.1      -9.373      -63.16
       11581        209.3       3730.      -16.52       152.2      -12.59      -23.29
       11582        185.9       3707.      -36.54       109.5      -5.242      -54.34
       11583        276.5       3782.      -1.390       113.8      -15.73      -10.36
       11584        301.3       3771.      -12.29       152.6      -25.90      -15.31
       11585        329.8       3884.       19.27       209.0      -28.40      -18.36
       11586        280.0       3696.      -32.98       288.0      -18.92      -35.31
       11587        316.8       3831.       17.62       354.9      -9.585      -37.92
       11588        99.28       3663.      -10.84       439.6       22.15      -55.16
       11589       -219.9       3729.      -37.73       568.6       124.9      -135.5
       11590       -392.5       3587.      -22.96       566.5       178.2      -146.5
       11591       -956.5       3548.      -76.48       644.3       325.7      -238.9
       11592       -1543.       3409.      -133.1       659.5       484.4      -284.5
       11593       -2411.       3123.      -188.1       643.1       657.7      -389.9
       11594       -3292.       2971.      -228.4       580.9       818.7      -571.1
       11595        318.5       3794.       5.914       34.09      -2.511       20.25
       11596        325.7       3785.       8.176       78.94      -2.850       1.215
       11597        346.2       3771.       7.887       91.51      -14.57       6.465
       11598        381.4       3755.       6.728       110.1      -19.00       21.25
       11599        396.3       3670.      -22.49       193.2      -23.24       21.83
       11600        404.7       3644.       11.37       219.0      -6.769       28.34
       11601        282.4       3514.       26.97       211.0       13.83       34.58
       11602        48.33       3446.       1.479       334.2       16.56       1.012
       11603       -427.4       3250.      -34.38       362.2       104.0      -30.74
       11604       -816.8       3199.      -43.36       386.7       151.1      -77.34
       11605       -1874.       2824.      -107.7       420.0       281.2      -174.4
       11606       -2610.       3014.      -161.6       464.1       340.3      -185.4
       11607       -3871.       2049.      -194.6       385.5       583.0      -516.9
       11608       -3126.       2707.      -76.60       517.7       536.8      -469.0
       11609       -1624.       3196.      -116.7       616.8       361.3      -219.3
       11610       -1109.       3275.      -115.2       570.1       256.9      -174.8
       11611       -523.6       3375.      -52.77       507.0       147.9      -80.19
       11612        50.72       3505.      -10.26       399.5       39.49      -25.82
       11613        155.8       3550.      -16.81       297.8       2.978       4.149
       11614        327.8       3623.      -4.058       249.8      -7.723       17.67
       11615        383.0       3715.      -1.545       243.0      -26.88      -5.814
       11616        365.5       3753.       9.264       160.3      -22.97       3.333
       11617        308.9       3770.       1.359       101.7      -9.473      -8.460
       11618        293.3       3794.       4.936       45.88      -12.33       7.712
       11619        358.4       3796.       4.181       47.91      -14.62       20.78
       11620        412.5       3725.      -25.87       84.98      -14.73       36.10
       11621        406.6       3590.      -11.06       84.76      -7.318       34.03
       11622        346.4       3469.       30.89       101.2      -12.04       54.43
       11623        48.93       3335.      -8.786       167.3       19.12       59.84
       11624       -750.6       3219.      -20.35       204.9       88.14      -37.86
       11625       -1786.       2914.      -11.59       218.2       142.5      -135.1
       11626       -3686.       2698.      -2.173       240.8       43.54      -433.1
       11627        65.60       1302.      -4634.      -643.9       348.9      -3.202
       11628       -97.73       1959.      -4195.      -501.4       205.3       1.763
       11629       -713.9       3193.      -12.28       93.96       35.38      -16.44
       11630       -45.75       3661.      -50.62      -2.096       31.71       6.836
       11631       -58.95       3794.      -17.19     -0.2718       33.05       8.024
       11632       -1509.       4784.      -2551.      -824.1       1957.      -79.98
       11633       -1064.       4477.      -3048.      -985.1       1765.       372.1
       11634        37.97       4454.      -917.4      -187.1       352.1       971.2
       11635        83.81       4504.      -2107.      -203.3       473.6       565.6
       11636        335.3       4670.      -38.86       13.42      -132.4      -100.4
       11637        157.7       4203.       70.48       74.58      -47.58     -0.2400
       11638       -1.412       3284.      -130.0      -9.962       34.05     -0.4107
       11639        258.1       1720.       249.5       23.67       42.30       26.37
       11640       -37.45       4809.      -46.45       25.42       30.57      -56.21
       11641       -2.666       4879.       97.49       13.25      0.1721      -41.78
       11642       -32.43       4143.       55.06      -14.07       17.65       27.74
       11643       -20.76       3669.      -45.42       20.64       23.20      -4.957
       11644        11.83       3696.      -31.57       15.17       11.85      -7.480
       11645        71.41       3663.      -34.66       22.48      -1.379      -9.938
       11646        124.5       3661.      -21.70       44.03      -8.962      -1.916
       11647       -146.6       3359.       61.14       108.2       12.15       41.08
       11648        171.2       3719.      -15.83       23.92      -18.26      -2.108
       11649        308.6       3338.      -30.16       28.50      -6.578       58.78
       11650        521.5       3808.       24.76       46.97      -6.885       54.34
       11651        254.0       3781.       4.246       26.97      -15.34      -3.386
       11652        309.8       3843.       15.16       15.98      -11.19       12.85
       11653        411.6       3746.       6.123       27.36      -11.75       29.03
       11654        357.6       3836.       41.27       5.933      -3.209       1.678
       11655        363.9       3779.       23.52       13.78      -3.899       11.71
       11656       -3788.       2090.       95.63       125.6       123.8      -489.8
       11657       -4262.       2076.      -91.59       254.2       304.3      -617.8
       11658       -4209.       2511.      -225.8       410.0       825.4      -736.6
       11659       -3848.       2894.      -409.1       500.9       1075.      -767.2
       11660       -2041.       4726.      -2284.      -666.5       1999.      -284.3
       11661       -2326.       4790.      -1864.      -388.9       2022.      -600.4
       11662       -2467.       5302.      -1290.      -192.8       1910.      -744.5
       11663       -3011.       4259.      -1120.       256.2       1797.      -927.6
       11664       -955.4       3993.      -3479.      -949.2       1634.       544.8
       11665        1.014       1348.      -2823.      -255.9       281.1       153.2
       11666       -616.0       3683.      -3684.      -948.8       1445.       641.6
       11667       -336.7       3301.      -4180.      -815.8       1094.       638.2
       11668        44.38       3082.      -2951.      -364.1       320.9       410.2
       11669       -225.7       2533.      -4493.      -645.4       786.1       371.8
       11670       -24.56       4224.       290.3      -4.729      -36.23       141.4
       11671       -36.12       4205.       659.2      -82.51      -45.01       206.9
       11672       -25.21       4232.       556.9      -137.9      -74.12       393.0
       11673       -23.86       4199.       334.4      -115.4       3.042       605.1
       11674       -113.2       4094.      -55.21      -171.8       117.5       739.9
       11675       -5.180       4313.       95.84      -7.854      -3.325       19.72
       11676       -41.47       4011.       29.35      -12.63       30.06       36.29
       11677       -2384.       2277.      -66.22       72.70       89.77      -219.4
       11678       -3355.       3787.      -831.8       438.8       1666.      -966.4
       11679       -3835.       3089.      -870.4       437.3       1485.      -911.3
       11680        264.1       3404.       7.021       92.16       18.24       60.33
       11681        323.2       3804.       17.83       13.23      -9.768       5.065
       11682        328.7       3862.       15.90       18.13      -10.15       11.21
       11683        274.4       3780.       2.208       19.42      -10.32       3.662
       11684        224.4       3749.      -4.122       41.05      -14.45      -3.260
       11685        212.1       3772.      -5.413       23.43      -12.55      -8.875
       11686        144.7       3717.      -7.505       38.31      -14.36      -3.006
       11687        104.7       3683.      -31.07       28.18      -4.159      -5.749
       11688        43.53       3594.      -39.46       27.21       2.703      -10.03
       11689        21.57       3679.      -20.45       18.34       6.211      -11.66
       11690       -19.35       3677.      -27.19       19.99       17.58      -6.332
       11691       -43.44       3686.      -32.52       14.10       27.49      0.7755
       11692       -58.51       3718.      -23.77       5.148       30.79       8.942
       11693       -58.98       3687.      -35.05      0.5929       32.67       5.687
       11694       -60.29       3844.     -0.7929      -4.775       34.27       11.57
       11695       -57.73       3879.       19.08      -11.49       34.35       15.72
       11696       -34.35       4064.       45.84      -24.87       25.53       27.07
       11697       -17.24       4197.       69.37      -13.09       7.871       26.61
       11698        22.94       4475.       96.70      0.3340      -17.55       12.77
       11699        3.728       4668.       99.88       12.01      -11.44      -14.22
       11700       -28.20       4953.      -11.96       23.74       15.12      -55.96
       11701       -10.28       4484.      -57.48       22.10       25.44      -46.93
       11702        25.27       2791.      -205.0      -44.03       29.31       26.41
       11703       -3085.       3331.       32.74       41.08       148.9      -329.8
       11704       -2013.       2952.      -21.01       96.80       79.60      -137.1
       11705       -1280.       2887.      -24.06       113.1       59.33      -65.78
       11706       -495.4       3168.      -16.50       109.3       12.22       26.73
       11707        160.1       3528.       8.923       103.7       17.15       61.19
       11708        342.8       3481.      -2.312       44.21       3.589       67.17
       11709        449.7       3653.       4.596       28.43      -5.103       56.28
       11710        480.6       3732.      -12.12       54.01      -5.191       42.92
       11711        419.5       3660.      -2.647       36.12      -11.29       27.36
       11712        368.2       3753.       7.346       19.62      -7.502       25.99
       11713       -4484.       1609.      -135.2       129.5       136.0      -707.1
       11714       -4385.       1959.      -85.09       367.9       483.1      -695.7
       11715       -4395.       1969.      -22.61       393.5       685.9      -696.7
       11716       -4109.       2575.      -347.5       453.6       961.4      -782.7
       11717       -3902.       2773.      -520.3       500.7       1240.      -859.5
       11718       -3822.       3125.      -688.2       493.8       1382.      -876.0
       11719       -3737.       2925.      -922.6       443.1       1581.      -941.3
       11720       -3164.       4050.      -944.4       350.6       1728.      -951.7
       11721       -3022.       4375.      -1338.       179.1       1865.      -908.2
       11722       -2700.       4540.      -1351.       19.84       1890.      -883.0
       11723       -2751.       3673.      -1776.      -289.5       1947.      -650.5
       11724       -2237.       4853.      -2053.      -498.7       2008.      -505.1
       11725       -2047.       4593.      -2263.      -618.2       2000.      -420.0
       11726       -1566.       4841.      -2417.      -739.1       1981.      -179.6
       11727       -1379.       4602.      -2713.      -895.4       1882.       58.37
       11728       -1193.       4718.      -2832.      -893.6       1780.       262.0
       11729       -954.8       4121.      -3223.      -983.4       1716.       506.8
       11730       -719.0       3459.      -3679.      -950.3       1536.       566.2
       11731       -498.6       3468.      -3933.      -903.8       1333.       647.2
       11732       -547.5       2971.      -4195.      -832.8       1195.       641.0
       11733       -203.5       3258.      -4280.      -744.2       971.8       562.2
       11734       -228.0       1721.      -4833.      -696.0       607.5       214.2
       11735       -47.46       1375.      -4880.      -638.6       470.2       83.10
       11736       -86.78       489.1      -4966.      -692.4       212.2      -74.42
       11737       -31.24       463.2      -3765.      -355.0       161.3       58.24
       11738       -6.510       1875.      -4373.      -532.1       463.1       99.94
       11739       -851.0       4644.      -2582.      -778.2       1513.       476.7
       11740       -110.5       4040.      -2017.      -312.7       620.9       878.7
       11741       -25.66       4937.       11.36       31.21      -50.72      -152.5
       11742       -28.77       4657.       77.17       11.15       25.57      -96.73
       11743       -10.52       4353.       25.02      -57.42       20.69       43.86
       11744        151.8       2758.       74.23      0.7522       77.56       75.44
       11745       -28.92       4148.       54.19      -29.26       24.08       45.39
       11746       -48.78       3797.      -3.524      -17.22       31.81       10.82
       11747        1.938       3628.      -41.45       43.95       12.49      -7.348
       11748        43.44       3641.      -27.78       37.29       2.622      -23.88
       11749        212.8       3357.       5.114       149.4       9.905       52.97
       11750        264.5       3786.       11.65       54.81      -14.92       1.874
       11751        300.5       3782.       5.858       33.81      -8.825       41.82
       11752       -3681.       2823.      -230.5       512.3       794.7      -661.2
       11753       -2355.       4822.      -1626.      -221.5       1816.      -601.1
       11754       -76.43       3787.      -2422.      -339.4       525.4       667.4
       11755       -108.7       2393.      -4177.      -486.2       517.8       273.5
       11756       -750.6       3854.      -3369.      -881.8       1401.       658.0
       11757       -204.4       4129.      -1467.      -381.0       655.2       885.6
       11758        50.86       4753.      -57.48       63.49       32.97      -84.57
       11759       -6.360       4183.       231.2      -40.78      0.9663       158.4
       11760       -15.73       4209.       366.4      -110.0      -44.67       286.2
       11761       -49.09       4191.       341.4      -163.5      -11.34       424.6
       11762       -58.56       4194.       219.2      -205.4       78.16       541.1
       11763       -81.01       4105.      -147.9      -193.1       190.2       755.7
       11764       -100.0       3347.       28.63       183.2       28.92       38.41
       11765       -3092.       3219.      -366.7       606.6       1071.      -602.0
       11766        6.771       1143.      -4163.      -511.9       349.4       33.80
       11767       -348.1       3347.      -18.60       193.6       36.23       11.35
       11768       -49.89       3704.      -24.24       12.64       31.55       18.01
       11769       -1346.       4860.      -2365.      -766.0       1743.       126.5
       11770       -16.36       3936.      -78.98       14.60       18.80      -24.69
       11771        142.6       3694.      -11.16       64.24      -15.32      -14.45
       11772        185.5       3751.      -15.08       83.08      -9.287      -8.534
       11773        440.8       3659.       32.01       97.86      -2.313       57.22
       11774        388.8       3623.      -3.211       56.26      -10.37       3.465
       11775        371.4       3759.      0.9516       54.79      -12.92       19.12
       11776        343.1       3812.     -0.7489       34.82      -3.872       11.36
       11777       -3268.       2138.      -152.4       184.8       265.1      -366.3
       11778       -3679.       2124.      -79.07       295.4       495.7      -455.1
       11779       -1902.       4854.      -2004.      -520.0       1848.      -334.7
       11780       -1946.       5040.      -1666.      -328.4       1851.      -508.2
       11781       -2749.       4373.      -1069.       301.6       1614.      -817.7
       11782       -506.3       3956.      -3403.      -843.7       1282.       706.4
       11783       -366.6       3403.      -3551.      -742.8       1095.       790.0
       11784       -65.22       4018.       60.24      -26.65       39.78       61.89
       11785       -2261.       2743.       88.80       194.5       161.0      -248.6
       11786       -2962.       4170.      -961.1       406.7       1574.      -866.2
       11787       -3478.       3208.      -605.4       507.7       1304.      -808.5
       11788        212.2       3767.     -0.3856       71.86      -16.28     -0.2863
       11789        73.40       3657.      -23.82       44.28      -1.467      -24.11
       11790       -23.71       3653.      -42.64       31.53       23.16      -8.982
       11791       -44.81       3663.      -35.76       23.20       26.88      -1.879
       11792       -56.02       3861.       8.036      -18.98       33.18       23.34
       11793       -9.889       4319.       75.09      -24.50       12.80       41.25
       11794        12.52       4497.       122.3      -46.29      -22.38      -10.46
       11795       -1259.       3123.      -2.360       218.4       113.2      -83.36
       11796        343.9       3428.      -1.062       116.7      0.9244       51.97
       11797        385.8       3751.      -5.928       70.00      -16.93       26.05
       11798       -4025.       2007.       11.61       456.0       588.0      -607.5
       11799       -3258.       3597.      -723.0       524.4       1447.      -880.8
       11800       -2655.       4066.      -1429.       67.07       1726.      -775.7
       11801       -1587.       5000.      -2245.      -660.8       1816.      -109.4
       11802       -879.4       4349.      -2940.      -896.0       1532.       557.2
       11803       -148.7       3611.      -3495.      -602.7       742.2       599.7
       11804       -14.84       4393.       56.48      -34.95       13.40       14.34
       11805       -30.95       4222.       130.9      -56.53       30.23       104.8
       11806        284.8       3741.      -4.200       89.89      -11.82      -8.978
       11807       -51.24       3794.      -7.582      -34.70       30.25     -0.8906
       11808       -3034.       2990.      -142.2       565.8       664.1      -521.8
       11809       -1515.       5005.      -1810.      -485.1       1646.      -128.4
       11810       -147.2       3806.      -2469.      -375.4       669.6       820.5
       11811       -284.2       4140.      -1346.      -409.5       723.9       850.5
       11812       -283.4       4016.      -1976.      -437.3       744.3       897.9
       11813       -24.59       4141.       168.4      -184.3       16.73       429.2
       11814       -239.1       4244.      -649.3      -367.8       429.7       735.4
       11815       -72.13       4159.      -90.67      -277.6       199.8       646.4
       11816       -8.911       4158.       291.1      -101.4      -34.24       300.9
       11817       -36.73       4109.       186.1      -70.37      -13.79       197.9
       11818        76.82       3342.       2.639       239.3       21.48       37.14
       11819        290.6       3771.      -1.673       72.02      -10.53       4.750
       11820       -19.17       2163.      -3838.      -374.5       394.1       201.1
       11821       -87.84       4305.      -58.89       51.23      -18.19      -75.79
       11822       -19.22       4763.       88.17       16.73      0.3135      -89.35
       11823       -2779.       3027.      -145.9       600.3       680.3      -450.0
       11824       -1805.       4914.      -1545.      -242.0       1672.      -424.1
       11825       -768.8       3293.      -2.887       310.4       115.0      -55.23
       11826       -459.0       3179.      0.1587       271.5       76.13      -17.00
       11827        420.0       3619.      -10.03       129.0      -10.30       27.42
       11828        416.8       3747.       8.241       118.5      -22.71       30.29
       11829        382.9       3780.       10.02       80.75      -19.55       19.77
       11830        356.3       3795.       11.94       70.99      -16.02       10.58
       11831       -2828.       2643.      -173.4       319.1       352.4      -262.0
       11832       -2031.       3345.      -53.18       349.4       241.3      -194.7
       11833        394.2       3600.       27.49       169.8      -5.836       45.44
       11834       -288.7       3996.      -2445.      -546.5       864.8       882.9
       11835        300.8       3780.      0.9712       71.86     -0.5370       2.835
       11836       -51.89       3803.      -11.83       2.386       32.86       16.39
       11837       -3191.       2442.      -64.32       369.5       450.8      -396.1
       11838       -2777.       3227.      -233.7       629.1       833.6      -522.3
       11839       -1769.       4930.      -1626.      -345.1       1678.      -321.8
       11840       -137.9       3895.      -3050.      -802.1       837.6       749.4
       11841        18.45       4708.       96.62       3.422      -8.549      -33.93
       11842       -337.4       4264.      -1724.      -536.7       899.3       804.7
       11843       -361.5       4306.      -988.0      -442.8       641.5       676.9
       11844       -132.5       3329.       3.406       254.0       52.75       16.01
       11845        443.6       3662.       18.86       217.5      -19.54       37.94
       11846        339.6       3798.       9.086       58.96      -6.202      -2.939
       11847       -1358.       2952.      -27.88       429.1       217.4      -131.2
       11848        398.4       3767.       12.20       93.19      -20.50       24.43
       11849        316.3       3732.      0.3608       133.1      -17.68      -11.05
       11850       -2291.       2902.      -127.7       583.8       545.6      -348.8
       11851       -1335.       4944.      -1546.      -391.3       1458.      -84.57
       11852       -122.0       4138.      -123.3      -229.8       158.9       450.2
       11853       -232.8       4213.      -385.7      -305.3       317.0       576.4
       11854       -34.88       3688.      -40.84       23.60       25.78      -15.64
       11855       -3268.       3087.      -86.19       400.6       560.2      -531.3
       11856       -2265.       2794.      -183.0       434.9       336.8      -210.2
       11857       -479.5       4027.      -2485.      -649.2       1102.       789.9
       11858       -330.0       4300.      -1205.      -473.2       701.9       755.1
       11859       -1543.       4907.      -1467.      -268.5       1497.      -265.2
       11860       -81.96       3780.       23.36      -11.94       32.91       20.39
       11861       -2589.       3406.      -385.1       646.4       994.0      -537.5
       11862       -48.66       3673.      -35.16       2.517       27.67      -14.20
       11863       -1662.       4932.      -1730.      -419.7       1663.      -224.6
       11864       -17.86       3669.      -32.26       41.50       21.82      -14.56
       11865       -1245.       4680.      -1984.      -594.8       1562.       101.3
       11866        237.8       3758.      -10.81       92.69      -16.62      -8.026
       11867       -45.66       3781.      -13.43      -55.27       28.72      -15.80
       11868       -321.3       4254.      -667.0      -324.0       511.0       657.2
       11869       -2030.       4718.      -1483.      -126.9       1634.      -500.6
       11870       -785.8       3291.       1.269       468.6       179.8      -107.7
       11871        399.8       3701.      0.5142       153.2      -22.31       18.00
       11872        342.9       3796.       10.30       85.39      -11.25       1.127
       11873       -352.7       3863.      -2972.      -674.0       992.5       828.0
       11874        321.3       3770.       3.663       109.4      -12.53      -3.363
       11875       -1883.       3459.      -163.2       679.9       610.7      -360.4
       11876       -72.14       3349.       2.249       351.7       51.41      -18.62
       11877        360.5       3651.      -2.342       238.7      -16.72       5.003
       11878       -1145.       3159.      -20.09       491.2       259.2      -166.6
       11879        367.2       3780.       12.23       112.2      -14.06       4.502
       11880       -1208.       4774.      -1615.      -439.9       1399.       23.38
       11881       -26.97       3706.      -41.03       42.84       25.75      -17.46
       11882       -38.14       3683.      -24.13       59.17       21.23      -17.28
       11883       -2300.       3522.      -390.8       713.9       919.3      -425.1
       11884       -1117.       4895.      -1604.      -469.7       1356.       151.9
       11885       -1247.       4755.      -2022.      -707.9       1605.       137.2
       11886       -10.24       3657.      -38.20       60.99       18.61      -7.947
       11887       -1714.       3017.      -59.37       530.8       359.6      -244.1
       11888       -2863.       2625.      -218.1       473.3       407.4      -312.8
       11889        315.2       3795.       6.722       54.19      -3.763      0.6575
       11890        280.3       3788.      -6.296       134.7      -19.52      -7.884
       11891        223.0       3753.      -5.092       93.85      -14.69      -8.497
       11892       -34.43       3847.      -44.69       65.93       30.41       117.5
       11893       -46.48       3837.      -2.784      -19.63       31.39       27.66
       11894       -1523.       4726.      -1173.      -169.8       1351.      -341.2
       11895       -2071.       4842.      -1249.       1.714       1585.      -577.0
       11896       -321.5       3389.      -6.164       447.1       125.9      -61.63
       11897        410.2       3652.       1.547       207.7      -21.61       13.02
       11898        406.2       3731.      0.2786       131.3      -19.80       25.76
       11899        343.5       3771.       9.712       112.8      -12.69      0.9078
       11900       -444.0       3906.      -2912.      -717.5       1140.       779.0
       11901       -1088.       4765.      -2003.      -656.7       1498.       260.5
       11902        351.2       3767.       10.91       142.4      -17.97      -1.620
       11903        343.9       3770.       4.285       148.1      -14.78      -3.661
       11904        20.96       3660.      -42.74       68.69       16.22      -16.38
       11905       -47.92       3877.       6.547      -24.40       29.75       44.46
       11906       -2121.       4714.      -1094.       137.7       1516.      -622.2
       11907       -1998.       3569.      -320.1       703.6       780.8      -485.4
       11908        187.8       3731.      -8.389       107.7      -14.74      -18.83
       11909        392.9       3806.       6.800       213.7      -25.33      -5.334
       11910        42.18       3658.      -37.90       70.31       9.721      -24.42
       11911       -929.5       4581.      -2223.      -699.9       1443.       433.1
       11912       -2983.       3403.      -562.3       566.7       1251.      -734.7
       11913       -35.09       3874.      -9.454      -25.32       22.79       72.14
       11914       -1637.       4525.      -890.3       158.0       1215.      -487.6
       11915       -879.9       4733.      -1852.      -606.0       1338.       398.8
       11916        349.3       3743.      -5.535       181.9      -32.34      -2.459
       11917        35.43       3682.      -54.16       97.15       19.95      -23.11
       11918       -55.14       3963.       42.91      -41.02       33.77       58.01
       11919       -2224.       4542.      -994.0       236.6       1464.      -676.9
       11920        200.7       3744.      -9.255       118.6      -16.07      -17.17
       11921       -2762.       3702.      -597.5       586.5       1261.      -727.4
       11922        163.4       3695.      -16.17       91.87      -12.70      -29.65
       11923        405.1       3896.       17.75       242.3      -23.64      -4.515
       11924        32.92       3677.      -19.32       122.5      -1.169      -25.12
       11925       -811.2       4468.      -2030.      -677.8       1243.       524.0
       11926       -59.89       3967.       63.04      -35.73       27.83       92.58
       11927       -1546.       4318.      -663.6       362.9       997.5      -476.7
       11928        88.81       3646.      -60.18       15.60       14.02      -85.55
       11929        164.9       3692.      -31.14       107.0      -2.730      -27.78
       11930       -650.3       4605.      -2390.      -759.4       1278.       498.1
       11931       -2521.       4187.      -794.3       469.9       1375.      -739.5
       11932       -73.37       4047.       68.08      -19.53       43.47       86.78
       11933       -2371.       4398.      -878.3       357.9       1421.      -720.1
       11934       -1775.       3927.      -427.8       637.6       872.8      -539.0
       11935        339.5       3723.      -4.288       249.9      -23.80      -42.75
       11936       -634.0       4396.      -2325.      -732.2       1269.       618.0
       11937        64.42       3649.      -35.37       66.68       1.918      -29.81
       11938        378.4       3771.       17.77       285.1      -17.78      -19.96
       11939        341.0       3666.      -10.92       280.8      -6.813      -8.185
       11940        183.0       3709.      -46.02       138.4       3.876      -38.29
       11941       -2155.       4170.      -682.9       505.2       1186.      -651.6
       11942        295.9       3862.       2.479       178.8      -19.59      -17.90
       11943       -41.07       4106.       48.69      -38.04       33.96       72.82
       11944        297.4       3670.      -5.806       339.1      -15.06      -42.19
       11945        325.8       3587.       11.18       253.4      -12.99       19.20
       11946       -578.0       4282.      -2142.      -596.5       1142.       766.7
       11947        96.38       3695.      -18.52       145.1      -7.006      -25.74
       11948        301.0       3600.      -8.350       303.0      -9.608     -0.6981
       11949       -40.23       4114.       57.48      -49.25       37.89       85.17
       11950       -588.6       4183.      -2786.      -783.3       1305.       685.0
       11951       -536.4       4076.      -2839.      -754.7       1236.       740.7
       11952       -36.58       4198.       62.12      -35.81       32.66       64.11
       11953       -25.20       4268.       57.56      -38.47       29.26       64.40
       11954       -32.77       4244.       55.21      -53.08       41.68       77.53
       11955      -0.3857       4495.       77.93      -23.61       1.475       4.088
       11956        407.9       2280.      -2543.      -319.9       172.7       106.9
       11957        5.296       1896.      -49.05      -18.35       7.274      -15.28
       11958       -112.5       4202.      -1529.      -209.1       503.5       949.2
       11959        145.3       4199.       641.6      -89.84      -27.42       356.6
       11960       -53.37       2862.      -126.4      -17.47       18.01      -21.90
       11961       -36.70       4206.       583.2      -101.0      -58.78       489.2
       11962        101.8       3688.      -17.75       51.16      -7.826      -25.10
       11963       -54.30       4056.       41.25      -34.24       33.18       45.77
       11964       -26.13       4726.       48.11       19.09      -6.555      -75.45
       11965       -21.83       3811.      -59.51       26.62      -8.860      -43.03
       11966       -16.29       3298.      -43.18      -52.82       6.758       8.016
       11967       -103.3       2855.      -3248.      -462.5       514.3       373.8
       11968       -198.3       3934.      -1822.      -351.1       610.8       930.7
       11969       -19.19       4497.       101.5      -11.06       33.93      -33.03
       11970       -48.79       4111.      -2182.      -277.3       568.5       798.0
       11971       -18.73       4183.       342.4      -156.8       21.48       564.7
       11972       -45.75       4136.       57.49      -28.42       33.22       59.90
       11973       -58.03       3793.      -12.09      -28.52       31.24       7.908
       11974        75.26       3667.      -18.22       84.33      -9.792      -22.98
       11975        104.2       3693.      -15.79       128.5      -14.21      -35.94
       11976       -185.5       4089.      -1128.      -360.1       588.6       864.1
       11977       -112.8       4121.      -519.4      -250.7       348.6       834.1
       11978       -32.25       4302.       55.55      -48.34       43.58       77.15
       11979       -46.70       4195.       69.69      -51.98       46.67       91.71
       11980       -92.22       4003.       171.3      -28.57       37.62       147.8
       11981       -1925.       2605.      -45.89       322.5       206.8      -160.0
       11982       -1247.       3108.      -43.46       319.4       168.8      -94.94
       11983        369.0       3560.       28.43       190.1      -1.943       37.83
       11984        456.7       3703.       9.240       163.8      -11.02       50.74
       11985        423.9       3684.      -10.90       109.7      -8.206       23.39
       11986       -2854.       3359.      -431.6       596.2       1097.      -665.9
       11987       -72.98       4139.       83.82      -183.7       117.9       697.9
       11988       -116.7       4153.      -111.5      -230.3       207.9       739.5
       11989       -59.82       3791.      -10.99      -17.21       31.40       31.35
       11990       -47.47       4122.       145.8      -60.97       14.59       117.9
       11991       -6.072       4097.       200.4      -104.9      -10.89       273.8
       11992        60.80       3702.       2.048       131.7      -20.12      -3.306
       11993        228.3       3779.      -3.424       130.4      -21.99      -18.17
       11994        377.7       3767.       10.98       100.4      -17.78       13.39
       11995       -38.26       4237.       72.59      -67.20       43.49       83.12
       11996       -58.48       4150.       114.9      -72.62       51.36       81.74
       11997       -61.69       4259.       91.84      -67.36       80.92       85.91
       11998        71.59       3666.      -36.33       110.3       7.427      -2.212
       11999       -630.8       4166.      -2681.      -806.4       1327.       612.3
       12000       -2636.       3965.      -707.2       549.2       1318.      -750.0
       12001        209.0       3751.     -0.6081       173.3      -16.70      -1.704
       12002        219.0       3731.      -8.133       185.3      -24.10      -34.16
       12003       -3340.       2979.      -164.1       558.2       633.6      -649.5
       12004        167.7       3699.      -21.00       133.6      -15.33      -32.45
       12005        207.2       3745.      -13.92       168.5      -10.14      -26.90
       12006        122.4       3741.       19.16       175.4      -40.41      -22.83
       12007       -71.83       4150.       192.8      -191.9       87.66       623.7
       12008       -114.8       4144.      -35.54      -235.6       154.2       677.8
       12009       -407.5       4109.      -2084.      -592.7       1005.       804.1
       12010       -301.1       4112.      -1055.      -338.8       680.0       844.7
       12011        97.52       3677.      -30.66       137.2       4.454      -28.76
       12012        93.06       3689.      -44.85       167.9       10.93      -44.41
       12013        29.66       3662.      -100.5      -3.052       26.79      -41.44
       12014       -24.52       3812.      -34.21      -3.170       28.01      0.6807
       12015       -2870.       3545.      -554.3       590.6       1234.      -707.2
       12016       -1375.       3551.      -211.1       697.1       542.3      -361.2
       12017       -682.4       4637.      -1374.      -483.6       1050.       457.1
       12018       -1236.       3469.      -126.1       686.8       419.7      -291.0
       12019       -1947.       3234.      -123.3       628.7       513.1      -290.6
       12020       -2668.       2749.      -113.6       565.4       544.0      -396.4
       12021       -70.04       3946.       31.31      -14.95       45.76       190.0
       12022       -123.3       3957.       17.90      -93.04       68.72       187.0
       12023       -158.3       4108.      -175.0      -197.3       176.8       373.8
       12024       -175.3       4186.      -295.0      -289.4       268.4       728.4
       12025        106.4       3720.      -23.26       233.6       6.286      -58.44
       12026       -99.34       4168.      -352.7      -286.7       321.7       788.8
       12027        365.5       3760.       13.93       130.4      -13.97       6.648
       12028        206.2       3724.      -22.61       176.3      -12.91      -43.71
       12029       -143.8       4028.      -15.43      -133.7       115.3       202.2
       12030       -160.8       4087.      -104.9      -175.8       189.7       293.6
       12031       -276.2       4187.      -340.4      -180.3       331.6       279.9
       12032        398.1       3733.       10.91       166.2      -21.26       8.468
       12033        378.2       3732.       11.77       139.2      -12.04       7.079
       12034       -1875.       3796.      -363.2       666.5       834.0      -525.4
       12035       -1431.       3787.      -281.7       684.2       651.3      -438.4
       12036       -21.69       3767.      -50.67       73.53       33.86       9.624
       12037       -1043.       4703.      -1635.      -452.6       1326.       275.3
       12038       -1475.       4892.      -1492.      -334.2       1480.      -168.4
       12039       -1730.       4607.      -1367.      -107.1       1470.      -423.5
       12040       -208.8       4240.      -747.6      -369.9       489.1       791.8
       12041       -104.2       3955.      -23.91      -75.08       81.47       158.5
       12042       -861.9       3647.      -165.1       679.1       335.5      -265.2
       12043       -1486.       3646.      -267.7       693.6       631.2      -420.0
       12044       -1430.       3223.      -123.5       672.2       344.7      -230.1
       12045       -606.9       3583.      -58.13       634.4       262.6      -204.5
       12046       -2258.       2882.      -37.90       507.9       398.5      -289.8
       12047        365.2       3772.       17.97       115.4      -18.74      0.3452
       12048        378.3       3759.       9.208       119.0      -13.54       11.99
       12049        94.11       3675.      -66.86       90.87       12.57      -117.7
       12050        386.8       3682.      -1.514       202.1      -36.07       9.073
       12051       -259.7       4257.      -516.0      -272.7       383.5       503.1
       12052       -124.2       3893.       42.04       110.8       39.21       116.3
       12053       -94.37       3791.       37.10      0.4292       34.42       46.14
       12054       -615.8       4504.      -1084.      -385.1       826.1       404.2
       12055        181.6       3733.      -18.09       273.6      -25.80      -44.42
       12056        181.9       3778.       3.034       240.4      -17.26      0.3125
       12057        41.33       3758.      -35.04       237.2       26.66      -73.76
       12058       -396.8       4371.      -587.9      -327.2       535.1       453.5
       12059       -514.5       4188.      -2421.      -687.8       1183.       742.5
       12060       -467.7       4121.      -1866.      -558.5       1033.       744.1
       12061       -468.7       4239.      -2066.      -594.9       1088.       775.4
       12062        408.0       3752.      -2.538       121.4      -6.294       22.50
       12063       -113.4       4028.      -61.19       43.58       117.7       24.86
       12064       -107.1       3685.       60.58       37.44      -5.720      -68.87
       12065       -45.76       3708.      -16.51       91.97       23.97       4.685
       12066       -104.9       3936.      -64.62      -46.82       88.46       134.1
       12067       -159.4       4063.      -39.19      -108.8       105.2       107.3
       12068       -187.2       4077.      -126.9      -146.5       178.1       202.1
       12069       -957.0       4661.      -1377.      -392.4       1167.       191.5
       12070       -2303.       3794.      -532.5       631.0       1060.      -632.8
       12071        222.2       3699.      -23.92       354.3      -16.20      -49.15
       12072       -1250.       4760.      -1271.      -275.5       1305.      -110.1
       12073       -1321.       4735.      -1248.      -172.4       1295.      -216.3
       12074       -1501.       4779.      -1168.      -76.99       1310.      -337.3
       12075       -1422.       4745.      -1108.       32.08       1278.      -351.6
       12076       -125.7       3440.      -1.184       430.2       66.13      -41.14
       12077        107.0       3525.      -18.04       371.3       19.83      -25.60
       12078        363.8       3664.       16.71       264.2      -14.68       3.883
       12079        317.5       3570.      -38.49       242.9      -24.94       47.00
       12080        175.2       3567.       24.77       309.7       35.51       5.434
       12081       -24.24       3765.      -59.72       92.69       45.62      -48.19
       12082       -1140.       3867.      -310.2       627.4       524.3      -368.1
       12083       -659.5       4551.      -959.6      -322.1       799.8       284.0
       12084       -53.66       3784.      -62.41       274.8       59.54      -98.74
       12085       -1674.       4324.      -626.9       450.6       1029.      -554.4
       12086       -366.8       3659.      -94.33       615.1       178.8      -187.3
       12087       -386.2       4192.      -461.9      -83.15       356.6       131.9
       12088       -419.4       4333.      -474.3      -256.7       459.9       311.6
       12089       -527.0       4428.      -608.4      -207.0       605.8       208.9
       12090       -136.3       4137.      -86.85      -105.7       152.5       144.3
       12091       -767.6       3837.      -156.4       630.3       434.6      -291.2
       12092       -455.9       4414.      -560.1      -305.2       551.9       363.9
       12093        127.6       3774.       14.67       350.9      -13.12      -69.72
       12094       -145.7       4011.      -49.08      -14.27       100.6       87.58
       12095       -197.6       4259.      -168.7      -71.68       219.8       104.5
       12096       -845.2       3249.      -110.0       579.8       144.1      -115.8
       12097       -321.9       3426.      -63.57       495.6       93.17      -82.83
       12098       -97.75       3509.      -49.54       459.0       57.75      -63.15
       12099       -137.7       4089.      -88.71      -47.63       126.4       104.8
       12100        282.5       3613.       32.82       413.9      -5.386      -36.93
       12101       -753.0       3860.      -214.1       598.7       384.8      -286.6
       12102       -1359.       4074.      -393.7       580.7       708.6      -457.2
       12103       -17.23       3769.      -77.79       61.77       53.58      -110.7
       12104       -1356.       4598.      -1040.      -31.20       1166.      -224.6
       12105       -794.3       4688.      -1036.      -285.1       971.8       119.9
       12106       -976.3       4528.      -1020.      -192.2       948.9       37.65
       12107       -810.0       4383.      -661.6       31.12       726.6      -122.3
       12108       -247.1       3485.      -63.00       576.8       119.3      -129.5
       12109       -106.8       3669.      -7.420       518.7       82.85      -94.31
       12110       -530.4       4484.      -501.2      -51.42       544.2       89.28
       12111       -366.4       4205.      -330.9       44.56       325.1       42.12
       12112       -1506.       4145.      -525.0       507.5       868.7      -465.9
       12113       -11.82       3719.      -33.60       512.2       68.96      -127.2
       12114        39.02       3784.       19.64       480.5       53.65      -78.51
       12115       -115.9       3823.      -88.62       119.9       81.38      -69.76
       12116       -81.20       3806.      -81.34       97.27       66.10      -32.08
       12117       -247.2       3916.      -135.5       83.31       184.1      -51.74
       12118       -154.3       4145.      -77.33       96.95       130.9       138.7
       12119       -122.0       4044.      -152.9      -23.71       172.7       46.84
       12120       -942.9       4310.      -607.5       247.0       680.7      -245.8
       12121       -1797.       4248.      -617.8       488.1       1065.      -630.5
       12122       -1112.       4664.      -981.0      -68.65       1067.      -171.2
       12123       -1293.       4150.      -440.3       561.0       720.7      -442.7
       12124       -575.4       4652.      -631.8      -185.0       796.5       83.88
       12125       -474.2       3823.      -150.5       595.0       264.8      -221.6
       12126        98.49       3875.       25.58       430.2       54.97      -44.01
       12127       -883.1       4585.      -893.7      -109.9       899.7      -39.00
       12128       -187.2       3912.      -204.2       262.8       158.0       50.12
       12129       -241.3       3957.      -199.4       174.7       199.9      -75.51
       12130       -241.4       4069.      -178.0       41.28       248.7      -128.2
       12131       -349.9       4061.      -227.2       170.4       284.2      -95.90
       12132       -241.4       3909.      -78.20       404.6       164.1      -165.4
       12133       -405.5       4249.      -310.1       82.23       398.5      -9.118
       12134       -325.5       4135.      -257.8       148.8       347.7      -25.76
       12135       -513.4       4251.      -376.4       54.67       436.8       35.00
       12136       -787.9       4222.      -404.8       384.3       588.6      -302.3
       12137       -383.6       4186.      -399.0       138.4       430.9      -112.5
       12138       -520.7       3972.      -167.9       444.1       312.3      -250.9
       12139       -638.7       4011.      -279.5       418.7       354.0      -231.5
       12140       -371.5       3948.      -175.6       517.3       291.8      -185.6
       12141       -736.7       4099.      -411.3       420.4       475.4      -284.7
       12142       -382.3       4014.      -206.9       335.7       264.2      -179.9
       12143       -329.8       4019.      -202.0       256.8       268.1      -139.6
       12144       -486.4       4087.      -288.9       230.6       354.6      -234.5
       12145        326.8       70.83      -1833.       448.9      -38.55       155.1
       12146        230.3       231.0      -1636.       565.5      -113.5       158.2
       12147        25.39       1514.      -1092.       566.8      -55.54       41.19
       12148       -176.8       2014.      -948.9       500.4      -18.93      -44.37
       12149       -3.050       3543.      -336.2       373.3      -69.88       76.46
       12150       -14.00       3894.       191.8       214.3      -92.33       253.4
       12151        159.3       3823.       366.9       126.6      -132.2       348.2
       12152       -14.32       3625.       748.8      -11.95      -73.78       307.0
       12153        137.2       4577.       614.5      -77.93      -45.74       258.2
       12154       -128.1       4019.       103.1      -149.2      -51.60       155.2
       12155       -59.52       4153.      -83.74      -267.9      -19.92       189.4
       12156       -123.4       3345.       61.56      -379.2      -60.15       183.6
       12157       -39.18       1704.      -350.2      -420.4      -107.0       150.2
       12158        68.81       812.1      -258.1      -421.5      -122.7       41.17
       12159        96.70       328.9       25.43      -368.8      -129.1      -44.94
       12160       -340.5       687.2      -1592.       381.6      -24.43       104.3
       12161       -331.9       2055.      -1506.       351.4       6.688       74.92
       12162       -341.6       3062.      -1775.       385.4       56.68       130.5
       12163       -233.9       4286.      -1393.       334.0       24.18       452.3
       12164       -373.3       3767.      -649.7       194.2      -41.93       727.6
       12165       -237.3       3458.      -195.3       118.9      -101.2       843.8
       12166       -144.7       3710.       248.1       36.58      -97.35       598.8
       12167       -400.6       3057.       437.6      -26.52      -111.9       304.5
       12168       -341.1       2951.       558.4      -106.3      -128.3       159.1
       12169       -258.9       3875.       520.5      -140.1      -174.0      -124.5
       12170       -228.8       4338.       201.0      -226.5      -144.5      -250.2
       12171       -335.0       4374.      -276.4      -272.1      -109.2      -147.7
       12172       -258.7       3754.      -215.8      -279.6      -108.8       31.53
       12173       -449.2       1670.      -218.0      -278.4      -116.2       36.11
       12174       -504.0       1167.       120.2      -311.4      -79.43      -33.71

 MAXIMUM          2.1506E+04  1.5227E+04  2.1385E+04   1090.       2572.       4005.                                        
  NODE               998        1326         999        5918        1434        2138                                     

 MINIMUM         -1.8222E+04 -1.0843E+04 -1.7582E+04  -2507.      -1256.      -3961.                                        
  NODE               871        2067        2585        3227         552        2146                                     


   THE FOLLOWING TABLE IS PRINTED FOR ALL NODES
  
       NODE FOOT-   U1          U2          U3       
            NOTE




 MAXIMUM         0.1623      0.2521      0.2411    
 AT NODE              2817        4943        9253

 MINIMUM        -0.1584     -0.2786     -0.8024    
 AT NODE              1616        4981         112
