
   THE FOLLOWING TABLE IS PRINTED FOR ALL ELEMENTS WITH TYPE C3D4 AVERAGED AT THE NODES

       NODE  FOOT-   S11         S22         S33         S12         S13         S23     
             NOTE 

           1       -133.7       5568.       1061.       52.65       42.54      -44.53
           2       -5.288       4813.       971.3       29.27      7.3757E-02   100.1
           3        730.7       7605.       3.894     -0.4388       33.46      -21.12
           4        604.1       7116.       9.593      -55.43       20.86      -7.044
           5       -36.43      0.8364      -2815.       443.5      -36.60      -249.7
           6       -392.4      -107.6      -3123.       158.8       49.86      -230.0
           7       -2955.       426.6      -420.3      -205.1       126.1      -56.06
           8       -2950.      -103.1       69.24      -155.0       85.86       403.2
           9        63.67       51.62       539.7       16.55      -21.67      -179.9
          10        303.6      -117.9      -58.96      -101.8       40.78      -55.25
          11       -26.47      -34.35       1042.      -1.777       67.87      -78.10
          12        581.2      -344.0      -51.53       10.62       64.86      -42.76
          13        264.1       19.22       2396.      -54.54       9.278      -143.6
          14        1741.      -122.8       202.0      -183.6       26.48      -13.44
          15       -43.46      -253.4       2767.       16.04       7.067      -157.5
          16        2599.      -172.3       29.18      -149.7       4.903      -18.54
          17       -310.8      -122.4       5654.       112.3      -159.7      -121.0
          18        5054.       58.35      -305.0      -163.5      -102.6      -73.48
          19       -112.9      -96.21       5336.       8.482      -40.77      -36.99
          20        5124.      -217.2      -126.2       2.550      -82.97     -0.1408
          21        119.1      -139.5       6636.      -58.21      -57.09      -212.9
          22        6361.      -154.6       80.38      -203.2      -68.92      -25.55
          23       2.4016E+04  -319.9      2.4095E+04  -164.1       567.8      -96.12
          24      -1.8994E+04  -2986.     -1.9651E+04  -337.1       318.9      -575.0
          25       -7007.      -618.8       1537.      -388.6       111.8      -2903.
          26       -5238.       2766.       6048.      -437.2       264.6      -4175.
          27       -6770.       8846.       5907.      -601.6       282.2      -6076.
          28       -7436.      1.6202E+04   1711.       113.3      -113.4      -3177.
          29        2183.      -338.4      -7081.      -3052.       192.1      -367.0
          30        6421.       3279.      -5644.      -4421.       110.2      -307.0
          31        5372.       7510.      -7200.      -5824.       427.8      -408.3
          32        1787.      1.6873E+04  -6783.      -3428.      -343.2      -431.6
          33       -364.3       5125.      -4844.       59.42       109.8      -392.7
          34       -234.0       4261.      -62.36       565.7       115.8       424.7
          35       -307.4       3700.       88.65       315.0       100.5      -130.3
          36       -215.8       3770.       865.3      -494.2      -66.28       410.7
          37       -18.25      -1227.      -2735.      -42.29       57.23      -197.9
          38       -68.53      -1218.      -2670.       30.69       105.0       228.2
          39        102.5      -3240.      -1349.       62.44       36.19      -16.69
          40        77.50      -434.4      -2767.      -31.00       26.57       433.7
          41       -166.0      -5585.      -777.9      -25.48       29.59       98.27
          42        75.10      -637.7      -2802.      -48.48       20.38      -455.3
          43       -386.9       946.5      -652.3      -83.21      -328.6       513.7
          44        18.57       3440.       1323.       309.4      -143.8       444.9
          45        535.5      1.5989E+04   1984.      -197.3       4.188      -284.2
          46       -695.0       187.2      -6803.      -143.7      -257.3      -55.26
          47       -236.9       2389.      -5246.      -635.2      -13.75      -748.7
          48       -41.67       5194.       1084.       43.47      -12.07       57.62
          49       -68.73       4918.       926.9      -22.08       11.62       83.47
          50       -27.95       5312.       728.5      -22.18      -34.54       141.6
          51       -47.03       6502.       420.0      -16.44       68.88       197.7
          52       -60.78       7136.       216.4      -21.26       59.65       138.2
          53       -46.69       7879.       130.2      -21.64       17.40       69.36
          54       -57.11       8297.       73.74      -9.368       17.02       22.37
          55       -27.67       8738.       142.5      -42.33      -35.47      -51.15
          56        3.145       8646.       152.3       35.69      -38.38      -61.03
          57        83.31       8724.       255.7       38.50      -105.7      -39.39
          58        108.7       8664.       311.0       35.64      -160.7      -33.96
          59        88.82       8635.       345.9      -13.13      -206.1      -30.07
          60        181.5       8554.       330.2      -8.477      -256.8      -65.46
          61        225.4       8396.       386.3       27.99      -261.7      -10.12
          62        254.3       8320.       382.5       26.23      -288.8      -8.976
          63        286.5       8286.       383.5       27.48      -305.8      0.2052
          64        275.1       8313.       368.2     -0.3012      -311.3       2.573
          65        379.7       8159.       334.8       13.23      -330.0      -11.07
          66        378.8       8024.       303.3      -6.666      -327.0       1.162
          67        429.4       7993.       291.9      -1.163      -330.6       14.48
          68        404.5       8054.       271.4      -26.99      -320.4       2.747
          69        471.3       7984.       229.7       1.034      -312.7      -19.93
          70        515.9       7905.       223.5       7.462      -308.0       8.791
          71        517.5       7922.       191.8      -6.983      -311.3      0.4855
          72        542.6       7830.       159.6      -2.578      -300.6      -37.92
          73        586.6       7854.       107.0      -28.19      -263.7      -7.200
          74        655.6       7860.       66.47       7.136      -240.9      -23.24
          75        670.8       7868.       55.66      -18.27      -242.4      -15.35
          76        692.7       7923.       39.84      -35.33      -229.9      -68.83
          77        681.6       7793.       31.40      -30.28      -180.4      -3.763
          78        740.7       7761.       40.30       6.744      -123.9      -7.759
          79        741.1       7667.       39.92      -2.679      -98.89       17.80
          80        742.7       7721.       25.38      -1.595      -63.85       15.41
          81        743.7       7698.       34.37     -0.9197      -21.01       2.367
          82        710.8       7460.       57.26      1.7195E-27   53.50      -23.51
          83        571.1       7126.       8.445       11.21      -41.57      -16.83
          84        562.8       7131.      -9.146      -5.466      -59.16       30.23
          85        562.5       7118.      -9.697       8.659      -94.22       16.06
          86        578.6       7125.       3.128      -25.56      -92.01       4.958
          87        598.6       7130.       53.16      -7.175      -152.5      -11.62
          88        550.7       7017.       57.98      -6.233      -166.0      -63.20
          89        587.5       7195.       51.38      -24.11      -205.2      -19.98
          90        559.0       7185.       89.00      -29.61      -245.9      -2.498
          91        516.2       7172.       145.2      -10.06      -273.2      -13.64
          92        513.2       7293.       155.5       1.288      -296.3       19.70
          93        520.8       7303.       172.6      -10.34      -307.6       5.542
          94        496.3       7296.       210.3      -29.37      -328.8      -14.05
          95        415.1       7396.       253.6       8.850      -350.7     -0.5558
          96        438.8       7405.       290.0      -19.86      -361.9       5.850
          97        357.5       7468.       314.1     -0.7453      -366.1       7.100
          98        340.1       7611.       371.4      -2.099      -360.7      -1.136
          99        269.4       7648.       349.4       24.68      -340.7       1.870
         100        225.7       7676.       346.2       24.30      -304.6     -0.3811
         101        166.7       7717.       312.9       31.82      -259.0      -6.252
         102        166.3       7704.       268.3      0.1370      -208.2      -19.64
         103        61.59       7798.       213.0       19.83      -132.2      -54.44
         104       0.2344       7959.       115.5       50.30      -86.13      -33.20
         105       -24.32       8047.       6.215       32.35      -12.89      -49.15
         106       -24.41       8038.      -112.9       19.31       55.62      -54.38
         107       -85.20       8040.      -221.4       33.15       137.9      -102.2
         108       -89.51       7908.      -207.5       30.75       140.3      -41.84
         109       -64.05       7499.      -76.03       13.54       151.9       55.78
         110       -23.70       7022.       188.3       34.98       124.0       67.26
         111       -26.18       6273.       577.6       26.28      -23.85       79.38
         112        1.417       5868.       1024.       1.107       25.46       64.12
         113       -369.9      -80.75      -3581.       435.6      -60.75      -163.2
         114       -554.6      -72.24      -2802.       41.41       120.0      -145.1
         115       -629.7       47.49      -2367.       41.79       160.4      -64.81
         116       -584.8       156.5      -2555.      -30.71       399.1      -205.7
         117       -802.9      -122.8      -2519.       163.1       490.9      -121.7
         118       -789.4       3.542      -2600.       89.45       621.1      -145.1
         119       -667.2       233.9      -2581.       26.53       714.3      -212.1
         120       -787.1       9.760      -2081.       150.5       720.3      -243.3
         121       -956.5       89.07      -2446.       159.6       842.6      -127.5
         122       -1031.       331.8      -2372.       73.89       964.3      -149.1
         123       -1261.       154.6      -2116.       109.9       941.5      -134.3
         124       -1303.       359.3      -2372.      -12.08       1200.      -156.0
         125       -1281.       133.4      -2055.       115.4       1046.      -145.0
         126       -1184.       378.3      -1805.       53.94       1034.      -156.1
         127       -1439.       485.5      -1805.       33.02       1257.      -85.33
         128       -1616.       425.9      -1646.       37.09       1280.      -7.191
         129       -1748.       456.0      -1373.       36.36       1194.      -64.55
         130       -1775.       306.0      -1293.       26.36       1088.      -64.45
         131       -1963.       96.34      -1366.       51.91       970.7       43.04
         132       -1886.       398.2      -1189.      -18.92       1017.      -85.84
         133       -2321.       475.2      -1106.       38.02       1130.      -63.11
         134       -2341.       237.4      -1050.      -11.45       978.8      -19.47
         135       -2428.       97.85      -919.0       6.894       864.7      -5.390
         136       -2281.       168.5      -894.2      -11.80       797.1      -14.11
         137       -2485.       270.2      -744.6      -20.95       758.9      -11.62
         138       -2625.       364.1      -606.8       15.84       701.0       3.686
         139       -2609.       311.4      -543.5      -64.60       590.3       56.81
         140       -2627.       296.2      -517.5      -25.85       428.2       43.20
         141       -2721.       336.5      -483.0      -45.61       362.0       32.32
         142       -2643.       122.3      -627.7      -134.0       260.6       89.48
         143       -2215.       177.8      -515.0      -113.0       160.5       13.34
         144       -3506.      -153.5      -249.1      -203.3      -103.8       355.7
         145       -2889.      -351.2       37.04      -31.05       157.5       368.9
         146       -2909.      -252.0      -108.5      -98.70       225.9       225.5
         147       -2815.      -248.6      -144.4      -3.446       380.8       260.5
         148       -2775.      -306.3      -160.4      -98.50       465.4       295.4
         149       -2896.      -199.8      -205.0      -137.7       680.0       257.4
         150       -2992.      -167.7      -281.7      -43.03       783.3       202.6
         151       -2726.      -206.6      -437.9       103.5       832.7       278.8
         152       -2722.      -244.9      -507.0       8.286       916.7       327.1
         153       -2648.      -218.2      -582.6       1.548       1053.       340.2
         154       -2583.      -175.7      -761.5       35.04       1199.       395.3
         155       -2378.      -271.4      -877.3       121.9       1236.       306.8
         156       -2270.      -200.8      -871.1       86.11       1288.       353.7
         157       -2154.      -283.0      -1052.       168.4       1375.       348.3
         158       -1975.      -223.2      -1165.       101.0       1379.       335.5
         159       -1771.      -161.7      -1296.       198.6       1434.       242.0
         160       -1731.      -323.7      -1513.       134.2       1487.       234.7
         161       -1635.      -381.4      -1614.       93.95       1537.       242.4
         162       -1570.      -244.0      -1745.       196.0       1456.       246.0
         163       -1505.      -227.0      -1877.       274.7       1465.       194.7
         164       -1377.      -204.3      -2060.       333.3       1476.       164.1
         165       -1138.      -306.4      -2125.       361.8       1389.       107.6
         166       -1038.      -276.0      -2292.       405.3       1334.       144.3
         167       -1030.      -401.8      -2497.       373.8       1335.       167.7
         168       -805.3      -207.6      -2459.       357.8       1246.       159.0
         169       -593.8      -285.1      -2501.       316.4       1089.       111.1
         170       -508.5      -253.6      -2591.       286.0       979.0       147.4
         171       -500.2      -252.7      -2665.       316.4       858.4       119.9
         172       -451.1      -156.5      -2762.       405.5       787.8       55.15
         173       -335.1      -346.8      -2794.       352.0       714.4      -28.19
         174       -300.5      -220.9      -2710.       376.0       534.9      -42.63
         175       -208.0      -371.7      -2774.       477.6       321.9      -55.84
         176       -64.73      -455.5      -2975.       506.4       277.1      -19.60
         177       -7.315      -262.3      -2694.       373.0       86.52      -56.98
         178       -258.8      -295.0      -207.7       34.49      0.1700       24.34
         179       -55.28      -228.5       680.0       37.97      -202.4      -35.20
         180       -91.01      -211.2       414.8       55.77      -117.4      -92.35
         181       -167.5      -415.3       18.42       45.58       15.21      -82.03
         182       -226.1      -236.5       87.43       37.82      -2.513      -95.37
         183        54.79      -130.5       526.4       62.07      -248.3      -131.0
         184       -189.4      -24.32      -117.7       104.9       22.39      -156.5
         185       -65.73      -42.98       248.1       100.0      -155.1      -82.55
         186       -8.154      -178.8       437.9       82.02      -217.8      -76.35
         187       -224.3      -100.0       49.50       1.490      -51.91      -126.3
         188       -190.0      -258.3      -37.26       9.940      -151.2      -128.0
         189        28.51      -162.0       152.9       95.31      -281.8      -43.48
         190        59.33      -166.2       39.48       72.16      -120.4      -19.78
         191        42.27      -181.5      -130.1       88.65      -98.08      -43.89
         192        272.4      -97.81       262.2      -4.946      -390.2      -48.80
         193        155.3      -186.4       152.4      -20.37      -266.1      -6.286
         194        315.7      -37.62       244.6       10.87      -311.4      -7.482
         195       -39.98      -99.91      -50.63       1.092      -133.9      -20.35
         196       -52.13      -274.2      -48.16      -24.47      -121.4       28.90
         197        267.8      -228.2       4.659      -30.22      -267.5       38.09
         198       -112.3      -168.1      -255.1       10.62      -64.06       1.814
         199        10.21      -159.8      -171.8       50.16      -108.8       31.82
         200        229.2      -101.3      -59.32       19.88      -181.6       72.63
         201        597.5      -129.9       4.529      -60.15      -184.2       84.39
         202       -304.8      -291.1      -314.0       1.843       96.85      -11.08
         203        226.8      -253.2      -114.1      -15.06      -28.21      -6.952
         204        352.2      -97.65      -106.0       93.75      -62.47      -10.75
         205        206.5      -46.39      -131.0       73.45      -32.26       25.31
         206        53.33      -34.01      -176.1      -17.05      -18.65       41.51
         207        175.0      -50.40      -77.21      -19.81       26.98      -27.05
         208        7.925       48.32       517.5       70.89      -21.95      -177.6
         209       -240.3       100.6       431.1       2.367      -22.87       25.10
         210       -154.3       16.35       618.0      -99.98      -94.66      -77.25
         211       -126.4      -148.7       666.4      -55.69      -207.3       1.708
         212       -49.16      -97.46       778.2      -86.70      -154.3      -147.4
         213       -159.2      -256.6       602.4      -16.40      -316.1      -36.23
         214       -9.459      -83.17       804.4       25.21      -303.9      -114.1
         215       -69.12      -175.4       378.9      -29.64      -204.1      -109.2
         216        59.44      -110.5       404.9      -88.03      -224.1      -154.3
         217        48.07      -94.00       436.4      -17.61      -384.5      -69.53
         218        125.3       29.89       480.2      -5.401      -312.2      -166.8
         219        196.0      -106.4       630.6      -22.28      -376.9      -39.05
         220       -14.49       198.8       350.6       6.785      -280.6      -141.0
         221        246.1       14.94       369.3       22.49      -385.0      -120.0
         222        325.3      -83.13       530.3       27.96      -521.4       2.113
         223        424.2      -120.0       697.6      -55.72      -539.4      -21.69
         224        186.0       31.41       300.3       51.16      -355.4      -33.50
         225        204.1      -110.0       259.1       47.70      -389.4      -130.8
         226        266.0      -182.8       106.5      -28.72      -317.6      -81.45
         227        280.7      -129.2       136.2      -18.02      -216.9      -157.2
         228        227.2      -161.5      -37.05       42.30      -231.6      -190.2
         229        625.9      -52.67       119.2      -28.90      -476.4      -28.50
         230        468.6      -94.61       147.1       53.75      -340.8      -98.63
         231        123.1      -180.5      -64.04       59.32      -125.0      -246.6
         232        262.7      -58.97      -171.2       31.59      -179.4      -140.9
         233        763.8      -138.5       29.77       29.70      -278.2      -13.39
         234        920.6      -34.87       225.1      -68.00      -385.2      -14.56
         235       -151.1       89.73      -114.3      -12.96      -254.2      -57.51
         236        369.1      -108.1      -113.3       88.08      -197.2      -150.8
         237        571.2      -118.5      -236.4       52.32      -36.31      -55.13
         238        803.4      -114.0       45.27       113.7      -213.3      -43.77
         239       -289.0       59.65      -238.3       75.93     -0.9510      -191.6
         240        868.5       17.39      -101.2       56.83      -71.33      -8.754
         241        485.7      -122.3      -76.37       21.68      -23.38      -80.99
         242        818.1      -143.8      -86.31      -53.97      -9.804      -5.206
         243        48.01       229.3       1747.      -19.02     -0.1735       34.87
         244        22.48       25.01       1773.      -76.49      -150.2       107.1
         245        174.9       25.09       1761.      -52.44      -302.0      -1.764
         246        154.6       98.48       1964.      -132.5      -391.8       41.53
         247        315.8       54.44       1844.      -46.91      -473.5       119.8
         248        205.0       203.1       1650.      -108.0      -409.1       62.81
         249        225.5       257.2       1784.      -104.6      -448.5       44.72
         250        297.0       87.15       1517.      -74.27      -565.1       16.66
         251        442.7       185.1       1586.      -66.94      -653.2       10.34
         252        386.9      -66.55       1101.      -56.59      -591.0      -42.04
         253        659.3      -19.08       1517.      -116.0      -789.0      -57.23
         254        373.2       64.28       995.2      -36.80      -609.6      -43.46
         255        712.2       19.87       1172.      -88.25      -830.6       99.69
         256        837.1      -149.3       1239.      -119.6      -899.8       22.56
         257        1155.      -39.87       1605.      -192.5      -1128.      -164.1
         258        624.4       215.3       786.8       9.656      -664.0      -74.27
         259        836.1       201.3       991.5      -142.7      -888.7       30.17
         260        961.6       118.4       941.3      -73.56      -824.4       10.79
         261        932.4       165.6       700.0      -87.29      -717.7      -16.87
         262        1176.       121.8       662.4      -141.2      -813.8       21.46
         263        1486.      -39.24       699.1      -185.2      -834.1      -15.39
         264        1266.       113.9       549.4      -65.09      -657.3      -74.75
         265        1385.       180.1       438.6      -165.4      -709.1      -108.6
         266        1081.       43.72       194.1      -91.47      -486.7       1.662
         267        1505.      -40.93       300.1      -171.9      -564.9      -26.85
         268        2172.      -155.1       625.0      -92.42      -797.2      -164.6
         269        1099.       132.3       182.2      -112.4      -466.7      -20.77
         270        1122.      -29.70       40.69      -29.06      -281.7      -31.06
         271        1694.       130.4       178.4      -64.02      -245.4      -40.10
         272        1875.      -98.75       286.4      -23.43      -392.4      -44.98
         273        1138.       48.71      -42.23       15.60      -173.2      -28.59
         274        1739.       41.17       43.70      -109.4      -107.3      -50.63
         275        1773.       20.01       79.36      -92.29      -10.92      -90.23
         276        98.20      -282.2       1824.       41.38      -22.93      -185.0
         277       -139.2      -351.8       2047.       55.71      -130.1       9.625
         278        9.800      -184.6       2422.       22.77      -296.8       4.842
         279       -58.82      -113.6       2151.       32.29      -332.4      -59.87
         280       -21.22      -221.1       2066.      -71.63      -402.4      -55.76
         281       -64.45      -144.2       1918.       26.08      -482.6      -130.8
         282        228.3      -62.24       2588.       35.90      -837.0      -159.7
         283        99.94      -54.99       1679.       91.34      -638.4      -131.2
         284        225.1      -160.5       1896.       104.3      -835.8      -100.2
         285        439.2      -211.0       1955.       149.3      -1012.      -109.5
         286        515.3      -55.02       1670.       37.86      -953.2      -49.77
         287        506.3      -104.9       1377.       9.385      -965.1       73.56
         288        653.4      -56.01       1506.       21.61      -1128.       93.65
         289        929.9       63.12       1380.       5.787      -1162.       33.24
         290        906.2      -28.02       1117.      -3.442      -1124.       31.62
         291        1006.      -110.6       1025.       9.582      -1257.      -55.11
         292        1548.      -69.22       1334.       44.33      -1455.      -143.7
         293        1360.      -44.31       1149.       53.80      -1289.      -86.66
         294        1174.      -80.67       837.9       72.33      -1101.      -67.64
         295        1504.      -53.04       746.1       150.4      -1110.      -120.8
         296        1617.      -42.23       555.1       179.6      -987.0      -42.41
         297        1491.      -12.53       393.0       55.71      -872.1      -10.27
         298        1854.      -24.69       400.7      -48.99      -922.3       90.78
         299        1859.      -141.1       284.7      -63.72      -841.6       92.08
         300        2428.      -94.16       353.3      -54.43      -939.5       47.12
         301        1738.      -93.59      -38.96       25.88      -509.2       16.71
         302        1850.       5.574       57.42      -31.99      -518.8       21.58
         303        2290.      -39.89      -5.888      -36.66      -474.6       17.22
         304        2212.      -4.281      -16.08       14.54      -388.6       35.70
         305        1943.      -141.5      -70.21       14.54      -270.1       6.154
         306        2150.      -255.5      -10.29      -4.959      -92.69      -5.079
         307        1917.       13.44       132.6      -14.09      -63.99      -56.80
         308       -288.4      -105.9       5101.       65.27      -339.0      -74.81
         309       -319.8      -13.36       5453.     -0.8521      -631.1      -79.47
         310       -253.3      -84.21       4885.       15.69      -743.9      -100.5
         311       -232.2      -18.61       5190.       34.63      -1149.     -0.9836
         312       -61.88       53.41       5136.       46.67      -1489.      -6.664
         313        150.5       64.03       4935.       35.10      -1720.       5.082
         314        406.3      -121.6       4324.       91.27      -1817.      -44.61
         315        563.6      -69.87       3911.       39.68      -1884.      -119.9
         316        746.7       56.58       4258.       32.07      -2294.      -50.22
         317        1059.      -231.0       4043.       110.5      -2451.      -14.96
         318        1167.      -106.6       3851.       14.64      -2673.      -14.93
         319        1452.      -10.56       3325.      -55.89      -2543.      -104.4
         320        1765.       49.77       3090.       43.85      -2582.       13.98
         321        1996.      -27.54       2594.       9.667      -2573.       9.072
         322        2355.       61.56       2581.       41.24      -2814.       27.81
         323        2571.       51.62       2337.       24.33      -2821.      -44.81
         324        2919.       116.1       2277.      -11.80      -2759.      -78.80
         325        2867.       37.90       1608.      -12.32      -2582.       13.58
         326        3228.       16.71       1297.      -52.51      -2350.      -31.04
         327        3862.      -75.81       1165.      -3.526      -2653.       29.36
         328        4211.      -225.8       964.7      -3.156      -2597.       22.84
         329        4313.      7.2455E-03   663.7      -15.05      -2202.      -1.797
         330        4065.       6.383       529.1      -3.420      -1843.      -35.99
         331        4458.       139.9       487.9       57.04      -1837.     -0.8780
         332        4646.      -68.56       21.35      -36.77      -1601.       31.71
         333        4832.      -2.501      -14.71      -26.54      -1312.       83.73
         334        4876.      -43.57      -104.4      -35.70      -1061.       54.68
         335        4935.      -26.34      -179.8      -43.25      -741.7      -21.85
         336        5112.       11.00      -228.8      -42.62      -618.2       56.14
         337        5018.      -126.0      -334.6       36.09      -300.4      -10.99
         338       -244.0       1.394       5227.       30.63      -188.8      -164.6
         339       -293.9       222.5       5078.       17.51      -307.0       152.3
         340       -232.1       8.402       5389.      -107.5      -386.1      -74.68
         341       -217.8      -262.1       5056.      -178.3      -701.2      -105.2
         342       -87.86      -257.7       4924.      -92.71      -980.4      -177.3
         343        102.8      -212.2       4829.      -9.932      -1204.      -195.0
         344        286.4      -264.4       4833.      -37.62      -1385.      -246.6
         345        300.0      -72.95       4850.      -41.86      -1636.      -191.5
         346        423.4      -133.9       4699.      -21.27      -1825.      -162.8
         347        625.9      -154.8       4493.      -20.30      -2027.      -182.0
         348        816.2      -218.1       4248.      -42.18      -2123.      -186.6
         349        1179.      -278.2       4166.      -68.48      -2330.      -33.16
         350        999.1       23.50       3166.      -203.3      -2144.      -92.03
         351        1414.      -72.79       3370.      -93.86      -2465.      -118.2
         352        1620.      -246.8       3080.      -43.70      -2545.      -175.8
         353        2221.      -196.3       3186.      -22.00      -2813.       14.49
         354        1956.       147.5       2274.      -43.92      -2303.      -37.62
         355        2529.       63.74       2573.       35.37      -2580.      -62.63
         356        2517.      -280.8       2138.       47.85      -2610.      -231.6
         357        2893.      -218.7       1879.      -8.315      -2587.      -216.2
         358        3255.      -107.4       1831.       77.11      -2605.      -141.6
         359        3384.      -228.9       1607.       57.11      -2572.      -197.3
         360        3430.      -286.7       1213.       48.20      -2322.      -245.4
         361        3766.      -239.1       1069.       72.71      -2266.      -175.9
         362        3896.      -245.9       804.5       51.30      -2137.      -144.2
         363        4083.      -265.3       588.5       57.49      -1964.      -161.3
         364        4790.      -209.0       541.3      -35.22      -1869.      -29.55
         365        4053.       107.5       222.6      -20.24      -1459.      -144.7
         366        4645.      -104.8       169.3       102.6      -1370.      -158.7
         367        4684.      -216.1       60.06       134.8      -1088.      -178.1
         368        5254.      -157.3       46.14       89.07      -1067.      -55.33
         369        4490.       59.66      -221.4       80.40      -618.8      -160.7
         370        5163.      -14.33      -133.2       151.0      -540.0      -91.57
         371        5147.      -66.57      -209.7       107.1      -281.7      -27.29
         372        5408.      -4.284      -184.6      -63.70      -140.9       19.57
         373       -36.59       240.2       6487.      -44.17      -273.5       43.88
         374       -8.027       74.73       6383.      -135.2      -542.8       171.2
         375        67.18       3.929       6095.      -41.24      -858.3       76.75
         376        231.8       129.6       5983.      -15.60      -1184.       19.60
         377        389.9       186.2       5798.      -14.81      -1458.       20.02
         378        517.9       180.1       5911.      -131.3      -1788.      -1.672
         379        599.5       148.5       5679.      -122.0      -1995.       44.39
         380        778.7       124.0       5446.      -132.9      -2235.       84.94
         381        1009.       134.2       5189.      -136.4      -2394.       53.78
         382        1166.       14.33       5016.      -94.15      -2506.       73.14
         383        1351.      -139.6       4903.       73.94      -2620.       73.57
         384        1553.       49.68       4150.      -46.18      -2663.       25.62
         385        1952.       148.9       4012.      -76.48      -2821.       10.31
         386        2255.       26.51       3747.      -46.54      -2945.      -45.49
         387        2893.       8.159       4173.       32.55      -3357.      -160.9
         388        2588.       243.0       3159.       11.17      -2905.       40.24
         389        2995.       206.6       2888.      -46.46      -2982.       2.780
         390        3447.       152.0       2726.      -183.9      -3188.      -52.64
         391        3498.       71.00       2273.      -50.92      -2923.      -11.66
         392        4047.       120.9       2169.      -180.0      -3006.      -8.585
         393        4233.       139.9       1956.      -152.1      -2941.      -32.60
         394        4212.      -24.95       1644.      -3.467      -2716.       8.227
         395        4649.       3.718       1337.      -28.21      -2540.       48.22
         396        4851.       126.4       1130.      -65.67      -2338.      -16.82
         397        5066.       17.68       873.0      -28.12      -2160.      -47.22
         398        5964.       23.70       963.7       85.22      -2228.      -121.1
         399        5167.       201.0       468.5       35.38      -1778.      -57.75
         400        5514.       114.5       369.5       18.63      -1586.      -68.92
         401        5735.      -39.76       207.4       2.230      -1293.      -7.861
         402        6432.     -0.6555       266.3      -83.52      -1173.      -78.04
         403        5526.       76.79      -39.93       30.17      -794.0      -52.61
         404        6104.       72.31      -60.75      -72.09      -504.9      -79.35
         405        6251.      -78.73      -93.48      -102.4      -212.5      -38.94
         406       -183.8      -138.9       7051.       7.407      -214.1      -181.2
         407       -571.9       111.9       7256.       164.7      -113.4      -95.85
         408       -963.6       101.0       7370.      -70.67      -170.5      -143.2
         409       -1299.       437.1       8261.      -341.1      -129.7      -92.20
         410       -1167.       477.6       8852.      -384.7      -35.32      -137.0
         411       -607.8       244.9       9532.      -854.3      -121.3      -378.5
         412        504.6      -9.149      1.0962E+04  -1230.      -360.0      -445.2
         413        2640.       230.4      1.2406E+04  -1424.      -185.6      -309.0
         414        5321.       157.2      1.3944E+04  -1776.      -48.57      -277.9
         415        7578.       227.6      1.4747E+04  -1598.      -177.2      -461.0
         416       1.0793E+04   415.2      1.6628E+04  -1459.      -77.03      -414.2
         417       1.3414E+04   566.1      1.8300E+04  -1232.      -93.83      -453.1
         418       1.5883E+04   352.7      1.9925E+04  -1204.      -123.7      -364.3
         419       1.7606E+04  -36.56      2.1101E+04  -1007.      -65.66      -279.6
         420       1.9259E+04  -96.71      2.1859E+04  -801.2       50.76      -367.5
         421       2.1279E+04   514.8      2.2555E+04  -674.7       25.42      -381.9
         422       2.2971E+04   506.1      2.3583E+04  -672.1       12.10      -265.7
         423       2.4146E+04   1092.      2.4409E+04  -862.4      -218.2      -441.9
         424       2.4022E+04   174.3      2.4014E+04  -631.7      -133.1      -443.5
         425       2.6022E+04   370.3      2.7327E+04  -355.8       15.00      -283.4
         426       2.7246E+04   140.9      2.6304E+04  -575.5       881.3       241.3
         427       2.5982E+04   116.2      2.6795E+04  -36.76       1388.      -145.8
         428       2.4724E+04   528.8      2.4683E+04  -388.0       223.3      -106.6
         429       2.4793E+04   1010.      2.5245E+04  -552.8      -66.19      -659.4
         430       2.3683E+04   449.7      2.3999E+04  -450.8       3.394      -453.8
         431       2.3111E+04   542.9      2.2702E+04  -432.9       39.24      -592.1
         432       2.2371E+04  -77.73      2.0964E+04  -341.0       102.8      -613.9
         433       2.1218E+04   345.6      1.9163E+04  -464.4       2.005      -993.7
         434       2.0247E+04   276.5      1.7403E+04  -344.3      -133.0      -1330.
         435       1.9927E+04   749.2      1.6231E+04  -273.2      -143.9      -1328.
         436       1.8373E+04   356.3      1.3684E+04  -328.3      -104.8      -1420.
         437       1.6676E+04   222.5      1.0827E+04  -469.8      -110.7      -1484.
         438       1.4995E+04  -118.0       8051.      -472.7      -213.9      -1641.
         439       1.3260E+04   311.0       5430.      -524.0      -217.3      -1677.
         440       1.2095E+04   146.6       2886.      -400.9      -168.2      -1531.
         441       1.0731E+04   380.4       762.7      -292.0      -238.9      -1223.
         442        9565.       313.1      -689.4      -231.7      -346.4      -675.4
         443        8318.       249.0      -1216.      -234.9      -167.8      -545.4
         444        7757.      -6.772      -1114.      -194.1      -243.6      -204.2
         445        7371.      -14.18      -987.7      -211.3      -166.4      -18.62
         446        6809.       15.33      -538.2      -96.11      -224.0      -52.17
         447        6624.      -140.7      -179.7      -156.5      -205.5      -16.27
         448       1.6898E+04  -746.2      1.6888E+04  -112.7       339.3      -96.82
         449        6053.      -1860.       5240.      -526.3       71.15      -281.6
         450       -4211.      -1901.      -3998.      -477.0      -25.07      -522.5
         451      -1.4271E+04  -2388.     -1.4728E+04  -548.8       39.37      -204.6
         452      -2.0518E+04  -2739.     -2.0716E+04  -259.6      -271.3      -168.9
         453      -2.2561E+04  -2914.     -2.1642E+04  -428.5      -89.19      -351.1
         454      -1.9804E+04  -2994.     -1.9762E+04  -202.9       185.6      -480.6
         455      -1.8400E+04  -2781.     -1.8374E+04  -287.7       241.5      -761.6
         456      -1.8170E+04  -3480.     -1.7598E+04  -408.8       213.9      -900.2
         457      -1.7442E+04  -3308.     -1.6385E+04  -455.2       228.7      -1003.
         458      -1.6896E+04  -3428.     -1.4667E+04  -344.4       310.3      -1069.
         459      -1.6085E+04  -3350.     -1.2799E+04  -167.0       348.6      -1070.
         460      -1.4566E+04  -3486.     -1.0675E+04  -312.9       188.7      -1194.
         461      -1.1940E+04  -3216.      -7265.      -496.6       99.54      -1739.
         462      -1.1281E+04  -2916.      -5214.      -529.8      -81.79      -1787.
         463      -1.0306E+04  -2242.      -2131.      -607.0       293.2      -2052.
         464       -5430.       1728.       5440.      -476.8       398.4      -3562.
         465       -6344.       3074.       5805.      -435.1       264.6      -4253.
         466       -7227.       3728.       5660.      -432.3       416.7      -4532.
         467       -7660.       5580.       5975.      -567.8       365.5      -5329.
         468       -6070.      1.5097E+04   5105.      -125.6      -200.2      -6413.
         469       -7629.      1.4137E+04   2406.       657.9      -114.3      -4290.
         470       -7913.      1.4321E+04   273.1      -259.9       68.68      -1931.
         471       -7868.      1.0624E+04   10.06       193.4      -19.32      -1039.
         472       -7393.       8496.      -141.2       40.07       89.33      -1020.
         473       -6161.       7433.      -4.835       114.5       100.8      -656.3
         474       -5383.       6545.       7.137       137.4       132.4      -432.2
         475       -4808.       6153.      -66.48       178.5       47.82      -266.0
         476       -3427.       5663.       31.61       38.80       101.5      -203.4
         477       -2862.       5391.      -16.44       39.86       132.3       11.54
         478       -1960.       5590.      -29.51       19.92       106.7       42.81
         479       -1300.       5854.      -73.77      -57.30       47.67      -2.311
         480       -666.5       6072.      -11.87       33.70       38.30       68.05
         481       -313.9       6165.      -18.16       23.98       60.81       104.3
         482       -18.88       6574.      -8.605       18.93       32.72       146.5
         483        183.6       6700.      -74.34      -7.576      -12.41       82.49
         484        411.7       6875.      -30.67      -7.442     -3.8537E-02   56.74
         485        522.7       7043.      -8.632      -2.668      -2.376       52.17
         486        564.1       7112.      -14.70      -24.77      -5.081       27.72
         487        772.4       7863.       5.583       4.257       15.52       46.81
         488        728.3       7838.      -16.27       27.15      -2.887       52.72
         489        703.5       8027.       6.093       34.03       22.29       96.65
         490        658.0       8307.       13.54       3.151       31.69       106.1
         491        410.8       8193.       11.58      -56.49      -3.315       116.8
         492        272.5       8489.       79.50       28.87      -14.30       116.1
         493       -1.126       8852.       1.720       103.3       79.72       156.3
         494       -390.1       9255.      -17.88       80.46       80.01       114.7
         495       -887.0       9558.       2.860       5.371       66.38       90.13
         496       -1789.       9077.       121.9       19.48       160.6       100.1
         497       -2549.       8976.       17.78       63.05       141.6      -60.62
         498       -3669.       8723.      -98.48       48.49       63.08      -249.9
         499       -5293.       7600.      -12.13       50.87       89.41      -492.3
         500       -7032.       6424.      -14.95       79.13       98.09      -777.4
         501       -8305.       5463.      -12.83       15.37       82.78      -1020.
         502      -1.0531E+04   2503.       176.9       124.1       38.87      -1574.
         503      -1.2071E+04  -766.1       272.0      -193.6       155.9      -1261.
         504      -1.2679E+04  -3007.       369.8       48.10       98.87      -1186.
         505      -1.1631E+04  -2599.       731.1      -80.29      -30.84      -56.75
         506      -1.0825E+04  -3364.      -31.70       10.17       196.2       901.8
         507       -8869.      -1837.       185.6       84.47       156.7       656.3
         508       -6146.      -1608.      -21.20       128.4       249.2       413.3
         509       -4226.      -748.0       32.15      -92.35       116.1       329.4
         510      -2.1171E+04  -2790.     -2.0977E+04  -37.61      -482.5      -213.8
         511      -2.0094E+04  -2390.     -2.0350E+04  -52.46      -87.36      -503.3
         512      -1.9078E+04  -2901.     -1.9290E+04  -593.7       13.94      -462.1
         513      -1.8699E+04  -3045.     -1.9428E+04  -583.1       134.0      -333.4
         514      -1.7691E+04  -3578.     -1.8673E+04  -769.1       190.6      -231.9
         515      -1.6138E+04  -3322.     -1.8157E+04  -790.7       225.6      -125.2
         516      -1.4555E+04  -3672.     -1.6977E+04  -1149.       372.0      -228.0
         517      -1.2748E+04  -3217.     -1.5795E+04  -1064.       342.7      -346.3
         518      -1.0620E+04  -3599.     -1.4701E+04  -1233.       150.3      -484.1
         519       -7350.      -3270.     -1.2671E+04  -1729.       127.5      -465.9
         520       -5253.      -3101.     -1.1651E+04  -1846.      -8.444      -438.1
         521       -2070.      -2290.     -1.0303E+04  -2114.       408.0      -543.8
         522        1988.      -222.7      -7655.      -2811.       881.7      -247.0
         523        1268.      -531.7      -7093.      -3082.       1358.      -334.1
         524        1679.      -32.65      -6652.      -3092.       1967.      -814.6
         525        1559.      -536.1      -6605.      -2920.       2635.      -1011.
         526        429.6      -1137.      -7004.      -2604.       3363.      -842.9
         527        239.5      -1001.      -5850.      -2752.       3738.      -931.0
         528        211.8       141.3      -4966.      -2950.       4512.      -1458.
         529       -610.9       186.2      -3628.      -2831.       3932.      -1985.
         530       -2003.      -615.9      -4083.      -2145.       4382.      -1998.
         531       -2228.      -324.4      -2888.      -2305.       4591.      -2156.
         532       -3407.      -650.6      -2589.      -2201.       4344.      -2175.
         533       -3498.      -686.3      -1606.      -2185.       4223.      -2362.
         534       -4187.      -525.1      -818.8      -2024.       4217.      -2587.
         535       -5174.      -927.1      -416.8      -1725.       3749.      -2979.
         536       -6317.      -941.2      -880.8      -1224.       3670.      -2908.
         537       -5708.      -265.2       683.3      -967.3       2869.      -3109.
         538       -6224.      -383.4       1651.      -765.1       2681.      -3250.
         539       -7057.      -432.3       1602.      -563.0       2119.      -3064.
         540       -6905.      -568.8       1470.      -365.1       1269.      -3115.
         541       -8201.      -896.5       1397.      -355.8       628.1      -2720.
         542        5637.       2440.      -5239.      -3995.       36.64      -331.5
         543        6808.       2973.      -5445.      -4232.       587.1      -390.9
         544        6940.       3171.      -5958.      -4444.       1618.      -533.8
         545        6073.       2935.      -5334.      -4236.       2377.      -716.2
         546        5537.       3223.      -4566.      -4161.       2729.      -1061.
         547        5138.       3116.      -4464.      -4119.       3632.      -1466.
         548        4946.       2971.      -3898.      -4160.       4126.      -1751.
         549        4490.       2882.      -3165.      -4181.       4758.      -2028.
         550        3251.       3065.      -2681.      -3925.       5185.      -2185.
         551        2290.       3056.      -1983.      -3594.       5497.      -2375.
         552        1790.       2812.      -1204.      -3515.       5698.      -2250.
         553        960.1       2889.      -311.5      -3097.       5755.      -2682.
         554        209.7       2869.      -26.69      -2941.       6323.      -2782.
         555       -278.1       3036.       1099.      -2832.       5863.      -3138.
         556       -1304.       2521.       1850.      -2486.       6224.      -3596.
         557       -2041.       2918.       2767.      -2602.       5919.      -3568.
         558       -2325.       2841.       3375.      -2125.       4860.      -3697.
         559       -3832.       3072.       3851.      -1908.       5039.      -3738.
         560       -3541.       2959.       4594.      -1490.       4297.      -4038.
         561       -4418.       2627.       4745.      -1202.       3700.      -4005.
         562       -4619.       2926.       5232.      -1041.       3073.      -4144.
         563       -5210.       2930.       5928.      -714.5       2432.      -4261.
         564       -5671.       3055.       6485.      -480.4       1585.      -3935.
         565       -5678.       2966.       6497.      -458.9       701.0      -4324.
         566        5735.       3659.      -6679.      -4406.       144.4      -358.9
         567        5716.       4185.      -7226.      -4630.       224.3      -409.8
         568        5986.       5624.      -7671.      -5293.       267.8      -452.6
         569        6161.       8060.      -7321.      -6724.       609.5      -780.3
         570        5369.       9141.      -7255.      -5662.       1522.      -916.0
         571        6384.       9098.      -6721.      -6897.       2318.      -1020.
         572        5080.       7321.      -6932.      -5498.       2648.      -1384.
         573        5142.       9855.      -6035.      -6314.       3413.      -1961.
         574        4327.       8770.      -5772.      -6076.       4177.      -1829.
         575        4175.       9228.      -5103.      -5500.       4428.      -2567.
         576        4832.      1.1517E+04  -4256.      -5700.       4740.      -3465.
         577        3490.       9851.      -4436.      -5760.       5397.      -2784.
         578        2992.       8968.      -3160.      -5013.       5636.      -3297.
         579        1547.       8415.      -3296.      -5003.       5771.      -3024.
         580        1266.       8955.      -2334.      -5021.       6215.      -3660.
         581        708.8       9499.      -1330.      -4775.       6438.      -4140.
         582        225.9       9315.      -411.4      -4928.       6765.      -4673.
         583       -691.7       9968.       194.2      -4715.       6484.      -4787.
         584       -1559.       9043.       337.7      -4356.       6419.      -4781.
         585       -2456.       7839.       796.4      -3712.       6252.      -4815.
         586       -3320.       8105.       1810.      -3301.       5739.      -5069.
         587       -3789.       8308.       1708.      -3272.       5582.      -5124.
         588       -4005.       9143.       3236.      -2882.       5287.      -5667.
         589       -4726.       9437.       3872.      -2535.       4825.      -5591.
         590       -5589.       8003.       3620.      -2158.       4423.      -4772.
         591       -5811.       8135.       5418.      -1906.       3860.      -5811.
         592       -5960.       8976.       4527.      -1389.       3180.      -5214.
         593       -6679.       7685.       4903.      -1313.       2539.      -5148.
         594       -6648.       8661.       5729.      -925.0       1969.      -5768.
         595       -7059.       8777.       6379.      -527.9       1570.      -6401.
         596       -7247.       8144.       6670.      -590.4       625.8      -6572.
         597        4790.      1.1192E+04  -6854.      -5551.       291.4      -624.0
         598        3439.      1.6510E+04  -6563.      -4684.      -70.99      -668.3
         599        1050.      1.5702E+04  -7111.      -2523.       398.8      -396.1
         600        934.0      1.6119E+04  -6986.      -2946.       824.4      -615.7
         601        1235.      1.6195E+04  -7001.      -3485.       1368.      -1051.
         602        1570.      1.6531E+04  -7158.      -3584.       1599.      -908.7
         603        1918.      1.7178E+04  -6691.      -3577.       2521.      -1048.
         604        688.4      1.7177E+04  -6275.      -2969.       2869.      -1569.
         605        372.0      1.8154E+04  -6632.      -3239.       2444.      -977.2
         606        412.5      1.7996E+04  -5767.      -3536.       3481.      -1659.
         607        324.5      1.5862E+04  -5419.      -3767.       3798.      -1669.
         608       -964.0      1.6792E+04  -4900.      -2974.       3940.      -1934.
         609       -1374.      1.6735E+04  -4947.      -2541.       3815.      -1872.
         610       -1660.      1.6523E+04  -4611.      -2628.       3942.      -1819.
         611       -1677.      1.6614E+04  -4116.      -2743.       4110.      -1852.
         612       -2381.      1.6814E+04  -3188.      -2690.       4400.      -2402.
         613       -2745.      1.6380E+04  -3016.      -2378.       4307.      -2151.
         614       -2938.      1.5842E+04  -2844.      -2603.       4350.      -2150.
         615       -3086.      1.7372E+04  -2807.      -2689.       4193.      -2919.
         616       -3688.      1.7318E+04  -1592.      -2601.       4501.      -2675.
         617       -4405.      1.7811E+04  -648.9      -1510.       3959.      -2717.
         618       -4800.      1.6058E+04  -640.8      -1927.       3872.      -2868.
         619       -5227.      1.5904E+04  -827.7      -1626.       3556.      -2852.
         620       -5488.      1.6060E+04  -417.6      -1563.       3429.      -2993.
         621       -5671.      1.6286E+04   875.1      -1501.       3220.      -3605.
         622       -6203.      1.5891E+04   860.9      -1189.       2809.      -3485.
         623       -6373.      1.5994E+04   810.2      -929.5       2555.      -3305.
         624       -6950.      1.6435E+04   601.4      -737.3       2044.      -2797.
         625       -7354.      1.5123E+04   1094.      -771.9       1718.      -3216.
         626       -7078.      1.5972E+04   1237.      -318.1       1259.      -3199.
         627       -6871.      1.6466E+04   1671.      -359.2       1005.      -3324.
         628       -7472.      1.6489E+04   1112.      -235.2       494.3      -3191.
         629       -774.5       3453.      -5008.       400.5      -304.8      -925.8
         630       -832.3       4202.      -5375.       667.7      -674.2      -1494.
         631       -864.7       4193.      -6306.       918.2      -580.7      -1091.
         632       -942.3       4936.      -6575.       1303.      -640.9      -323.0
         633       -639.8       5388.      -5518.       1327.      -479.6       249.6
         634       -425.3       4621.      -4278.       1403.      -313.5       1009.
         635       -160.9       3982.      -2569.       1224.      -34.38       1113.
         636       -354.0       4138.      -951.5       976.8       57.26       1054.
         637       -311.0       4694.       318.4      -135.9       95.26      -757.9
         638       -355.2       4948.      -324.7      -667.2      -13.07      -1118.
         639       -595.5       5411.      -988.9      -1111.      -171.8      -1229.
         640       -762.1       5338.      -1498.      -1261.      -217.6      -466.7
         641       -586.0       5710.      -1348.      -1144.      -285.1       68.42
         642       -516.8       5153.      -838.7      -878.0      -324.6       696.6
         643       -685.5       3455.      -373.3      -841.7      -285.8       829.7
         644       -602.4       2605.       114.9      -712.5      -166.8       512.0
         645        88.81       5656.       1328.      -140.7       30.73       246.0
         646        21.42       5899.       1216.       12.69      -6.211       51.47
         647        157.7      1.1711E+04  -7804.      -1831.       234.5      -132.9
         648        68.55      1.0403E+04  -7113.      -1411.       120.5      -300.6
         649        159.8       8256.      -5941.      -853.2       161.5      -307.5
         650       -97.20      -1239.      -2926.      -7.172       49.46      -216.1
         651       -252.7      -1330.      -3071.      -8.689       100.5      -212.0
         652       -516.4      -1441.      -3088.       26.92       113.9      -165.5
         653       -840.1      -1464.      -3047.       46.26       112.8      -119.8
         654       -1279.      -1523.      -2968.       85.21       112.0      -54.34
         655       -1849.      -1531.      -2885.       102.5       109.9      0.7093
         656       -2382.      -1498.      -2789.       13.84       140.4       95.32
         657       -2836.      -1410.      -2864.      -76.51       189.8       67.14
         658       -3364.      -1414.      -2510.      -40.13       49.45       142.0
         659       -3448.      -1410.      -2106.      -109.8      -67.11       253.8
         660       -2351.      -1114.      -1396.      -751.8      -134.2       324.3
         661       -2598.      -910.4      -4501.       619.1      -222.3      -255.1
         662       -3678.      -1372.      -3345.      -42.82       118.5      -157.5
         663       -3391.      -1257.      -3057.      -156.2       189.6      -73.15
         664       -2994.      -1393.      -3145.      -193.2       231.7      -3.620
         665       -2461.      -1381.      -2945.      -127.3       208.8       16.59
         666       -1928.      -1454.      -2643.      -81.29       172.4       2.645
         667       -1465.      -1438.      -2810.      -70.15       145.8       66.31
         668       -941.5      -1430.      -2902.      -52.13       126.9       81.29
         669       -565.5      -1363.      -3100.      -34.20       141.2       139.8
         670       -273.8      -1314.      -3147.      -17.24       114.8       214.4
         671       -123.4      -1261.      -2942.       17.71       91.85       241.0
         672       -102.3      -1319.      -2748.      -17.33       74.61       335.7
         673       -51.73      -1643.      -2527.      -56.75       166.7       658.3
         674       -57.67      -2038.      -2375.      -158.5       240.4       780.5
         675       -3.526      -2387.      -2020.      -213.9       217.3       850.2
         676       -6.410      -2704.      -1792.      -246.0       193.1       735.1
         677        57.26      -2929.      -1628.      -239.8       153.1       568.4
         678        81.33      -3033.      -1585.      -119.1       67.08       409.0
         679        71.69      -3321.      -1457.      -63.45      -7.939       249.7
         680        46.02      -3247.      -1476.       129.0       72.17      -321.0
         681        58.75      -3213.      -1546.       168.9       59.74      -520.3
         682        52.25      -2862.      -1722.       216.6       122.6      -681.1
         683        42.17      -2592.      -1789.       185.1       246.5      -771.8
         684        7.482      -2266.      -2087.       115.2       217.9      -938.9
         685       -20.16      -1893.      -2319.       77.35       191.9      -820.2
         686       -68.72      -1587.      -2665.       34.05       177.2      -505.5
         687       -28.85      -1403.      -2705.       4.144       72.29      -372.3
         688        52.63      -919.2      -2576.      -25.22       7.623       821.3
         689       -23.69      -1824.      -2282.       58.78      -44.92       1594.
         690       -29.30      -3345.      -1802.       74.07       27.31       1843.
         691       -93.57      -5007.      -1143.      -26.81       14.44       1175.
         692       -37.97      -5139.      -903.8      -44.51       61.51      -952.6
         693       -94.92      -3595.      -1691.       3.842       37.45      -1734.
         694        9.144      -2391.      -2192.      -24.01       1.872      -1655.
         695        16.63      -1104.      -2680.       5.644       19.43      -930.6
         696       -2.268      -1058.      -2782.      -1.728       52.07      -288.8
         697       -24.58      -928.7      -2720.      -3.512       60.60       321.8
         698       -59.22      -741.5      -3213.      -37.61       58.96      -321.8
         699       -31.82      -656.0      -3472.      -33.56       42.90      -488.6
         700       -132.2      -581.2      -4114.       39.51       19.89      -505.3
         701       -268.0      -601.2      -4649.       72.25       90.08      -421.6
         702       -177.6      -606.8      -5023.       149.8       97.93      -390.3
         703        35.75      -679.1      -5267.       203.1       5.541      -371.5
         704        387.4      -691.4      -5655.       138.9      -71.07      -419.8
         705        743.9      -485.0      -6675.       64.25      -199.0      -249.7
         706        851.5      -762.4      -5706.      -196.4      -106.1      -259.7
         707        258.1      -962.6      -4987.      -614.8      -169.6      -65.98
         708       -247.2       161.9      -4686.      -846.6      -407.4       175.5
         709       -688.1       181.4      -2203.      -412.9      -267.7       234.6
         710       -207.7       2136.       985.5       130.6      -155.7       712.9
         711        44.28       4128.       1155.       58.32      -37.92       257.1
         712       -23.57       4517.       1007.       25.94      -48.91       113.2
         713        1160.      1.5543E+04   1906.       1017.       57.54      -2123.
         714        586.4       8510.       346.1       1154.      -442.6      -2373.
         715       -15.32       5028.      -1792.       1138.      -891.6      -1882.
         716       -313.6       1164.      -5576.       404.0      -748.8      -202.5
         717       -202.9       1355.      -4440.      -286.5      -65.53      -673.7
         718       -70.20       2155.      -6880.      -889.3      -60.08      -325.4
         719        280.9       2248.      -9193.      -1213.       129.2      -83.83
         720        351.7      -897.9     -1.0890E+04  -1172.      -166.3      -23.60
         721        496.8      -3888.     -1.2275E+04  -1175.       6.575      -80.74
         722        1040.      -2830.     -1.1436E+04  -162.2      -24.06      -208.0
         723        206.7      -4080.     -1.0893E+04   625.5       148.9      -95.86
         724        133.8      -2580.      -8738.       516.4       15.20      -182.8
         725       -16.00      -1705.      -6406.       291.2       218.6      -10.29
         726        41.97      -724.4      -4243.       339.7       34.55      -250.2
         727       -456.1       1948.      -710.3      -336.3      -409.9       890.2
         728        37.60       5071.       285.6      -964.3      -662.1       1631.
         729        648.7       9656.       1277.      -1445.      -484.2       2154.
         730        1155.      1.3779E+04   1412.      -1620.       37.53       2095.
         731       -605.8      -137.6      -7350.       132.9      -77.28      -235.6
         732       -386.3      -1011.      -8207.       739.8      -59.71      -88.17
         733       -172.6      -1235.      -7903.       673.1      -56.13       47.86
         734       -139.4      -951.6      -6590.       241.2      -138.1       139.0
         735       -277.0      -896.2      -6081.       23.58       13.99       220.3
         736       -316.6      -818.1      -5954.      -41.98       85.29       425.0
         737       -482.2      -554.5      -5313.      -3.553       78.64       497.2
         738       -422.3      -465.7      -4837.      -114.1       148.1       391.9
         739       -399.5      -580.4      -4415.      -66.89       72.86       406.0
         740       -322.2      -671.6      -3955.      -48.89       49.57       379.1
         741       -166.5      -698.7      -3600.      -4.157       43.59       305.7
         742        37.72      -502.3      -3042.      -3.220       21.77       284.6
         743        13.71       6359.       483.9       15.77       34.03       112.2
         744       -93.48       5409.       782.3       18.69      -9.985       74.97
         745       -78.59       7667.       4.620       9.406       93.96       74.40
         746        40.98       8392.       95.66       9.469      -34.49      -35.63
         747        128.6       8236.       295.5       9.675      -211.8      -50.16
         748        305.8       8032.       406.9      -6.695      -323.6      -18.70
         749        421.3       7722.       289.0      -28.39      -345.6      -21.53
         750        528.6       7634.       145.3      -12.57      -308.5      -17.26
         751        628.2       7505.       68.56      -14.55      -206.3      -32.08
         752        656.8       7393.       9.838      -3.396      -98.70      -16.62
         753        675.8       7478.       71.82       2.563      -60.45      -8.206
         754        657.3       7462.       30.14      -19.98      -120.0      -1.970
         755        609.7       7553.       80.06      -20.05      -235.0      -6.245
         756        505.8       7530.       212.3      -18.05      -296.7      -15.13
         757        380.1       7806.       327.7      -35.41      -346.1      -9.603
         758        211.4       8003.       340.0      -6.998      -287.5      -25.59
         759        55.40       8388.       192.5       5.854      -88.17      -30.71
         760       -88.17       8302.      -51.44       17.32       56.74      -42.99
         761        637.3       7332.      -13.20      -4.031      -75.65      -6.452
         762        630.4       7496.       69.06      -9.000      -204.0      -2.552
         763        551.5       7498.       129.5      -27.75      -279.4      -12.51
         764        537.6       7648.       202.5      -9.698      -304.0       2.071
         765        405.4       7635.       311.7      -18.88      -331.5      -9.806
         766        258.5       7970.       356.3      -6.002      -312.1      -22.76
         767        166.0       8024.       275.8      -4.480      -261.0      -27.84
         768        46.81       8268.       250.9      -3.891      -138.5      -35.97
         769       -44.91       8351.      -10.85       41.41       40.15      -82.04
         770        28.05       7171.       232.6       8.055       116.6       80.39
         771        458.7       7699.       257.0      -19.29      -332.5      -6.423
         772        327.9       8048.       345.4      -6.038      -345.3      -10.21
         773       -95.39       8035.       11.43       24.70       64.16      -14.00
         774       -117.1       5188.       936.1       13.64       46.93       41.82
         775        644.9       7323.       28.30      -7.902      -11.84      -8.433
         776       -357.2      -360.0      -3144.       455.4       239.0      -110.2
         777       -640.3       20.28      -2343.       320.6       203.9      -38.37
         778       -738.4      -1.761      -2627.       314.9       744.4       151.3
         779       -1261.      -78.24      -2490.       382.8       1109.       199.2
         780       -1486.      -72.25      -2125.       348.9       1295.       127.9
         781       -2120.      -88.03      -1778.       332.2       1454.       271.9
         782       -2270.      -19.10      -1303.       180.8       1104.       405.5
         783       -2651.      -94.73      -985.3       87.30       1026.       413.9
         784       -3116.      -123.3      -504.3       43.15       605.7       321.3
         785       -2950.       14.55      -412.7      -47.04       149.7       370.7
         786       -3049.      -119.3      -539.4       99.66       345.2       363.2
         787       -2730.      -135.0      -703.6       75.60       723.6       339.9
         788       -2463.      -18.76      -1118.       118.5       1056.       361.3
         789       -2005.       15.31      -1466.       193.4       1245.       308.6
         790       -1732.      -69.25      -1868.       256.5       1263.       234.4
         791       -1405.      -98.16      -2370.       414.7       1153.       178.5
         792       -971.6      -198.8      -2639.       427.1       935.0       186.1
         793       -678.2      -78.68      -2790.       400.7       412.0      -88.75
         794       -3001.      -74.41      -463.7       113.6       451.2       406.0
         795       -2686.      -130.9      -882.4       72.27       892.5       373.0
         796       -2368.      -130.1      -1166.       133.0       1093.       356.6
         797       -2153.      -111.7      -1376.       124.4       1184.       417.6
         798       -1591.      -64.90      -1977.       276.2       1300.       217.2
         799       -1383.      -63.50      -2250.       347.0       1206.       171.8
         800       -1041.      -45.11      -2540.       400.2       1039.       129.6
         801       -605.6      -58.89      -2576.       451.3       713.0      -23.73
         802       -2931.      -48.41      -517.8       13.15       713.0       299.3
         803       -1805.      -172.9      -1745.       238.2       1366.       289.8
         804       -373.1      -9.527      -2384.       358.0      -44.98      -125.3
         805       -621.8      -135.4      -2675.       434.3       599.6       55.84
         806       -2830.       127.6      -418.0      -129.4      -85.00       415.2
         807       -845.7      -142.5      -2646.       345.4       845.5       181.0
         808       -155.2       17.49       502.2      -32.38       7.812      -19.69
         809       -72.76      -93.21       703.7       68.47      -106.2       16.93
         810       -148.4      -78.51       887.4       6.629      -177.0       15.55
         811       -47.73      -3.951       503.3       4.694      -135.1      -70.06
         812        46.95       56.20       345.1       3.658      -262.3      -73.00
         813       -12.18      -35.03       683.9       65.77      -354.4      -75.45
         814        59.86       110.9       250.9       23.32      -192.2      -58.47
         815        25.66       119.7       116.5      -2.133      -239.8      -33.22
         816        30.34      -6.578       398.5       19.01      -300.5      -71.22
         817        37.43      -41.00       333.6       76.64      -308.1      -134.8
         818        55.37       33.78       87.08       7.681      -168.7       16.75
         819        161.4      -79.54       313.1       25.69      -324.2      -34.21
         820        268.3       83.22       104.7       10.50      -294.3      -86.70
         821        116.5      -52.26       233.6       3.311      -337.6      -77.56
         822        122.3       77.14      -172.9      -36.08      -151.9       37.74
         823        143.0       130.1      -123.2       12.38      -81.10      -79.84
         824        92.17       126.2       55.15       27.52      -164.5      -55.14
         825        343.2       9.502       115.1      -1.709      -133.3       68.63
         826        197.3       149.5      -1.905      -57.01      -62.10       15.61
         827        394.7      -110.2      -98.83       158.2      -141.1      -38.92
         828        827.5      -133.8      -92.67       8.049      -231.6      -42.77
         829        211.3      -6.970      -132.5       35.73      -40.06      -24.41
         830        541.6       65.93      -208.3       26.02      -16.19      -7.276
         831        887.4      -24.22       9.884      -21.42      -325.0      -13.09
         832        354.2      -19.51      -79.41       73.02      -163.3       20.33
         833        383.1       90.07       105.2       31.86      -315.3       88.88
         834        169.5       23.95       263.7       85.78      -242.6       45.22
         835        257.5       94.88       270.8       12.44      -338.8      -55.67
         836       -17.34      -155.3       1037.      -11.45      -233.2       8.149
         837        276.6      -71.26      -32.76       193.0      -179.4     -0.2263
         838        260.8       44.02      -105.5       31.03       11.86      -37.74
         839       -18.95      -75.51       1882.       18.84      -82.68      -4.946
         840        160.1      -35.94       1780.      -34.59      -293.7      -51.51
         841       -23.28      -134.9       2106.       35.71      -217.8       49.06
         842        103.1       11.78       1315.       16.45      -308.5      -35.83
         843        281.4      -93.63       1879.       22.10      -705.7      -68.58
         844        114.5      -57.95       1601.       78.25      -356.8      -146.0
         845        270.6      -97.72       1186.       63.91      -537.6      -58.74
         846        393.4       41.70       1052.      -22.24      -624.7      -61.68
         847        649.8      -23.01       1354.       7.286      -900.3       101.5
         848        709.5       32.02       1129.      -88.78      -807.3       36.87
         849        656.2      -132.5       1053.      -62.73      -834.7      -1.100
         850        718.1      -112.9       925.2       85.16      -884.7       2.079
         851        1028.      -47.40       622.7       67.46      -824.6       38.82
         852        1397.      -1.043       871.1      -147.7      -985.4       100.1
         853        1093.      -109.0       482.8       27.76      -746.9      -20.76
         854        1499.      -63.84       496.1      -64.36      -864.0       4.363
         855        1528.      -51.50       355.9      -39.43      -629.8       94.12
         856        1170.      -40.67       113.0      -74.73      -386.6       22.16
         857        1433.      -32.74       140.9      -22.22      -318.9      -7.292
         858        2181.      -141.3       79.65      -47.20      -312.7       29.86
         859        1850.      -16.30      -24.98      -55.89      -185.7       57.81
         860        2053.      -26.43       22.06      -107.8      -172.3      -36.07
         861        1659.       10.48       156.0      -39.48      -458.1      -9.738
         862        1415.      -191.4       286.3       7.631      -515.4      -4.570
         863        1454.      -58.17       547.5      -37.75      -883.5      -30.06
         864        733.5      -45.58       1349.      -45.82      -981.2       161.7
         865        485.3      -70.90       1451.      -1.482      -791.5      -47.61
         866        694.7       185.5       862.6       22.41      -697.6      -41.39
         867        255.0      -83.47       2305.      -29.52      -324.1       40.65
         868        929.5      -56.54       741.4       92.05      -832.3       26.08
         869        2068.      -94.08       28.51      -28.83      -67.14      -36.54
         870        281.1      -32.23       1740.       25.18      -668.5      -132.6
         871       -375.1       58.21       5481.       45.33      -404.7       31.19
         872       -198.9      -151.4       5394.      -56.96      -972.0      -30.78
         873       -164.8      -169.2       5673.      -50.33      -727.3       30.46
         874        157.8      -17.42       5154.      0.9390      -1558.      -89.31
         875        297.8      -94.29       4902.       36.46      -1844.      -63.34
         876        536.2      -172.7       4597.      -14.01      -2064.      -80.73
         877        774.9      -101.3       4396.      -19.81      -2133.      -107.6
         878        1285.      -250.1       4149.       21.83      -2566.       42.42
         879        951.7      -235.2       4275.       4.753      -2298.      -19.08
         880        1468.      -59.05       3585.      -105.6      -2591.      0.9254
         881        1732.      -113.7       3361.      -83.13      -2741.      -55.14
         882        2130.      -34.42       2749.       23.88      -2794.       55.56
         883        2955.      -120.3       1893.       60.90      -2609.      -86.33
         884        2548.       72.01       2533.       22.47      -2823.      -58.76
         885        3161.      -211.6       1687.       57.98      -2637.      -86.67
         886        4163.      -165.0       886.3      -54.41      -2283.      -15.09
         887        4065.      -258.0       1311.       28.55      -2563.       41.74
         888        4592.      -192.5       527.3       14.36      -1974.      -60.92
         889        4601.      -36.15       285.4       8.224      -1777.       10.03
         890        5220.      -115.3      -107.1       15.04      -930.6      -69.34
         891        5098.      -89.75       73.90       66.02      -1446.      -45.11
         892        5357.      -73.94      -226.7       105.2      -416.3       3.709
         893        5110.      -56.24      -182.1       116.5      -652.6      -20.20
         894        4677.       37.04       132.9       58.38      -1592.      -58.71
         895        4444.      -114.7       670.6      -59.98      -2133.      -72.66
         896        3559.      -192.6       1467.       9.964      -2623.      -75.35
         897        1966.      -197.6       3225.      -8.059      -2789.      -64.77
         898        3001.      -9.821       2281.      -45.91      -2945.      -89.26
         899       -54.01      -32.60       5363.      -19.33      -1275.      -39.83
         900        4750.      -97.58      -120.9       84.05      -1103.       24.25
         901        4610.       65.36      -371.2       42.10      -236.8      -2.729
         902       -20.31      -76.77       6951.      -37.05      -801.3      -9.001
         903        415.5       178.0       5895.      -27.29      -1935.       34.69
         904        912.8       125.9       5625.      -63.51      -2455.       100.4
         905        1063.       146.6       5320.      -87.07      -2534.       103.9
         906        1616.      -120.8       4857.       128.9      -3029.       66.54
         907        1714.       92.06       4372.       61.94      -2970.      -82.23
         908        2448.       96.18       4106.       54.85      -3341.      -157.2
         909        2612.      -10.94       3656.       123.2      -3261.      -59.01
         910       1.6886E+04   103.2      2.0755E+04  -1058.      -533.5      -194.9
         911       1.8722E+04   119.1      2.1727E+04  -909.0      -402.0      -270.3
         912        4276.       116.1       2114.      -124.8      -3161.       25.07
         913       2.2474E+04   170.0      2.4312E+04  -679.0      -218.7      -222.9
         914       2.3709E+04   461.9      2.4755E+04  -763.3      -265.2      -329.1
         915       2.4022E+04   260.4      2.4679E+04  -816.4      -221.3      -431.3
         916       2.4324E+04  -274.2      2.4521E+04  -417.3      -203.3      -272.0
         917       2.4052E+04   35.21      2.4617E+04  -313.5      -136.6       23.31
         918       -17.02      -4.569       6668.      -15.59      -1021.      -37.88
         919        195.2       174.4       6236.      -30.30      -1705.      -39.20
         920       -68.35       201.3      1.0064E+04  -985.0      -578.7      -262.5
         921        1344.       202.8      1.1555E+04  -1310.      -659.2      -329.1
         922        3879.       76.47      1.2749E+04  -1615.      -539.4      -257.5
         923        6568.       373.9      1.4501E+04  -1646.      -602.2      -176.1
         924        9275.       88.97      1.6421E+04  -1501.      -497.8      -152.5
         925       1.2070E+04  -40.05      1.7986E+04  -1332.      -658.6      -122.9
         926       1.4945E+04   235.3      2.0086E+04  -1183.      -476.1      -234.7
         927        3205.       139.6       2849.      -57.37      -3356.      -52.04
         928        3595.       33.53       2671.      -41.51      -3296.       17.12
         929       2.0701E+04   91.65      2.3105E+04  -775.0      -83.15      -248.3
         930        4307.       126.0       1771.      -70.40      -3001.       78.01
         931        4863.       1.618       1201.       73.35      -2685.       6.065
         932        5351.       182.9       1044.       84.31      -2567.      -128.5
         933        5743.       79.88       648.4       105.0      -2164.      -26.57
         934        5706.       220.9       223.7       39.93      -1901.      -21.65
         935        8550.       186.2      -1386.      -192.7      -387.1      -267.5
         936        6361.       57.38      -32.08      -53.47      -1023.      -73.01
         937        6426.      -85.91      -158.6       16.45      -371.3       12.70
         938        7060.       48.88      -844.6      -39.18      -364.0       6.344
         939        7724.       49.95      -1009.      0.2805      -515.6      -109.2
         940        6232.       6.062       104.6      -8.403      -1270.       24.72
         941        9109.       335.5      -847.7      -28.61      -570.7      -600.4
         942       1.0480E+04   191.9      -85.62      -67.61      -541.0      -871.4
         943       1.1803E+04   134.3       1728.      -216.8      -602.8      -1351.
         944       1.2731E+04   59.81       4123.      -269.8      -551.2      -1588.
         945       1.5047E+04  -70.08       6984.      -219.8      -635.8      -1657.
         946       1.6575E+04  -181.2       9459.      -266.5      -504.5      -1508.
         947       1.8377E+04   69.97      1.2463E+04  -221.3      -445.6      -1391.
         948       1.9395E+04   191.8      1.5033E+04  -244.7      -552.1      -1301.
         949       1.9591E+04   17.34      1.6230E+04  -336.2      -545.4      -1511.
         950       2.1109E+04  -165.7      1.8398E+04  -352.6      -203.8      -1196.
         951       2.1886E+04  -53.21      1.9968E+04  -283.5      -358.0      -864.1
         952       2.3830E+04   193.1      2.2487E+04  -268.5      -78.15      -602.4
         953       2.4700E+04   169.5      2.3745E+04  -145.0      -119.4      -601.2
         954       2.5381E+04   315.1      2.4929E+04  -295.2      -82.18      -391.2
         955       2.4093E+04   93.23      2.3907E+04  -363.1       63.46      -292.8
         956        6056.       71.06      -122.2      -30.96      -648.3       37.70
         957        6383.      -47.52       225.7      -2.884      -1756.       43.92
         958        5612.       165.3       837.9       125.8      -2402.      -146.1
         959        4818.      -93.61       1647.       66.79      -3041.       153.5
         960        3988.       129.6       2404.      -106.1      -3166.       86.80
         961        2923.       186.1       3251.       43.22      -3309.       5.817
         962        2112.       163.1       4259.       12.76      -3191.      -181.6
         963        1152.       6.431       4957.       21.90      -2673.       92.49
         964        665.0       129.4       5825.      -57.93      -2260.       155.9
         965        51.59       37.56       6393.       12.77      -1355.      -65.16
         966       -191.5       83.67       6275.      -20.37      -437.2       82.71
         967       -496.2       72.90       7004.      -15.65      -661.8      -189.7
         968       -1528.       270.1       8234.      -207.4      -512.6       50.67
         969       -986.2       223.0       8833.      -502.8      -439.9      -79.09
         970       -136.4       39.88       6559.       68.41      -1600.      -44.98
         971       2.1080E+04  -68.42      1.6713E+04  -455.2      -1021.      -1128.
         972       -1140.       91.58       7657.      -142.0      -407.5      -58.95
         973        456.2      -142.6       6157.       53.11      -2629.       102.1
         974        732.4       210.0      1.0845E+04  -993.6      -1203.      -377.1
         975        752.6      -31.23       6155.      -33.91      -2807.       47.20
         976        5427.       154.3      1.4946E+04  -1458.      -1262.      -239.6
         977        8721.       255.6      -1167.      -38.14      -977.0      -422.4
         978        6525.       42.66      -397.6      -31.32      -575.9       67.89
         979        7398.       45.59      -990.8      -18.31      -904.4       24.94
         980        6363.       100.0       212.3      -56.09      -2196.       89.10
         981        5982.       48.55       503.6       24.00      -2491.       69.88
         982       1.2358E+04   372.8       2741.      -467.5      -1154.      -1349.
         983        8142.       1.281      1.5474E+04  -1747.      -1157.      -254.7
         984       1.7529E+04  -114.5      1.0880E+04  -500.6      -1029.      -1318.
         985       1.9454E+04  -83.95      1.4018E+04  -439.7      -929.2      -1129.
         986       2.3577E+04   109.9      2.1663E+04  -721.1      -628.0      -844.6
         987       1.1063E+04  -294.3      1.8073E+04  -1382.      -1040.      -418.6
         988       1.4404E+04  -183.9       5761.      -266.5      -1417.      -1405.
         989       1.6410E+04  -109.8       8486.      -182.6      -1324.      -1279.
         990       2.2222E+04  -227.5      1.8342E+04  -428.1      -839.7      -1105.
         991       2.4375E+04   98.11      2.3093E+04  -625.3      -548.8      -919.8
         992       2.6113E+04  -130.4      2.5548E+04  -328.3      -103.2      -169.4
         993       2.5760E+04  -172.0      2.5450E+04  -244.5      -125.6      -128.0
         994       -346.4       17.55       7223.       61.68      -1058.       59.09
         995        126.6       108.9       6433.       54.03      -1960.      -2.135
         996        2625.       266.0      1.2842E+04  -1200.      -1308.      -487.8
         997        1520.      -90.40       5543.      -34.87      -3257.      -27.23
         998        1406.      -33.15       4785.       28.87      -3196.      -74.69
         999        2499.      -132.1       4083.       157.2      -3760.      -11.34
        1000        2281.       103.5       4362.       123.1      -3692.      -82.35
        1001       1.3432E+04  -429.9      1.9153E+04  -1167.      -1198.      -498.3
        1002       1.6239E+04  -219.1      2.0843E+04  -1052.      -865.1      -473.1
        1003        3109.       69.71       3160.       35.85      -3577.      -3.985
        1004        4090.      -160.4       2676.      -16.06      -3800.       105.7
        1005        4439.       193.9       1988.      -123.5      -3444.       52.07
        1006        9798.       169.1      -646.9      -126.2      -1210.      -570.3
        1007        7929.       142.4      -1130.      -125.6      -858.9      -222.5
        1008        6985.      -91.27      -426.3      -21.33      -329.3      -24.78
        1009        6532.       22.17      -250.8       108.6      -1439.       42.84
        1010        6429.       51.11      -63.75       43.36      -1677.       52.21
        1011       1.0736E+04   326.5       748.0      -297.9      -1189.      -964.7
        1012        5403.       57.67       967.3       158.3      -2916.      -84.10
        1013        5437.      -89.13       1497.      -6.658      -3306.      -1.799
        1014        4010.      -49.78       2197.       2.386      -3533.       120.5
        1015        3398.      -26.12       2666.      -47.85      -3486.       42.62
        1016       1.8520E+04   203.0      2.2266E+04  -924.6      -881.1      -579.5
        1017       1.9932E+04   114.4      2.2729E+04  -985.8      -709.4      -614.8
        1018       2.1527E+04  -125.8      2.3798E+04  -755.4      -651.6      -605.5
        1019       2.3688E+04   98.90      2.5577E+04  -640.1      -406.2      -497.1
        1020       2.3588E+04  -435.0      2.0370E+04  -334.6      -788.7      -1016.
        1021       2.4650E+04  -248.8      2.6122E+04  -745.1      -213.0      -704.0
        1022       2.5413E+04  -122.6      2.6364E+04  -562.1      -352.3      -720.8
        1023       2.4639E+04   26.01      2.3693E+04  -483.5      -348.5      -594.3
        1024       2.6293E+04  -143.5      2.6607E+04  -67.69      -254.1      -138.2
        1025        6641.       95.80      -383.3       5.368      -1001.       114.3
        1026        6195.       74.98      -48.67      -40.18      -1812.       26.10
        1027        5605.       150.9       706.6       103.5      -2641.      -86.47
        1028        4690.       64.82       1497.      -104.8      -3247.       92.31
        1029        2667.       66.11       3450.       118.5      -3459.       3.849
        1030        1897.       171.9       4469.       93.70      -3471.      -238.4
        1031        858.9       50.02       5377.      -14.11      -2893.       72.31
        1032        338.3       61.94       6042.       11.67      -2269.       84.61
        1033       -245.1      -92.97       7111.       111.7      -1375.       46.88
        1034       -479.3      -55.75       6760.       56.87      -282.6      -31.60
        1035       -1158.       6.203       7418.       19.35      -360.0      -134.2
        1036       -1278.       51.33       8261.      -165.0      -897.0       1.845
        1037        69.18      -19.55       6598.       108.4      -2640.       47.53
        1038        934.6       52.13       5625.      -81.27      -3443.       118.3
        1039        6780.      -10.38      -630.3      -16.76      -1578.       9.213
        1040       1.0129E+04   15.08       164.6      -120.9      -1582.      -900.1
        1041        6093.       233.4      1.4105E+04  -1777.      -1674.      -246.6
        1042       -647.9      -33.03       9692.      -662.2      -1105.      -253.3
        1043        1179.      -68.96       5209.      -139.5      -3517.       3.370
        1044        1956.       241.0       4663.       117.7      -3882.      -48.20
        1045        7210.       14.12      -744.8       93.04      -1301.       112.0
        1046       1.7061E+04   402.9      1.1794E+04  -374.2      -1371.      -1421.
        1047       2.0883E+04   161.1      1.8046E+04  -261.9      -1006.      -900.0
        1048       2.2398E+04   352.8      2.0190E+04  -512.8      -556.9      -809.0
        1049        3768.       76.52       2654.      -41.54      -4092.       97.41
        1050       -120.1       45.74       6604.       61.19      -2296.       52.52
        1051       -603.9      -133.3       7785.       74.43      -1396.       73.51
        1052       -629.3      -119.3       7032.       54.88      -1583.      -23.36
        1053       -1447.       61.05       9036.      -147.7      -1154.      -58.33
        1054        390.0       145.3       6283.       36.77      -2891.       57.11
        1055        4771.       147.8       2061.      -57.26      -4011.       202.4
        1056       1.3889E+04   307.6      1.8622E+04  -1180.      -1336.      -657.6
        1057       1.8690E+04   150.5      1.4045E+04  -337.6      -1280.      -1059.
        1058       1.1494E+04   106.7       1621.      -176.1      -1709.      -1201.
        1059       1.2188E+04   165.7       3766.      -359.2      -1582.      -1573.
        1060        2929.       108.2       3402.       109.6      -3926.      -53.78
        1061       2.1561E+04   610.4      2.3047E+04  -457.2      -791.5      -332.7
        1062       -520.6       189.4       7456.       116.9      -1069.      0.6971
        1063       -379.9      -63.05       6858.       78.01      -1989.       8.018
        1064        1671.       233.6      1.1354E+04  -1322.      -1745.      -308.8
        1065        3796.       143.8      1.2783E+04  -1604.      -1700.      -263.2
        1066        2231.       106.8       4182.       56.25      -3928.       45.62
        1067       1.1550E+04   249.6      1.7107E+04  -1438.      -1324.      -531.3
        1068        8927.       179.3      1.5738E+04  -1618.      -1567.      -388.8
        1069       2.0366E+04   55.69      1.6674E+04  -406.2      -1215.      -999.2
        1070       1.6505E+04   498.0      2.0311E+04  -1030.      -1100.      -647.5
        1071       1.5486E+04   227.7       8828.      -332.5      -1508.      -1614.
        1072        4948.      -88.48       1186.      -106.6      -3401.      -111.0
        1073        5425.      -75.52       968.3       100.3      -3408.      -100.3
        1074        8706.       205.1      -805.8       15.36      -1555.      -572.7
        1075        6520.       22.72       100.7       10.98      -2692.       119.7
        1076        7859.       225.9      -1085.       30.48      -1350.      -327.7
        1077        6885.       68.13      -229.7      -143.3      -1990.      -32.88
        1078        6164.       162.7       397.2       38.15      -2909.       111.2
        1079        5752.       161.4       725.3       90.47      -3121.      -30.61
        1080       1.4221E+04  -268.1       6347.      -187.3      -2084.      -1629.
        1081        4034.       153.4       2319.       37.25      -4050.       71.69
        1082        3327.       122.5       2957.      -28.68      -3927.       92.40
        1083       1.7867E+04   606.3      2.0860E+04  -949.2      -910.8      -507.0
        1084       2.0119E+04   675.7      2.2191E+04  -675.4      -882.2      -603.4
        1085       2.4298E+04   497.7      2.3017E+04  -919.2      -544.3      -638.8
        1086       2.2529E+04   553.7      2.3641E+04  -474.4      -516.9      -188.9
        1087       2.3420E+04   715.1      2.3282E+04  -289.6      -549.6      -521.6
        1088       2.4237E+04   281.0      2.4983E+04  -288.1      -222.4      -445.5
        1089       2.3029E+04   477.4      2.2407E+04  -494.2      -553.9      -668.7
        1090       2.4700E+04   326.5      2.4694E+04  -73.67      -45.00      -461.0
        1091        6432.       193.4      -43.51      -101.6      -2243.       38.08
        1092        4805.       179.2       1609.      -106.8      -3615.       52.47
        1093        2452.      -18.98       3717.       124.2      -4026.       15.36
        1094        1502.       69.13       4914.       32.65      -3683.      -91.49
        1095        567.1       88.53       5955.      -71.48      -3086.       59.30
        1096       -33.87       268.9       9853.      -980.5      -1534.      -188.4
        1097        2285.       348.4      1.0691E+04  -1404.      -2176.      -347.2
        1098        7176.       128.8      -851.3      -168.3      -1877.      -43.39
        1099        4266.       239.8       2040.       9.660      -4378.      -80.04
        1100        1712.       162.8       4880.      -67.21      -4169.       40.29
        1101        3089.      -6.461       3079.       4.960      -4426.      -111.7
        1102       1.8937E+04   53.85      1.6410E+04  -615.9      -1394.      -1137.
        1103       -857.5       187.7       7750.      -36.69      -755.8      -161.1
        1104        7054.       334.5      1.3494E+04  -1774.      -1912.      -305.7
        1105       1.8960E+04  -23.63      1.5467E+04  -698.2      -1697.      -1206.
        1106       2.0460E+04   265.7      1.8552E+04  -690.3      -1193.      -896.3
        1107        9276.       310.3       835.6      -190.9      -2006.      -1082.
        1108        7638.       93.60      -1100.      -67.71      -1141.      -157.3
        1109        3562.       244.5       2821.       8.100      -4409.      -200.9
        1110       2.2198E+04   560.3      2.2570E+04  -572.9      -726.1      -266.2
        1111       2.0617E+04   402.8      2.1326E+04  -687.4      -787.1      -291.1
        1112        7669.       206.1      -1112.      -37.80      -1794.      -305.1
        1113        91.64       176.9       6367.      -57.31      -3227.      -166.3
        1114       -1363.       12.98       8372.      -65.26      -1398.      -64.68
        1115       -762.2      -9.464       7276.      -23.74      -2277.       15.80
        1116        778.0       53.81       5751.      -80.25      -3752.      -123.6
        1117       1.4715E+04   377.1      1.8455E+04  -1337.      -1615.      -745.7
        1118        2423.       178.3       4016.      -112.2      -4314.       91.79
        1119       1.6435E+04   353.1      1.8792E+04  -1072.      -1358.      -490.0
        1120       -1034.      -84.88       7438.      -41.86      -1549.      -37.13
        1121       -790.3       67.57       7541.      -59.86      -2003.      -37.38
        1122       -1058.       206.9       8980.      -429.1      -1513.      -127.7
        1123       -161.6       106.0       6716.      -76.77      -2952.      -99.25
        1124       1.0544E+04   123.2       2232.      -219.8      -2185.      -1427.
        1125       1.3385E+04  -63.60      1.8273E+04  -1168.      -2147.      -261.6
        1126       1.7744E+04   185.7      1.2930E+04  -267.1      -1837.      -1385.
        1127        5420.       180.7       891.6      -101.9      -3675.      -60.73
        1128        5062.       140.6       1252.      -62.67      -3964.      -142.4
        1129        2845.       81.30       3593.      -36.09      -4381.      -23.23
        1130       -1006.       143.1       7937.      -108.9      -1227.      -86.60
        1131       -437.1       88.43       6743.      -6.137      -2531.      -36.16
        1132        4474.       461.0      1.2075E+04  -1728.      -2168.      -307.9
        1133        426.5       131.6       6068.      -83.94      -3479.      -116.8
        1134        2061.       195.9       4461.      -80.39      -4285.       57.11
        1135        9708.      -44.19      1.5093E+04  -1483.      -2044.      -492.3
        1136       1.5472E+04   400.3      1.0084E+04  -507.6      -1852.      -1660.
        1137       1.3385E+04   348.3       7206.      -368.2      -2112.      -1764.
        1138        6715.      -14.71      -115.1       1.677      -3124.      -16.19
        1139        6951.       244.2      -557.2      -212.5      -2314.      -187.7
        1140        8262.       321.1      -291.7      -64.91      -2074.      -741.2
        1141        7316.       114.6      -925.0      -83.48      -1425.      -84.35
        1142        6174.       39.68       148.4      -113.9      -3299.      -11.29
        1143        5754.       127.0       393.1      -56.22      -3551.      -38.28
        1144       1.2599E+04  -40.49       4705.      -509.5      -2437.      -1441.
        1145        3945.       250.2       2519.      -27.18      -4420.      -143.7
        1146       1.9170E+04   275.7      2.1281E+04  -608.3      -1522.      -587.0
        1147       1.9833E+04   350.5      2.0949E+04  -741.9      -852.3      -380.0
        1148       2.1662E+04   546.6      2.0720E+04  -700.0      -988.2      -691.7
        1149       2.2336E+04   388.1      2.1874E+04  -593.3      -637.7      -572.3
        1150        6841.       168.8      -282.6      -27.29      -2714.      -20.53
        1151        4814.       139.9       1710.      -29.29      -4255.      -82.35
        1152        1168.      -7.866       5422.      -142.8      -4041.      -19.52
        1153        2656.       281.5       4177.      -153.6      -4723.      -169.0
        1154        1341.       73.17       5657.      -112.6      -4607.       26.07
        1155       1.3155E+04   324.3      1.7206E+04  -1446.      -1875.      -536.6
        1156        3226.       446.8      1.1257E+04  -1316.      -2608.      -551.4
        1157        570.0       381.9       9868.      -1162.      -2215.      -248.3
        1158       -898.0       121.5       7444.      -209.5      -2120.       43.01
        1159       -335.2       180.6       7262.      -238.8      -3012.      -14.34
        1160        2056.       239.3       4508.      -143.7      -4670.      -195.7
        1161       -13.68       326.6       6991.      -259.4      -3430.       36.04
        1162        7749.       108.0      -797.3      -98.19      -2437.      -335.7
        1163        6976.       34.58       5.156      -133.0      -3433.      -79.97
        1164        9403.       301.9       1548.      -322.5      -2783.      -1188.
        1165       1.6254E+04   189.1      1.8875E+04  -1100.      -1609.      -661.0
        1166       2.2975E+04   738.2      2.3897E+04  -422.5      -887.4      -459.6
        1167       -1195.       184.6       7903.      -214.2      -1968.       35.23
        1168        607.4       9.461       6146.      -160.6      -4038.      -134.5
        1169        5574.       207.1       1450.      -271.9      -4471.      -207.7
        1170        3036.       240.0       3744.      -107.4      -4784.      -293.7
        1171        3495.       277.4       3151.      -31.70      -4839.      -266.3
        1172       1.6814E+04  -143.3      1.3382E+04  -606.6      -2151.      -1237.
        1173       2.2937E+04   302.1      2.2755E+04  -637.2      -1165.      -418.3
        1174        3848.       373.9       2710.      -94.07      -4705.      -243.1
        1175       2.1432E+04   366.9      2.0900E+04  -427.1      -1361.      -425.4
        1176       1.9353E+04   547.4      1.7394E+04  -838.5      -1673.      -1147.
        1177        8203.       381.3       6.718      -114.6      -2504.      -696.7
        1178        909.2       104.0       6008.      -35.72      -4342.      -125.5
        1179       1.9079E+04   23.51      1.6469E+04  -689.8      -1749.      -862.9
        1180        1702.       136.1       5116.      -220.6      -4611.      -144.2
        1181       1.7366E+04   233.0      1.9444E+04  -978.3      -1760.      -532.6
        1182       -575.4       361.5       8523.      -766.7      -1916.      -209.0
        1183       1.5545E+04   399.3      1.1064E+04  -370.5      -2276.      -1553.
        1184       1.0901E+04   133.1      1.6234E+04  -1223.      -2654.      -518.5
        1185       1.4676E+04   439.4       8833.      -173.4      -2721.      -1443.
        1186        4267.       507.4       2198.      -82.72      -4626.      -116.2
        1187       -706.9       62.59       7478.      -91.29      -2652.      -27.90
        1188        5418.       204.6      1.1948E+04  -1769.      -2381.      -620.0
        1189        301.7       257.4       6477.      -209.9      -3741.      -51.51
        1190        8632.      -59.58      1.4544E+04  -1426.      -2658.      -292.9
        1191       1.2604E+04   211.8       5814.      -582.0      -2613.      -1537.
        1192        7416.       165.4      -469.7      -73.49      -2908.      -137.6
        1193        6301.       116.2       379.3      -72.13      -3591.      -200.6
        1194        6064.       227.4       730.4      -56.61      -3978.      -152.6
        1195       1.1013E+04  -84.65       3181.      -410.3      -2811.      -1185.
        1196        5622.       267.0       1083.      -205.0      -4172.      -247.0
        1197       1.8985E+04   483.9      2.0383E+04  -948.0      -1325.      -760.2
        1198       2.0300E+04  -60.05      2.1032E+04  -832.1      -1228.      -696.9
        1199       2.0243E+04   378.0      1.9118E+04  -654.3      -1391.      -797.8
        1200        7123.       43.95      -180.3      -1.266      -3171.      -209.5
        1201        5000.       165.1       1727.      -175.8      -4588.      -151.3
        1202        2122.       274.9       5063.      -395.2      -4647.      -234.6
        1203       -30.63       151.0       8155.      -415.2      -3382.      -288.2
        1204       -134.1       541.1       8797.      -713.4      -2531.      -303.0
        1205        7576.       147.5      -472.7      -86.18      -3047.      -416.0
        1206        8620.       152.7       691.6      -367.2      -3207.      -823.4
        1207       1.5852E+04  -214.4      1.7944E+04  -1123.      -2215.      -476.2
        1208       1.5542E+04  -30.07      1.1806E+04  -679.8      -2887.      -1333.
        1209        3675.       295.8       3863.      -434.6      -4922.      -404.5
        1210       1.0766E+04   192.8       4178.      -671.2      -3024.      -1432.
        1211        6710.       238.3       777.8      -184.8      -3604.      -477.6
        1212       1.9774E+04   472.2      2.0438E+04  -438.8      -1465.      -1355.
        1213        2952.       152.0       4779.      -411.6      -5015.      -374.1
        1214       1.3316E+04   448.8      1.6000E+04  -1313.      -2194.      -773.9
        1215        1035.       429.1       9689.      -1047.      -2632.      -456.1
        1216        1110.       276.0       6671.      -357.3      -4206.      -286.4
        1217        697.9       302.2       6836.      -323.2      -3869.      -234.1
        1218        3649.       237.0      1.0783E+04  -1381.      -3353.      -592.6
        1219        3392.       191.3       4668.      -464.3      -5179.      -410.6
        1220        4421.       219.7       3549.      -404.5      -5123.      -397.7
        1221        4701.       374.4       3194.      -331.1      -4918.      -338.3
        1222       1.8822E+04   76.56      1.8205E+04  -689.4      -1693.      -1288.
        1223       1.8758E+04  -139.4      1.9808E+04  -874.9      -2118.      -645.9
        1224       1.8068E+04   463.1      1.6116E+04  -762.5      -1940.      -1376.
        1225       1.6268E+04   398.3      1.3994E+04  -696.1      -2320.      -1456.
        1226        1849.       226.1       5841.      -453.3      -4656.      -158.3
        1227       -662.6       413.3       7806.      -251.4      -2824.      -154.1
        1228       1.3673E+04   121.9       9033.      -479.3      -2946.      -1371.
        1229       1.1533E+04   570.7      1.5386E+04  -1427.      -2647.      -786.6
        1230        5662.       324.9       2097.      -311.5      -4636.      -439.0
        1231        5016.       363.7       2503.      -198.7      -4595.      -278.7
        1232        1870.       83.25       6926.      -381.7      -4827.      -175.5
        1233        440.0       377.8       7441.      -359.2      -3605.      -239.2
        1234        9425.      -35.38      1.4261E+04  -1417.      -3169.      -468.0
        1235        6789.      -2.403      1.2773E+04  -1538.      -3249.      -667.3
        1236        7744.       120.5       462.0      -142.0      -3807.      -268.8
        1237       1.2644E+04   203.1       6818.      -415.4      -3462.      -1439.
        1238        6354.       102.8       1239.      -327.2      -4048.      -513.1
        1239        9274.       249.9       1846.      -438.0      -3184.      -1079.
        1240        6332.       198.5       1915.      -527.1      -4634.      -563.7
        1241       1.9478E+04   370.2      1.9542E+04  -395.9      -1641.      -658.3
        1242       2.0862E+04   95.03      2.1402E+04  -275.8      -1671.      -520.2
        1243        7265.       154.7      -24.75      -169.9      -3326.      -334.2
        1244        362.2       349.4       8579.      -648.9      -3186.      -384.5
        1245        8902.       295.4       2576.      -531.7      -3483.      -1092.
        1246       1.4280E+04   666.5      1.6270E+04  -1085.      -2731.      -820.9
        1247        1184.       410.6       8183.      -742.3      -3828.      -340.1
        1248        3927.       71.10       5349.      -547.5      -5311.      -647.7
        1249        4694.       265.5       4163.      -599.9      -4959.      -553.6
        1250       1.7779E+04   131.4      1.8239E+04  -810.3      -1922.      -1205.
        1251       1.6761E+04   495.2      1.6108E+04  -1089.      -2010.      -1434.
        1252        7316.       359.8       1551.      -403.0      -3951.      -680.8
        1253       -894.0       267.2       8109.      -335.8      -2373.      -126.6
        1254        7513.      -64.78      1.2142E+04  -1471.      -3684.      -787.4
        1255        9576.       385.8      1.3283E+04  -1632.      -3138.      -671.2
        1256        7619.       308.8       753.8      -337.7      -3439.      -702.2
        1257       1.1448E+04   63.99       7006.      -596.8      -3376.      -1597.
        1258        4206.       376.5       5237.      -591.7      -5206.      -500.4
        1259        5237.       148.5       4048.      -692.3      -5180.      -589.6
        1260        3362.       187.5       5451.      -594.8      -4828.      -528.5
        1261        2758.       346.6       6417.      -731.8      -4695.      -447.2
        1262        1766.       232.3       9363.      -1056.      -3232.      -499.1
        1263        1690.       271.2       7776.      -814.2      -4068.      -422.6
        1264       1.3314E+04  -56.05       9987.      -574.4      -3196.      -1413.
        1265        6049.       298.8       3125.      -380.4      -4803.      -613.0
        1266       1.5897E+04  -386.6      1.6709E+04  -1093.      -2426.      -875.5
        1267       1.5632E+04   707.4      1.4792E+04  -929.2      -2476.      -1427.
        1268       1.4198E+04   221.4      1.1587E+04  -1015.      -2748.      -1443.
        1269       1.1846E+04   508.1      1.4709E+04  -1463.      -2998.      -1011.
        1270       1.0350E+04   56.94       4973.      -639.5      -3672.      -1334.
        1271        5448.       164.7       3429.      -485.0      -4743.      -592.3
        1272        2004.       279.8       7077.      -724.7      -4298.      -468.7
        1273        977.8       369.2       8287.      -634.7      -3491.      -456.4
        1274        2359.       224.7       6794.      -783.2      -4664.      -507.5
        1275        4528.       208.9       9907.      -1384.      -3574.      -744.1
        1276        7584.      -47.03       2298.      -576.0      -4569.      -716.0
        1277        6870.       205.9       2916.      -481.1      -4577.      -778.9
        1278       1.1406E+04  -382.8       7867.      -786.6      -4087.      -1397.
        1279        4415.      -85.51       7105.      -1126.      -4594.      -732.2
        1280       1.5010E+04   9.584      1.4406E+04  -1055.      -2773.      -1100.
        1281        2192.       476.8       8971.      -1237.      -3791.      -602.2
        1282        9582.       101.0       5040.      -705.6      -4146.      -1205.
        1283        6889.       495.3       4150.      -663.0      -4505.      -1101.
        1284       1.7235E+04  -263.2      1.8001E+04  -877.6      -2922.      -1099.
        1285       1.4185E+04   29.29      1.5101E+04  -1007.      -3050.      -762.2
        1286        5291.      -3.467       5571.      -862.8      -4971.      -777.8
        1287       1.0061E+04   111.2      1.2798E+04  -1454.      -3607.      -926.7
        1288       1.4160E+04   173.5      1.2475E+04  -1220.      -3176.      -1094.
        1289        2859.       554.8       8363.      -986.8      -3996.      -667.6
        1290        7379.      -116.8      1.1227E+04  -1364.      -3941.      -773.0
        1291        8530.       130.4       3662.      -651.7      -4774.      -702.9
        1292       1.3690E+04  -216.2      1.0822E+04  -671.0      -3895.      -1087.
        1293       1.2359E+04   406.1      1.4145E+04  -1104.      -3392.      -1061.
        1294        8611.       43.27       3382.      -654.3      -4166.      -1008.
        1295        5229.       189.9       9559.      -1316.      -4012.      -795.4
        1296        9549.       406.1       6303.      -852.8      -4666.      -1108.
        1297       1.0006E+04   236.0      1.1896E+04  -1104.      -3841.      -1148.
        1298        4866.       369.7       6162.      -920.3      -5008.      -746.9
        1299       1.2959E+04   329.8      1.2579E+04  -1239.      -3292.      -1108.
        1300       1.1322E+04   109.0       9983.      -1159.      -3596.      -1539.
        1301        6633.       349.2       5441.      -801.0      -4873.      -1126.
        1302        3492.       313.3       7872.      -986.0      -4496.      -651.6
        1303        6314.      -84.30       9759.      -1276.      -4407.      -672.7
        1304        8132.       33.68      1.0828E+04  -1015.      -4280.      -1046.
        1305       1.0440E+04  -15.59       8309.      -1012.      -4288.      -1349.
        1306       1.2131E+04   405.5      1.2767E+04  -1236.      -3442.      -1087.
        1307        8746.       313.1       7885.      -1107.      -4186.      -1553.
        1308       1.0128E+04   188.1      1.0562E+04  -1062.      -3932.      -1284.
        1309        6632.       5.179       8462.      -1251.      -4396.      -881.1
        1310        7053.       48.70       7670.      -1193.      -4665.      -1109.
        1311        8309.       845.9       6496.      -965.7      -4380.      -1323.
        1312        8142.       194.0       9386.      -1166.      -4061.      -948.1
        1313       1.8142E+04  -735.5      1.7487E+04  -487.2       36.62      -1123.
        1314       -4846.      -1193.       584.8      -298.4       62.14      -3865.
        1315        6643.       103.2      -764.1      -163.8      -187.4      -473.7
        1316        4033.       244.3      -220.5      -182.6      -50.30      -52.57
        1317       -837.2       735.9      -93.21      -182.3       51.46      -180.7
        1318        5222.       376.6      -449.0      -166.8      -111.3      -244.1
        1319       -4487.       2890.       4414.      -371.9       211.9      -3575.
        1320       -8681.       2158.       883.8      -36.03       56.40       69.49
        1321       -9884.       5960.       1443.       150.3      -74.52      -1663.
        1322       -9741.       7641.       659.1      -307.8       36.02      -2247.
        1323       -6426.       7459.      -10.83       100.5       86.15      -727.7
        1324       -4620.       7720.       24.15       56.97       87.85      -330.8
        1325        6303.      -58.99      -561.0      -205.8      -141.4      -79.61
        1326        1726.      -1707.       1832.      -523.5       45.04      -374.9
        1327      -1.5817E+04  -2718.     -1.5925E+04  -242.3      -424.7      -514.1
        1328      -1.4535E+04  -2423.     -1.3847E+04  -200.6       57.49      -630.6
        1329      -1.3751E+04  -2113.     -1.2825E+04  -274.0       239.3      -1118.
        1330       1.6498E+04  -655.1      1.5032E+04  -319.4      -16.03      -1585.
        1331      -1.1178E+04  -2179.      -9710.      -362.9       369.8      -1656.
        1332       1.6239E+04  -555.2      1.3082E+04  -452.9      -177.3      -1932.
        1333       -9936.      -2678.      -6617.      -468.1       158.8      -2102.
        1334       1.2567E+04  -536.8       7570.      -422.1      -101.2      -2582.
        1335       -3568.       1053.       2476.      -306.2       193.1      -4107.
        1336       -3530.       2369.       3734.      -282.9       148.4      -3597.
        1337        7790.       92.83      -191.7      -265.6      -205.9      -956.7
        1338       -5635.       3250.       4364.      -411.4       257.4      -3702.
        1339       -6589.       4079.       3791.      -403.5       252.9      -3769.
        1340       -7150.       4747.       2610.      -403.6       114.4      -3146.
        1341       -3614.       7331.      -43.54       46.79       121.0      -215.1
        1342       -1749.       7516.      -21.78       20.89       89.34       26.12
        1343       -988.3       7978.      -49.61       13.83       79.94       110.3
        1344       -174.8       7313.      -20.30       106.3       56.81       127.9
        1345        138.5       7317.      -3.650       37.96       48.20       115.4
        1346        415.4       7774.       40.28      -38.94       21.18       159.7
        1347        475.0       7478.       1.864      -7.199       10.89       83.60
        1348        606.5       7484.      -5.762       22.13       12.11       72.62
        1349        633.9       7453.      -18.90       18.89       23.02       61.34
        1350       -605.0       7525.      -18.97       32.59       80.42       109.3
        1351       -7672.       7381.      -139.3       41.74      -39.78      -1013.
        1352       -9110.       5292.       1673.       28.42       126.2      -1679.
        1353       -7412.       137.1       378.8      -214.8       55.43       454.3
        1354       -5891.       157.8       293.6      -56.22       121.7       485.3
        1355       -4229.       89.52      -187.8      -210.8      -20.03       351.3
        1356        8697.       72.61       320.9      -321.9      -210.7      -1495.
        1357        9039.       30.09       1728.      -319.1      -177.5      -2349.
        1358       1.0044E+04  -79.03       3605.      -325.3      -176.8      -2539.
        1359       1.1294E+04  -405.9       5452.      -372.4      -299.6      -2748.
        1360       -6829.      -2405.      -1761.      -254.8       137.8      -3139.
        1361       -7587.      -2327.      -3785.      -396.2      -3.970      -2640.
        1362       1.3820E+04  -598.6       9501.      -421.6      -25.44      -2508.
        1363       1.4734E+04  -601.7      1.1311E+04  -404.0       10.64      -2253.
        1364      -1.1024E+04  -2531.      -7943.      -365.0       241.4      -1944.
        1365      -1.1709E+04  -2771.      -9499.      -159.3       87.77      -1669.
        1366       1.5657E+04  -682.0      1.3717E+04  -261.7      -148.9      -1785.
        1367      -1.2674E+04  -2220.     -1.1570E+04  -477.5       218.3      -1272.
        1368       1.7622E+04  -658.6      1.6615E+04  -328.1       57.87      -1135.
        1369      -1.3896E+04  -2209.     -1.3487E+04  -209.0       250.4      -970.8
        1370       1.9020E+04  -840.7      1.8776E+04  -529.4      -19.61      -923.8
        1371       1.7947E+04  -786.1      1.7879E+04  -393.0       11.62      -673.3
        1372       1.2027E+04  -405.3      1.2183E+04  -462.4       201.2      -265.6
        1373        2552.       581.4      -206.1      -194.1      -64.41      -303.2
        1374        1737.       134.1       10.03      -117.2       4.490      -93.99
        1375       -5469.       7159.     -0.2767       121.0       122.1      -530.1
        1376       -8998.      -1914.      -8732.      -367.0       17.86      -34.01
        1377       -5006.      -1928.      -4798.      -404.6      -108.6      -573.9
        1378       -5915.      -1502.      -4394.      -405.2       74.54      -2169.
        1379       -3147.      -1887.      -1162.      -267.7       166.8      -3812.
        1380        8551.      -1288.       5632.      -380.7      -150.8      -3953.
        1381        5538.       855.9       557.4      -127.2      -115.6      -2132.
        1382       -4239.       3225.       2333.      -325.4       141.0      -2557.
        1383       -2478.       7572.       73.94       83.37       162.0      -45.48
        1384        679.0       7478.       5.282      -21.94       19.12       3.989
        1385       -8952.       7603.      -190.5       131.1      0.8540      -1517.
        1386       -5952.       2382.       683.7      -210.5       31.42      -441.3
        1387       -5264.       3732.       1899.      -258.3       40.03      -2094.
        1388        5829.       65.79       2223.      -269.0      -91.30      -3916.
        1389       -617.7       654.4       1520.      -281.5       32.59      -4747.
        1390       -4038.      -1807.      -2028.      -240.0       22.57      -3394.
        1391       -4021.      -1301.      -3104.      -160.8       126.3      -2704.
        1392       -6532.      -1616.      -5479.      -169.6       251.2      -1783.
        1393       -6150.      -2112.      -5016.      -137.5      -23.98      -1483.
        1394        9274.      -1281.       9058.      -214.5      -94.29      -1433.
        1395       2.0484E+04  -531.1      2.0336E+04  -244.3       186.8      -334.2
        1396       1.1766E+04  -1240.      1.0714E+04  -365.6      -135.0      -1443.
        1397       -7602.       6946.       2930.      -364.0       237.3      -3351.
        1398      -1.0526E+04   5805.       747.5       37.28      -398.7      -2069.
        1399       -5748.      -1979.      -5421.      -181.5      -18.27      -1146.
        1400       -2445.       2819.       2482.      -378.5       95.04      -3030.
        1401        5157.       763.8       77.00      -95.76      -83.56      -1354.
        1402       -3412.       3085.       2714.      -334.1       118.6      -2684.
        1403       -2772.       1645.       266.3      -220.5       43.97      -858.6
        1404       -7345.       3963.       1249.      -259.4       198.2      -821.9
        1405       -625.4       2344.       2086.      -336.6       78.42      -3941.
        1406        6208.       736.5       1378.      -326.5      -50.67      -3118.
        1407        7114.      -357.5       3547.      -190.2      -277.5      -4121.
        1408        7428.      -660.7       4427.      -193.2      -159.4      -4198.
        1409       -2431.      -1938.      -240.6      -188.0       228.1      -4160.
        1410       -267.0      -948.6       1355.      -269.6       46.14      -4793.
        1411        8949.      -1390.       6656.      -407.2      -46.08      -3674.
        1412        9162.      -1186.       7363.      -293.1      -209.8      -3240.
        1413       -5918.      -2066.      -3751.      -252.2       22.28      -2808.
        1414        9169.      -1150.       7566.      -200.3      -173.4      -2950.
        1415        9488.      -1521.       8435.      -439.1      -149.5      -2626.
        1416       1.0311E+04  -1545.       9306.      -356.0      -36.23      -2346.
        1417       1.1056E+04  -1766.       9989.      -449.4      -21.00      -1926.
        1418        8457.      -1321.       8264.      -447.7       103.4      -666.3
        1419       -4187.       1606.       521.3      -248.7       34.69      -644.7
        1420        2609.      -100.2       2019.      -226.0      -29.17      -4823.
        1421        2376.      -1830.       2513.      -440.8      -162.1      -2354.
        1422        1597.      -1676.       1677.      -513.9      -207.8      -1445.
        1423        286.2       2445.       1326.      -233.3       82.22      -2857.
        1424        3039.       1406.       1130.      -357.7      -63.99      -3209.
        1425        2212.      -1604.       2311.      -293.2      -168.9      -2846.
        1426        2136.      -1709.       1854.      -210.2       88.80      -1014.
        1427        931.0       1275.       103.0      -153.2      -17.25      -623.6
        1428       -926.1       2141.       1166.      -299.6       59.82      -2113.
        1429        2515.       1111.       1662.      -319.7       28.27      -4391.
        1430        2690.      -1291.       2729.      -498.1      -146.5      -1829.
        1431        3001.       1056.       21.36      -187.9      -50.48      -1012.
        1432       -2054.       2403.       1117.      -144.0       9.975      -1724.
        1433       -3794.       2645.       1154.      -241.3       25.57      -1522.
        1434        4142.      -627.6       2769.      -161.8      -96.67      -4885.
        1435        2379.       1457.       556.3      -322.1      -39.15      -2130.
        1436        527.1       1450.       286.1      -319.1      -19.30      -1394.
        1437        2329.      -1421.       2427.      -422.6      -137.4      -3224.
        1438       -1284.       1749.       185.7      -205.7      -73.38      -893.7
        1439        3704.      -1028.       3094.      -326.6      -107.8      -4727.
        1440       -153.5       1873.       724.5      -187.2      -49.80      -1416.
        1441        2869.      -1400.       2777.      -460.2      -99.81      -3417.
        1442        3050.      -1341.       2875.      -286.7      -46.60      -4401.
        1443        2562.      -1302.       2659.      -296.0      -137.5      -4139.
        1444       -7698.      -2643.      -4734.      -1333.       3363.      -2180.
        1445      -1.8457E+04  -2954.     -1.9477E+04  -642.5       170.7      -358.0
        1446      -1.9269E+04  -2927.     -2.0016E+04  -675.0       191.1      -415.0
        1447       -9974.      -2588.      -3286.      -428.0       2543.      -1776.
        1448      -1.9453E+04  -2931.     -1.9761E+04  -265.7       161.9      -360.5
        1449       -9734.      -2346.      -2279.      -282.3       1339.      -2170.
        1450      -2.1005E+04  -2993.     -2.1219E+04   32.65       110.2      -431.8
        1451       -5511.      -2275.      -6107.      -1435.       3944.      -1491.
        1452      -1.7074E+04  -3047.     -1.8924E+04  -734.4       251.4      -336.2
        1453      -1.5315E+04  -3002.     -1.7766E+04  -781.6       282.1      -322.5
        1454       -4550.      -2233.      -7116.      -1653.       3844.      -1580.
        1455      -1.4159E+04  -3121.     -1.7498E+04  -1004.       461.5      -260.6
        1456       -3268.      -2615.      -9078.      -1905.       2961.      -548.7
        1457      -1.1835E+04  -2946.     -1.5671E+04  -1138.       505.1      -236.6
        1458       -8924.      -3049.     -1.3784E+04  -1352.       552.9      -319.8
        1459       -2257.      -2257.      -9290.      -2390.       2050.      -633.8
        1460       -6616.      -3347.     -1.2444E+04  -1566.       489.4      -423.3
        1461       -4148.      -3027.     -1.1326E+04  -1825.       309.0      -426.7
        1462      -1.0467E+04  -2596.      -2512.      -290.4       786.2      -1991.
        1463       -9068.      -2429.      -2653.      -294.5       2011.      -2175.
        1464       -8978.      -2424.      -3460.      -729.2       2880.      -2017.
        1465       -7501.      -2463.      -3544.      -1019.       3022.      -2294.
        1466       -7088.      -2623.      -5185.      -1370.       3704.      -1699.
        1467       -6937.      -2766.      -6176.      -1184.       3983.      -1499.
        1468       -5320.      -2383.      -6768.      -1347.       4128.      -1583.
        1469       -3876.      -1688.      -7696.      -2012.       3728.      -1350.
        1470       -3795.      -2204.      -8178.      -1972.       3101.      -765.0
        1471       -3024.      -2528.      -9173.      -1946.       2567.      -557.0
        1472       -1859.      -2328.      -9259.      -2324.       1373.      -263.7
        1473      -1.9039E+04  -3229.     -1.7474E+04  -161.3       337.9      -922.3
        1474      -1.8250E+04  -3096.     -1.5861E+04  -315.5       338.0      -1020.
        1475      -1.6681E+04  -3308.     -1.3806E+04  -177.8       387.8      -930.8
        1476      -1.5515E+04  -3236.     -1.1971E+04  -224.1       486.7      -996.8
        1477      -1.3788E+04  -3216.      -9221.      -254.4       601.0      -1368.
        1478      -1.2619E+04  -3165.      -6749.      -376.6       307.0      -1609.
        1479       -8750.      -3281.      -8490.      -839.7       3403.      -1255.
        1480      -1.7271E+04  -2677.     -2.0685E+04  -436.7       769.6      -472.0
        1481      -1.3045E+04  -2762.     -1.7041E+04  -769.8       843.2      -568.6
        1482      -1.0905E+04  -2490.     -1.6800E+04  -951.1       1248.      -177.7
        1483       -5084.      -2803.     -1.2310E+04  -1409.       734.0      -254.3
        1484      -1.5803E+04  -2737.     -1.0980E+04  -350.7       879.8      -1028.
        1485      -1.8008E+04  -3048.     -1.4920E+04  -588.7       817.4      -700.4
        1486       -9685.      -2742.      -7249.      -821.3       3163.      -1253.
        1487      -1.4460E+04  -3028.     -1.7725E+04  -535.1       556.0      -634.2
        1488       -2064.      -2369.     -1.0452E+04  -2011.       825.3      -281.4
        1489      -2.0675E+04  -2697.     -2.1512E+04  -360.4       346.3      -169.3
        1490      -1.9610E+04  -3158.     -2.0485E+04  -614.2       439.1      -688.3
        1491      -2.0822E+04  -2884.     -2.0357E+04  -403.3       234.2      -542.8
        1492      -1.9387E+04  -2753.     -1.8422E+04  -150.9       293.9      -940.7
        1493      -1.1059E+04  -2989.      -6570.      -797.6       2637.      -1232.
        1494      -1.7145E+04  -2964.     -1.3429E+04  -432.8       794.2      -765.7
        1495      -1.9770E+04  -3021.     -1.9712E+04  -122.4       239.6      -442.5
        1496      -2.0981E+04  -3595.     -2.1294E+04  -394.2       380.0      -170.2
        1497      -1.2899E+04  -2913.      -7477.      -439.4       1091.      -1527.
        1498      -2.1031E+04  -3101.     -2.1210E+04  -323.4       33.12      -377.1
        1499       -9095.      -3040.      -7904.      -861.5       3314.      -1343.
        1500       -6897.      -2750.     -1.0559E+04  -1153.       2939.      -785.6
        1501       -7139.      -3135.      -8948.      -1259.       3322.      -1176.
        1502       -6860.      -2774.     -1.1200E+04  -1439.       2741.      -695.8
        1503       -7745.      -3080.     -1.3334E+04  -1509.       1086.      -265.4
        1504       -6037.      -2997.     -1.1813E+04  -1317.       2008.      -510.8
        1505      -1.1287E+04  -2991.      -4319.      -437.6       254.1      -1778.
        1506      -1.8498E+04  -3198.     -1.6203E+04  -664.5       436.7      -798.6
        1507      -1.0071E+04  -2696.      -6616.      -762.0       2853.      -1574.
        1508       -7735.      -3331.      -8201.      -1097.       3288.      -1356.
        1509       -6978.      -2794.     -1.0453E+04  -1313.       3188.      -826.8
        1510       -5540.      -3079.     -1.0766E+04  -1371.       2363.      -568.8
        1511       -4893.      -2892.     -1.0830E+04  -1806.       1447.      -356.1
        1512      -1.8061E+04  -2678.     -2.0228E+04  -627.9       266.8      -763.5
        1513      -1.1613E+04  -3295.      -6539.      -837.1       2317.      -1324.
        1514      -1.1006E+04  -3017.      -5694.      -763.1       1719.      -1531.
        1515      -1.1246E+04  -2981.      -5141.      -514.9       1367.      -1583.
        1516      -1.2080E+04  -2895.      -5061.      -481.3       913.5      -1545.
        1517      -1.2745E+04  -3129.     -1.5356E+04  -1109.       1030.      -420.1
        1518      -1.6736E+04  -2925.     -1.4058E+04  -496.5       1132.      -801.3
        1519       -8379.      -3272.     -1.1273E+04  -1190.       2687.      -523.4
        1520      -1.9609E+04  -2308.     -2.0164E+04  -354.2       487.6      -392.8
        1521      -2.1049E+04  -3306.     -2.0361E+04  -453.2       37.22      -363.7
        1522      -1.0532E+04  -3002.      -9919.      -905.7       2973.      -1045.
        1523      -1.5261E+04  -2970.     -1.7288E+04  -769.6       1298.      -399.0
        1524       -8451.      -3296.     -1.1745E+04  -1036.       2622.      -541.3
        1525      -1.0292E+04  -2627.     -1.2073E+04  -1063.       3032.      -672.8
        1526      -1.1753E+04  -3271.      -7895.      -513.5       2087.      -1252.
        1527       -8051.      -3278.     -1.3904E+04  -1382.       1432.      -497.3
        1528      -1.1813E+04  -3080.      -8495.      -397.3       2380.      -1091.
        1529      -1.2546E+04  -3046.      -7896.      -668.2       1789.      -1367.
        1530      -1.7372E+04  -3335.     -1.4474E+04  -410.8       935.5      -862.3
        1531      -1.1354E+04  -2839.      -9594.      -959.9       2741.      -1000.
        1532      -1.9080E+04  -3153.     -1.7766E+04  -566.8       499.1      -588.4
        1533      -2.0696E+04  -2516.     -1.9870E+04  -373.4       387.5      -348.9
        1534      -1.4933E+04  -3087.     -1.1201E+04  -328.6       1219.      -1168.
        1535      -1.2400E+04  -2259.      -9351.      -672.2       2664.      -961.5
        1536      -1.9573E+04  -3648.     -1.9648E+04  -392.1       199.1      -294.7
        1537      -1.0740E+04  -3075.     -1.4114E+04  -1428.       1004.      -506.0
        1538       -9945.      -2974.     -1.0890E+04  -921.8       2739.      -985.4
        1539       -7208.      -3392.     -1.2278E+04  -1294.       1659.      -526.1
        1540      -1.9171E+04  -2963.     -2.0211E+04  -733.4       570.2      -568.9
        1541      -1.0088E+04  -3195.     -1.0105E+04  -1028.       2813.      -937.5
        1542       -8490.      -2959.     -1.2331E+04  -1217.       2013.      -666.2
        1543      -1.7032E+04  -3441.     -1.8958E+04  -865.1       720.2      -391.5
        1544      -1.4074E+04  -2807.      -9394.      -450.4       1448.      -1273.
        1545      -1.0170E+04  -3841.     -1.2819E+04  -974.0       1962.      -392.2
        1546      -1.9829E+04  -2804.     -1.9055E+04  -463.9       726.9      -356.6
        1547      -1.3796E+04  -3251.     -1.0618E+04  -262.4       1572.      -1210.
        1548      -1.3636E+04  -2474.     -1.1659E+04  -712.9       1989.      -993.2
        1549      -1.8476E+04  -2695.     -1.8738E+04  -467.5       755.1      -751.5
        1550      -1.1360E+04  -2727.     -1.3344E+04  -1138.       2315.      -754.1
        1551      -1.1601E+04  -2794.     -1.4944E+04  -1159.       1469.      -745.1
        1552      -1.2724E+04  -2430.     -1.4352E+04  -594.4       2789.      -633.7
        1553      -1.6204E+04  -3662.     -1.7043E+04  -479.4       914.5      -565.2
        1554      -1.2659E+04  -2977.      -7593.      -684.4       1713.      -1494.
        1555      -1.3635E+04  -3263.     -1.1342E+04  -199.7       1926.      -1012.
        1556      -1.2535E+04  -2970.     -1.1440E+04  -1007.       2166.      -755.0
        1557      -1.4908E+04  -2298.     -1.6724E+04  -716.8       1554.      -581.6
        1558      -1.5317E+04  -3179.     -1.3610E+04  -433.1       1192.      -1058.
        1559      -1.9263E+04  -2754.     -1.7681E+04  -543.1       673.4      -604.2
        1560      -1.8629E+04  -2778.     -1.8203E+04  -347.9       330.1      -319.8
        1561      -1.3615E+04  -3479.     -1.0990E+04  -459.4       1406.      -1599.
        1562      -1.3358E+04  -2825.     -1.0730E+04  -200.7       2281.      -719.7
        1563       -9306.      -3186.     -1.3935E+04  -1487.       1297.      -371.3
        1564       -9552.      -3267.     -1.3356E+04  -1154.       1444.      -494.7
        1565      -1.2222E+04  -3077.     -1.2836E+04  -878.9       2385.      -794.6
        1566      -1.2035E+04  -3396.     -1.1810E+04  -1020.       2470.      -653.2
        1567      -1.0933E+04  -3444.     -1.4145E+04  -917.7       2195.      -420.5
        1568      -1.4625E+04  -3051.     -1.6228E+04  -794.9       1212.      -767.2
        1569      -1.8308E+04  -3500.     -1.7966E+04  -481.2       576.6      -448.1
        1570      -1.3829E+04  -3583.     -1.1635E+04  -547.6       1703.      -1371.
        1571      -1.5936E+04  -3608.     -1.6716E+04  -307.9       1236.      -785.1
        1572      -1.1650E+04  -3072.     -1.3527E+04  -1128.       1586.      -639.9
        1573      -1.6598E+04  -3851.     -1.6503E+04  -468.4       1082.      -761.4
        1574      -1.3762E+04  -3006.     -1.5364E+04  -838.6       1721.      -738.1
        1575      -1.3288E+04  -3017.     -1.3066E+04  -966.2       2035.      -900.3
        1576      -1.3251E+04  -3192.     -1.2160E+04  -834.9       1729.      -1165.
        1577      -1.5753E+04  -3341.     -1.4528E+04  -670.7       1221.      -624.1
        1578      -1.7385E+04  -3366.     -1.6806E+04  -704.5       979.8      -565.1
        1579      -1.2882E+04  -2723.     -1.4111E+04  -876.7       2250.      -857.9
        1580      -1.4583E+04  -3404.     -1.3555E+04  -542.9       1602.      -1094.
        1581      -1.5006E+04  -3355.     -1.5336E+04  -675.4       1266.      -1017.
        1582      -1.4602E+04  -3260.     -1.4832E+04  -813.5       1656.      -1174.
        1583      -1.4442E+04  -3114.     -1.5126E+04  -848.7       1753.      -913.7
        1584      -1.6895E+04  -3493.     -1.6777E+04  -651.9       1441.      -870.3
        1585        5182.       1802.      -5737.      -3656.       1447.      -448.5
        1586        5304.       1884.      -5578.      -3640.       663.9      -342.6
        1587        5109.       2178.      -4946.      -3689.       2221.      -807.2
        1588        3995.       1884.      -4882.      -3459.       3521.      -1214.
        1589        4429.       1917.      -4903.      -3592.       2899.      -1104.
        1590        3182.       1609.      -3706.      -3347.       3630.      -1375.
        1591        2105.       1713.      -3508.      -3092.       4658.      -1683.
        1592        2542.       1764.      -3316.      -3267.       4104.      -1655.
        1593        1150.       1685.      -2161.      -3240.       5081.      -2086.
        1594        1779.       1733.      -2622.      -3195.       4736.      -1924.
        1595        340.3       1914.      -1121.      -2891.       4848.      -2323.
        1596       -919.4       1992.       193.2      -2584.       4990.      -2639.
        1597       -389.5       1759.      -652.9      -2777.       5044.      -2587.
        1598       -1722.       2204.       924.0      -2338.       5121.      -2959.
        1599       -2603.       1761.       1466.      -2025.       4295.      -3055.
        1600       -2473.       2558.       1288.      -2321.       5519.      -3028.
        1601       -2956.       1783.       2203.      -1730.       3983.      -3061.
        1602       -4482.       2240.       3580.      -1050.       3215.      -3488.
        1603       -3383.       2334.       3017.      -1310.       3583.      -3309.
        1604       -4885.       2021.       3958.      -1064.       2862.      -3419.
        1605       -4969.       2064.       4519.      -538.9       1797.      -3669.
        1606       -5118.       2601.       4591.      -950.2       2588.      -3765.
        1607       -5629.       1785.       5168.      -365.2       1101.      -3450.
        1608       -7144.       6074.       5807.      -613.4       1919.      -5610.
        1609       -6368.       3558.       6235.      -589.8       2032.      -4481.
        1610       -215.3       3455.       269.1      -3139.       6502.      -3496.
        1611        412.2       3461.      -311.3      -3435.       6435.      -3070.
        1612        6044.       4791.      -7767.      -4668.       768.0      -357.2
        1613        5648.       5990.      -7622.      -5244.       1037.      -496.8
        1614        5910.       3701.      -7471.      -4808.       1058.      -324.0
        1615        5311.       4572.      -7894.      -4757.       1619.      -450.3
        1616        6753.       3556.      -6286.      -4425.       1200.      -534.3
        1617        5284.       3712.      -6677.      -4520.       2464.      -904.1
        1618        6059.       3432.      -6888.      -4662.       1619.      -591.6
        1619        6384.       7368.      -7116.      -6082.       2124.      -807.5
        1620        4745.       4381.      -6878.      -4725.       3033.      -1150.
        1621        5549.       3521.      -5398.      -4441.       2773.      -1054.
        1622        4507.       4260.      -6358.      -4579.       3649.      -1510.
        1623        5101.       3375.      -5420.      -4337.       3563.      -1467.
        1624        4822.       3757.      -6092.      -4427.       3122.      -1225.
        1625        5004.       6203.      -6336.      -5215.       3654.      -1470.
        1626        3934.       5472.      -6089.      -4743.       4205.      -1666.
        1627        4638.       3407.      -5314.      -4271.       4061.      -1615.
        1628        4201.       4357.      -5633.      -4521.       4395.      -1942.
        1629        5359.       3341.      -4668.      -4588.       4373.      -1851.
        1630        3072.       6441.      -5124.      -4776.       5127.      -2368.
        1631        3523.       3882.      -4750.      -4210.       4976.      -1794.
        1632        4304.       3271.      -5083.      -4185.       4799.      -1712.
        1633        3065.       4881.      -5520.      -4269.       4591.      -1986.
        1634        2910.       4470.      -4665.      -4477.       5437.      -2124.
        1635        3699.       3151.      -3438.      -3994.       5021.      -2006.
        1636        2174.       4171.      -3672.      -4041.       5646.      -2496.
        1637        2854.       3474.      -2858.      -4416.       5849.      -2446.
        1638        2989.       3596.      -3841.      -4071.       5765.      -2151.
        1639        2205.       5432.      -4070.      -4416.       5537.      -2563.
        1640        1550.       4739.      -3513.      -3837.       5874.      -2725.
        1641        1759.       3637.      -2751.      -3785.       5580.      -2439.
        1642       -30.31       4515.      -1609.      -3461.       7006.      -3389.
        1643        35.74       3376.      -1282.      -3534.       6453.      -3095.
        1644        1147.       3455.      -1337.      -3554.       5886.      -2610.
        1645        493.8       3971.      -2450.      -3520.       6360.      -2906.
        1646        814.9       5585.      -2196.      -4284.       6911.      -3627.
        1647       -193.5       6117.      -1331.      -4012.       6733.      -3666.
        1648       -356.3       3664.      -1315.      -3305.       6779.      -3232.
        1649       -591.3       7248.       70.01      -4325.       6815.      -4250.
        1650       -1136.       3897.      -160.3      -3212.       6575.      -3279.
        1651       -461.2       3397.      -343.5      -3168.       6527.      -3243.
        1652       -1090.       4548.      -847.1      -3275.       6588.      -3248.
        1653       -2178.       5104.      -176.7      -3097.       6258.      -3553.
        1654       -1280.       3414.       494.6      -3080.       6293.      -3390.
        1655       -1987.       4175.       588.0      -3059.       6111.      -3675.
        1656       -919.3       3598.       1308.      -3177.       6175.      -3788.
        1657       -3249.       5398.       1549.      -2743.       5964.      -4138.
        1658       -1935.       3518.       1188.      -2793.       5968.      -3669.
        1659       -2729.       5759.       385.1      -2990.       6129.      -4104.
        1660       -3971.       4233.       2022.      -2526.       5940.      -3930.
        1661       -2949.       3415.       2415.      -2656.       5793.      -3652.
        1662       -4383.       4675.       2596.      -2439.       5641.      -4455.
        1663       -3383.       3379.       3232.      -2140.       5011.      -3878.
        1664       -3695.       3847.       3217.      -2271.       5504.      -4137.
        1665       -4007.       5956.       2698.      -3053.       5869.      -4926.
        1666       -4984.       5611.       3099.      -2330.       4986.      -4566.
        1667       -4657.       3809.       3028.      -1978.       5004.      -4107.
        1668       -4926.       3530.       4001.      -1766.       4492.      -4168.
        1669       -5822.       5292.       4465.      -1820.       4068.      -4763.
        1670       -5487.       3449.       4442.      -1474.       4049.      -4205.
        1671       -4592.       3217.       4796.      -1571.       4304.      -4202.
        1672       -5312.       4185.       3855.      -1923.       4488.      -4465.
        1673       -6188.       3802.       4572.      -1340.       3701.      -4336.
        1674       -5221.       3552.       5195.      -1211.       3541.      -4377.
        1675       -6732.       4004.       4658.      -1046.       2850.      -4425.
        1676       -5411.       3393.       5460.      -1157.       2884.      -4526.
        1677       -6109.       3436.       5065.      -1009.       3130.      -4480.
        1678       -6470.       6220.       5300.      -1513.       3350.      -5433.
        1679       -7077.       4814.       5142.      -1015.       2321.      -4697.
        1680       -6220.       3698.       5568.      -895.5       2364.      -4685.
        1681       -6817.       4043.       5247.      -723.5       2033.      -4617.
        1682       -7849.       5487.       5406.      -322.7       1013.      -5275.
        1683       -7629.       3928.       5910.      -469.1       1216.      -4692.
        1684       -6155.       3294.       6005.      -380.5       725.5      -4146.
        1685       -7013.       3611.       5927.      -625.2       1516.      -4657.
        1686       -7601.       4222.       4853.      -631.9       1633.      -4586.
        1687       -7565.       4435.       5650.      -230.0       565.7      -4611.
        1688        6123.       3417.      -6589.      -4492.       520.6      -376.6
        1689       -1916.       3227.       2119.      -2584.       5952.      -3437.
        1690       -2799.       4667.       777.4      -2862.       6086.      -3806.
        1691       -4183.       3373.       4208.      -1780.       4699.      -4069.
        1692       -7118.       3502.       5916.      -257.8       380.1      -4659.
        1693        4628.       3290.      -4437.      -4320.       4790.      -1943.
        1694        6264.       3472.      -6275.      -4420.       2175.      -741.8
        1695        1117.       5703.      -3030.      -4035.       6024.      -2947.
        1696        5697.       4048.      -7292.      -4747.       1819.      -521.8
        1697       -2815.       4020.       1542.      -2771.       6011.      -3705.
        1698        5214.       4510.      -7090.      -4838.       2414.      -775.2
        1699       -6351.      1.6808E+04   2755.      -547.7       1236.      -4203.
        1700        3195.      1.3678E+04  -6814.      -4012.       1459.      -862.5
        1701        4906.      1.2012E+04  -6307.      -5871.       1953.      -1074.
        1702        4598.      1.2701E+04  -6645.      -5601.       631.5      -384.3
        1703        3328.      1.6831E+04  -6184.      -3979.       829.9      -290.2
        1704        3225.      1.5744E+04  -6615.      -4178.       1790.      -987.7
        1705        4998.      1.4282E+04  -5711.      -5852.       2158.      -1122.
        1706        2992.      1.7136E+04  -5904.      -3682.       3149.      -1545.
        1707        4097.      1.5058E+04  -5914.      -5914.       2762.      -1967.
        1708        6079.      1.1352E+04  -5851.      -6880.       2677.      -1991.
        1709        3434.      1.6372E+04  -6291.      -4628.       2555.      -1348.
        1710        2614.      1.7333E+04  -5784.      -4570.       2865.      -1415.
        1711        3582.      1.3462E+04  -5465.      -5312.       3855.      -1973.
        1712        2241.      1.6557E+04  -5750.      -4200.       3645.      -1617.
        1713        2347.      1.2398E+04  -5573.      -3877.       3982.      -1698.
        1714       -16.43      1.6830E+04  -4644.      -4370.       4024.      -2014.
        1715        2235.      1.3806E+04  -5025.      -4408.       4335.      -1737.
        1716        3569.      1.2847E+04  -4045.      -4748.       4734.      -2736.
        1717        893.8      1.5847E+04  -4751.      -4840.       4247.      -2077.
        1718        600.0      1.6265E+04  -4003.      -3763.       4388.      -2370.
        1719        2522.      1.2561E+04  -3696.      -4294.       5180.      -2509.
        1720        407.5      1.7690E+04  -2999.      -3852.       4503.      -2790.
        1721        1524.      1.3639E+04  -2222.      -5340.       5580.      -3461.
        1722        1794.      1.2893E+04  -3324.      -4895.       5347.      -2861.
        1723        184.3      1.7235E+04  -3337.      -3792.       4511.      -2681.
        1724       -751.5      1.6759E+04  -3317.      -3500.       4435.      -2393.
        1725        676.4      1.3755E+04  -1768.      -4441.       5599.      -3614.
        1726       -1396.      1.3964E+04  -2775.      -2850.       5124.      -2806.
        1727       -253.3      1.2126E+04  -1572.      -3885.       5682.      -3276.
        1728       -2714.      1.5247E+04  -1154.      -2572.       4789.      -2558.
        1729       -1631.      1.3602E+04  -338.8      -3343.       5530.      -3898.
        1730       -1050.      1.1765E+04  -1134.      -3932.       5687.      -3920.
        1731       -2404.      1.6567E+04  -2179.      -3069.       4735.      -2930.
        1732       -2849.      1.7808E+04  -1493.      -2448.       4367.      -3662.
        1733       -2320.      1.3390E+04   145.9      -3350.       5603.      -3790.
        1734       -4298.      1.6025E+04   392.5      -2193.       4231.      -3515.
        1735       -3631.      1.2407E+04   1262.      -2507.       4842.      -4047.
        1736       -3147.      1.1817E+04   1135.      -3108.       5321.      -4201.
        1737       -2845.      1.6129E+04   367.2      -2632.       5287.      -3175.
        1738       -4316.      1.6089E+04   370.4      -2338.       4083.      -3735.
        1739       -3723.      1.2694E+04   2002.      -2550.       4783.      -4442.
        1740       -5690.      1.5011E+04   2185.      -1358.       3447.      -3990.
        1741       -4747.      1.2501E+04   2927.      -1864.       4278.      -4395.
        1742       -3880.      1.2542E+04   3295.      -2127.       4684.      -5134.
        1743       -4677.      1.4331E+04   1681.      -1971.       4169.      -3788.
        1744       -5727.      1.4844E+04   2126.      -1610.       3272.      -4507.
        1745       -5754.      1.1997E+04   4309.      -2230.       3597.      -5898.
        1746       -6067.      1.5625E+04   2103.      -1160.       2794.      -4055.
        1747       -5435.      1.4073E+04   3848.      -1644.       2912.      -5684.
        1748       -6399.      1.8036E+04   2453.      -940.9       1208.      -4810.
        1749       -5353.      1.3778E+04   6152.      -1088.       2354.      -6366.
        1750       -5474.      1.4243E+04   4767.      -923.4       2754.      -5877.
        1751       -6233.      1.7365E+04   2156.      -1026.       2196.      -4780.
        1752       -6123.      1.2740E+04   5771.      -780.2       1735.      -6706.
        1753       -6949.      1.1198E+04   5190.      -553.5       1104.      -6017.
        1754       -6071.      1.8004E+04   3266.      -622.7       920.2      -3979.
        1755        4509.      1.3878E+04  -6338.      -4559.       493.0      -141.7
        1756        5367.      1.5500E+04  -5299.      -5808.       2694.      -1991.
        1757       -6927.      1.5433E+04   3098.      -79.81       497.8      -4510.
        1758       -6640.      1.4607E+04   4032.      -551.2       1092.      -5534.
        1759       -5768.      1.6740E+04   4226.      -1073.       1853.      -5497.
        1760       -6697.      1.2311E+04   4736.      -697.8       209.7      -6001.
        1761        4279.      1.2119E+04  -6280.      -6032.       3391.      -1651.
        1762       -5647.      1.6800E+04   4910.      -924.4       1380.      -5915.
        1763        542.9       7051.       11.33       3.578      -63.14       51.62
        1764        539.4       7041.       49.31      -5.612      -173.9       6.254
        1765       -7465.      1.3159E+04  -105.4      -628.3       1926.      -2226.
        1766        511.8       7152.       119.5      -3.078      -247.6       36.01
        1767       -6751.      1.3803E+04  -243.6      -799.7       2562.      -2405.
        1768        457.2       7337.       249.0       14.75      -337.5       36.80
        1769        343.8       7363.       330.0       34.35      -342.9       28.34
        1770       -3634.      1.4021E+04  -3362.      -1898.       4146.      -1435.
        1771        231.5       7550.       341.3       56.20      -266.3      -8.064
        1772       -3087.      1.3934E+04  -4033.      -1804.       4197.      -1546.
        1773        16.56       7882.       69.39       88.15      -45.81      -121.9
        1774       -73.39       7983.      -250.0       67.58       128.3      -112.1
        1775       -534.9      1.4322E+04  -7419.      -2193.       2592.      -921.7
        1776        5.084       6800.       412.0      -9.903       44.65       208.7
        1777        220.9      1.4243E+04  -7859.      -2336.       1703.      -903.6
        1778       -28.44      1.0316E+04  -7014.      -1315.       496.9      -686.7
        1779        139.7      1.2524E+04  -7555.      -1716.       503.6      -493.7
        1780        165.5       8417.      -6787.      -477.2       606.9      -1867.
        1781        68.11      1.0526E+04  -7348.      -1315.       946.5      -1196.
        1782        298.4      1.3548E+04  -7414.      -1976.       864.0      -855.1
        1783       -15.77       9435.      -7751.      -1096.       1384.      -1354.
        1784       -100.7      1.0864E+04  -7988.      -1489.       1310.      -1147.
        1785        331.1      1.3953E+04  -7576.      -2232.       1317.      -1010.
        1786       -269.3       9012.      -7795.      -550.5       1239.      -1092.
        1787       -187.0      1.0317E+04  -7721.      -1382.       1852.      -927.4
        1788       -257.9      1.1359E+04  -8064.      -1628.       1804.      -914.2
        1789       -464.1       7872.      -6494.      -415.4       1468.       317.6
        1790       -550.1       8691.      -7151.      -852.2       1789.      -351.8
        1791       -444.4      1.0044E+04  -7520.      -1234.       2065.      -688.6
        1792       -398.8      1.1723E+04  -7782.      -1676.       2229.      -825.4
        1793       -197.5      1.4434E+04  -7724.      -2331.       2201.      -967.3
        1794       -47.93       7982.      -167.4       97.39       88.31      -179.4
        1795       -46.77       7914.      -185.1       168.9       68.77      -314.1
        1796       0.6561       7818.      -160.6       263.0       55.55      -511.6
        1797        8.680       7653.      -147.7       310.9      -13.50      -774.9
        1798        86.39       7351.      -7.916       260.6      -57.65      -1170.
        1799       -75.19       6424.       368.9       168.8      -136.6      -1037.
        1800       -120.9       5892.       379.9       130.7      -129.3      -414.9
        1801       -205.4       5533.      -250.9       44.98       110.9       279.5
        1802       -217.7       5781.      -1334.      -9.078       406.0       930.5
        1803       -396.7       6047.      -3031.      -168.5       675.2       1233.
        1804       -326.0       7300.      -4616.      -233.1       1108.       899.8
        1805       -667.8       7732.      -5523.      -631.9       1730.       240.3
        1806       -716.2       8419.      -6398.      -889.4       2048.      -120.3
        1807       -718.3       9850.      -7044.      -1213.       2349.      -445.3
        1808       -644.3      1.1728E+04  -7451.      -1669.       2509.      -718.4
        1809        98.59       8262.      -633.8      -143.7      -86.18      -989.5
        1810        88.44       8095.      -439.8       84.90       121.1      -381.3
        1811       -19.54       8010.      -285.9       124.8       132.5      -236.9
        1812        49.90       8190.      -697.4      -25.40       148.0       1.954
        1813       -49.70       7818.      -302.4       36.60       160.7       76.98
        1814       -58.67       7797.      -245.1       36.78       146.8      -6.379
        1815        8.697       7448.       42.27      -106.1       101.6       400.9
        1816       -50.80       7461.       49.96       14.66       137.0       139.2
        1817        156.8       6990.       518.7      -302.6      -10.70       621.0
        1818        217.2       6275.       1231.      -292.7       12.26       556.9
        1819        60.42       6198.       1054.      -61.23       36.47       235.6
        1820       -28.58       7852.      -102.4       103.2       29.69      -149.0
        1821       -4.245       7779.      -69.67       213.7       24.11      -302.9
        1822        4.345       7685.      -17.66       273.8       2.146      -442.5
        1823        13.29       7454.       45.89       338.6      -35.03      -572.9
        1824        40.66       7110.       135.5       341.2      -56.47      -645.0
        1825        42.54       6659.       199.7       271.7      -57.09      -579.3
        1826       -48.00       6174.      -65.84       170.2      -16.39      -261.0
        1827       -146.8       5947.      -571.5       52.43       165.8       103.8
        1828       -261.8       5894.      -1411.      -93.87       491.0       463.7
        1829       -372.8       6182.      -2620.      -214.1       874.9       584.2
        1830       -512.2       6527.      -3834.      -394.1       1319.       491.8
        1831       -725.5       7347.      -4900.      -645.6       1780.       262.0
        1832       -869.7       8233.      -5907.      -869.3       2218.      -55.47
        1833       -906.7       9752.      -6599.      -1234.       2560.      -342.9
        1834       -806.1      1.1785E+04  -7022.      -1708.       2744.      -617.6
        1835       -586.6      1.4033E+04  -7294.      -2361.       2825.      -1038.
        1836        177.5       7598.       304.2       75.29      -226.9      -29.09
        1837        146.6       7524.       280.8       114.1      -210.0      -73.75
        1838        113.8       7372.       237.6       167.1      -180.6      -111.6
        1839        77.67       7159.       177.9       193.9      -135.4      -117.4
        1840        22.35       6904.       58.39       202.4      -52.88      -104.7
        1841       -74.46       6639.      -133.7       189.9       79.83      -65.13
        1842       -206.6       6379.      -414.6       152.5       272.7      -15.71
        1843       -376.5       6162.      -833.9       90.32       533.9       37.25
        1844       -612.9       6046.      -1331.      -9.551       883.3       91.81
        1845       -864.7       6075.      -2015.      -140.1       1295.       89.06
        1846       -1195.       6342.      -2728.      -296.5       1784.       55.50
        1847       -1490.       6914.      -3533.      -519.7       2288.      -43.73
        1848       -1846.       7948.      -4298.      -758.8       2814.      -231.1
        1849       -2106.       9345.      -4919.      -1047.       3276.      -463.5
        1850       -2191.      1.1426E+04  -5330.      -1434.       3611.      -781.9
        1851       -1995.      1.4222E+04  -5375.      -1910.       3773.      -1234.
        1852       -1574.      1.4621E+04  -5572.      -2137.       3623.      -1271.
        1853       -1826.      1.1642E+04  -5697.      -1546.       3454.      -751.8
        1854       -1751.       9468.      -5269.      -1116.       3116.      -405.9
        1855       -1577.       8022.      -4557.      -804.2       2693.      -166.4
        1856       -1305.       6959.      -3766.      -527.0       2205.      -15.60
        1857       -973.4       6383.      -2929.      -325.6       1674.       86.48
        1858       -737.5       6099.      -2070.      -144.7       1217.       133.0
        1859       -482.2       6032.      -1389.      -3.622       797.3       96.69
        1860       -291.0       6180.      -809.9       101.0       467.1       32.30
        1861       -153.8       6376.      -383.6       174.6       224.7      -59.40
        1862       -38.23       6661.      -100.3       218.4       46.05      -131.3
        1863        18.76       6946.       77.15       234.6      -57.27      -180.3
        1864        59.18       7205.       162.8       224.3      -116.9      -198.9
        1865        82.12       7430.       207.6       189.9      -142.2      -180.7
        1866        94.62       7598.       237.8       130.6      -159.3      -122.0
        1867        121.0       7784.       265.2       70.51      -186.2      -51.58
        1868        310.5       7432.       343.5       39.41      -330.9       7.004
        1869        275.5       7349.       311.8       75.78      -295.6       17.43
        1870        208.2       7220.       263.0       95.78      -242.2       17.64
        1871        124.5       6994.       170.1       117.5      -162.2       31.57
        1872       -15.11       6753.       18.95       126.9      -39.23       44.64
        1873       -170.7       6525.      -157.7       142.4       139.7       66.18
        1874       -375.0       6270.      -454.7       134.3       353.5       103.8
        1875       -659.2       6101.      -717.1       80.00       685.6       120.4
        1876       -934.3       6135.      -1119.       16.19       1048.       71.60
        1877       -1448.       6002.      -1670.      -120.2       1476.       12.42
        1878       -1816.       6261.      -2294.      -215.7       1973.      -15.40
        1879       -2275.       6876.      -2735.      -407.3       2534.      -179.9
        1880       -2775.       7721.      -3336.      -666.2       3041.      -387.9
        1881       -3136.       9153.      -3847.      -950.1       3555.      -626.2
        1882       -3276.      1.1211E+04  -4154.      -1307.       3919.      -958.4
        1883       -2667.      1.4100E+04  -4611.      -1915.       4021.      -1267.
        1884       -2945.      1.1231E+04  -4619.      -1347.       3860.      -843.6
        1885       -2796.       9184.      -4214.      -984.2       3498.      -536.4
        1886       -2468.       7760.      -3675.      -676.1       3015.      -299.4
        1887       -1999.       6845.      -3061.      -444.2       2479.      -103.9
        1888       -1611.       6275.      -2381.      -244.1       1966.      -17.18
        1889       -1208.       6007.      -1797.      -131.9       1446.       32.48
        1890       -846.2       6049.      -1195.      -5.152       1009.       84.11
        1891       -561.8       6082.      -801.4       75.02       642.8       78.75
        1892       -295.1       6333.      -430.9       113.5       348.2       59.64
        1893       -119.0       6556.      -154.2       143.2       120.8       49.01
        1894        3.173       6818.       24.21       148.2      -45.98       19.58
        1895        111.5       7056.       179.2       136.1      -152.7      -6.838
        1896        173.8       7254.       264.8       114.5      -229.9      -9.687
        1897        226.5       7400.       315.7       79.01      -276.5      -8.229
        1898        280.5       7493.       345.5       46.04      -301.1     -0.5322
        1899        416.9       7316.       266.0       22.94      -334.8       41.54
        1900        367.3       7197.       236.6       26.79      -303.0       56.28
        1901        300.4       7076.       186.5       41.25      -242.3       86.36
        1902        176.7       6895.       107.9       51.41      -150.9       108.2
        1903       -5.443       6674.      -1.015       64.27      -21.70       124.3
        1904       -231.8       6449.      -158.0       70.54       164.4       132.0
        1905       -538.1       6216.      -322.4       44.99       392.7       120.5
        1906       -911.1       6039.      -584.2       2.015       687.3       89.29
        1907       -1376.       5876.      -838.8      -34.07       1049.       58.07
        1908       -1895.       5928.      -1175.      -100.1       1466.      -34.76
        1909       -2465.       6247.      -1577.      -217.0       1948.      -155.3
        1910       -3077.       6765.      -1928.      -356.0       2453.      -336.5
        1911       -3655.       7764.      -2277.      -551.3       2958.      -602.8
        1912       -4137.       9207.      -2560.      -800.1       3414.      -953.0
        1913       -4374.      1.1436E+04  -2847.      -1099.       3821.      -1390.
        1914       -3897.      1.3836E+04  -2765.      -1729.       4403.      -2128.
        1915       -3906.      1.1450E+04  -3443.      -1322.       3916.      -1053.
        1916       -3827.       9139.      -3172.      -893.0       3536.      -788.5
        1917       -3320.       7789.      -2625.      -608.7       3052.      -563.4
        1918       -2839.       6779.      -2194.      -405.2       2492.      -341.1
        1919       -2193.       6293.      -1755.      -259.2       1962.      -154.4
        1920       -1648.       6051.      -1311.      -48.66       1505.       3.160
        1921       -1268.       5875.      -994.7      -3.833       1036.       72.96
        1922       -834.0       6066.      -650.1       12.27       675.1       90.25
        1923       -473.1       6291.      -370.5       37.84       378.0       105.0
        1924       -197.6       6513.      -137.9       69.66       148.1       129.2
        1925        5.134       6737.       17.48       83.13      -26.20       119.4
        1926        155.0       6954.       131.5       62.62      -161.4       98.24
        1927        294.6       7126.       221.4       51.98      -244.2       78.90
        1928        341.3       7188.       262.5       43.29      -312.9       68.15
        1929        407.4       7377.       312.7       6.425      -357.2       23.47
        1930        502.8       7147.       152.6       30.13      -261.6       72.90
        1931        451.2       7112.       123.3       14.20      -237.7       79.64
        1932        331.8       6935.       101.1       20.89      -183.8       107.6
        1933        169.3       6749.       49.80       29.87      -107.5       121.7
        1934       -59.66       6527.      -18.96       31.34       10.67       134.1
        1935       -378.1       6314.      -93.65       26.40       162.6       146.0
        1936       -771.9       6053.      -195.9       13.76       355.3       141.8
        1937       -1253.       5915.      -341.8      -13.31       612.8       117.6
        1938       -1849.       5761.      -461.9      -45.37       894.9       64.89
        1939       -2522.       5795.      -654.6      -102.3       1259.      -45.80
        1940       -3339.       6092.      -818.9      -188.0       1630.      -194.7
        1941       -4134.       6711.      -1047.      -291.0       2067.      -394.5
        1942       -4920.       7627.      -1209.      -407.0       2486.      -646.0
        1943       -5548.       9116.      -1335.      -594.1       2878.      -999.7
        1944       -5892.      1.1254E+04  -1393.      -837.5       3216.      -1482.
        1945       -5735.      1.4057E+04  -1208.      -1160.       3433.      -2089.
        1946       -5449.      1.4134E+04  -1501.      -1244.       3590.      -1990.
        1947       -5616.      1.1232E+04  -1746.      -904.0       3418.      -1384.
        1948       -5245.       9128.      -1641.      -655.7       3073.      -954.5
        1949       -4631.       7643.      -1464.      -448.9       2653.      -618.8
        1950       -3924.       6732.      -1235.      -294.7       2190.      -383.2
        1951       -3118.       6101.      -1032.      -179.9       1763.      -190.0
        1952       -2383.       5876.      -795.0      -115.6       1339.      -35.29
        1953       -1726.       5761.      -575.5      -51.06       963.6       61.49
        1954       -1190.       5925.      -378.6      -13.89       637.1       116.0
        1955       -703.8       6091.      -241.9       13.70       381.5       133.4
        1956       -334.7       6311.      -99.66       28.31       160.5       144.6
        1957       -43.92       6567.      -15.49       38.84       4.967       138.1
        1958        175.1       6786.       57.42       35.74      -116.4       117.3
        1959        329.2       6974.       114.4       26.86      -204.1       95.41
        1960        435.3       7124.       149.7       17.33      -258.6       68.92
        1961        503.1       7222.       165.6       21.45      -289.5       50.37
        1962        560.0       7198.       54.95       16.06      -183.5       24.35
        1963        476.4       6995.       65.27       14.14      -170.9       56.99
        1964        335.8       6855.       24.64       23.10      -132.7       84.98
        1965        151.1       6691.       26.59       35.99      -69.33       106.1
        1966       -132.2       6419.      -39.80       38.65       15.59       146.7
        1967       -480.8       6185.      -131.3       28.19       133.4       187.4
        1968       -919.4       6020.      -135.0       16.96       273.4       182.9
        1969       -1462.       5884.      -140.7       1.806       463.9       115.9
        1970       -2180.       5746.      -234.4      -34.34       646.3       48.78
        1971       -2950.       5837.      -344.1      -72.02       905.9      -61.56
        1972       -3846.       6042.      -436.8      -111.2       1186.      -211.0
        1973       -4772.       6505.      -495.7      -177.5       1473.      -405.0
        1974       -5681.       7398.      -544.0      -292.8       1776.      -696.4
        1975       -6398.       8879.      -559.9      -404.3       2101.      -1089.
        1976       -6848.      1.0996E+04  -505.1      -540.9       2361.      -1623.
        1977       -6449.      1.3942E+04  -321.8      -929.3       2874.      -2543.
        1978       -6504.      1.1239E+04  -694.3      -620.5       2664.      -1676.
        1979       -6129.       9017.      -771.0      -452.5       2379.      -1084.
        1980       -5447.       7492.      -724.5      -346.2       2053.      -668.9
        1981       -4581.       6567.      -635.7      -246.0       1701.      -387.3
        1982       -3710.       6013.      -522.3      -159.3       1347.      -184.6
        1983       -2871.       5814.      -431.0      -78.88       1037.      -67.47
        1984       -2065.       5754.      -318.2      -42.03       767.2       39.71
        1985       -1429.       5822.      -197.9      -10.63       505.4       133.4
        1986       -876.5       6004.      -152.3       8.146       323.3       151.3
        1987       -436.0       6222.      -65.26       26.43       151.0       156.3
        1988       -101.7       6464.      -14.86       22.64       21.87       146.7
        1989        148.3       6682.       20.66       28.18      -75.40       133.8
        1990        328.1       6878.       31.28       21.81      -141.9       83.65
        1991        470.8       7047.       77.08       20.94      -192.0       67.47
        1992        556.6       7179.       77.38       3.369      -222.6       31.84
        1993        539.3       7067.       12.17       13.74      -88.88       51.51
        1994        467.3       6970.       4.136       10.90      -75.58       73.13
        1995        331.3       6828.      -2.041       4.694      -53.50       100.1
        1996        128.3       6644.      -19.50      -2.136      -25.79       128.1
        1997       -153.5       6417.      -44.84      -8.173       7.636       156.7
        1998       -524.5       6190.      -37.29      -2.954       51.88       142.1
        1999       -1022.       5968.      -50.70      0.4151       137.6       122.3
        2000       -1636.       5806.      -105.8      -1.095       210.7       76.88
        2001       -2330.       5701.      -121.9      -31.66       337.2       24.44
        2002       -3160.       5784.      -134.4      -73.88       419.8      -76.91
        2003       -4090.       5730.       32.57      -102.8       572.7      -202.2
        2004       -5051.       6553.      -151.6      -85.03       684.6      -454.4
        2005       -6150.       7446.      -110.7      -176.8       939.6      -816.6
        2006       -6789.       9020.      -44.14      -341.9       1186.      -1097.
        2007       -7500.      1.0539E+04   81.68      -458.5       1301.      -1550.
        2008       -7508.      1.3662E+04   378.1      -569.8       1521.      -2480.
        2009       -7339.      1.0684E+04  -145.3      -467.8       1710.      -1559.
        2010       -6734.       8712.      -201.4      -373.9       1511.      -1080.
        2011       -5914.       7464.      -203.3      -232.4       1259.      -734.0
        2012       -5000.       6605.      -219.7      -156.7       993.0      -464.2
        2013       -4033.       6013.      -180.8      -97.62       809.3      -231.3
        2014       -3096.       5735.      -143.3      -49.12       624.8      -78.02
        2015       -2281.       5707.      -146.7      -32.29       438.0       26.42
        2016       -1582.       5838.      -108.5      -18.71       277.3       79.08
        2017       -989.6       6042.      -75.39      -10.75       169.1       123.4
        2018       -510.3       6222.      -54.80      -10.55       77.00       142.9
        2019       -138.1       6417.      -27.73      -24.00       12.90       133.5
        2020        154.3       6641.       7.444      -15.23      -26.55       111.7
        2021        336.8       6822.       7.502      0.8843      -73.48       97.05
        2022        459.2       6969.      -3.890      -5.362      -114.7       55.53
        2023        564.8       7081.       22.24       1.375      -111.3       30.96
        2024       -7984.      1.2549E+04   274.3      -49.28       401.1      -1706.
        2025       -7564.       9754.       166.7      -69.38       500.2      -1222.
        2026       -6710.       7959.       44.33       21.49       298.5      -871.4
        2027       -5746.       6865.      -2.778       42.77       257.2      -553.1
        2028       -4690.       6108.      -72.29     -0.1246       223.3      -407.9
        2029       -3807.       5690.      -88.17       22.58       181.2      -217.5
        2030       -3039.       5402.      -53.58      -12.62       136.8      -131.1
        2031       -2191.       5601.      -160.2      -65.10       84.84       28.20
        2032       -1444.       5696.      -56.65      -32.04       51.04       37.28
        2033       -919.9       5802.       63.87       23.42       52.69       135.8
        2034       -448.3       6145.      -8.085      -3.301       48.56       156.0
        2035       -83.49       6470.      -4.084      -1.890       12.70       141.9
        2036        150.4       6628.      -63.89       4.747      -1.944       101.2
        2037        348.5       6826.      -26.94       10.70      -18.80       52.45
        2038        483.5       6989.      -6.811       7.345      -28.24       47.08
        2039        543.5       7061.      -14.09       4.807      -34.00       26.14
        2040       -7782.      1.2605E+04   484.0      -252.1       1088.      -2240.
        2041       -7541.      1.0422E+04   83.42       98.71       747.5      -1322.
        2042       -6820.       8637.       8.354      -160.7       740.8      -1012.
        2043       -6114.       7186.      -83.53      -67.68       570.8      -686.4
        2044       -4999.       6505.      -114.2      -77.97       424.5      -435.4
        2045       -4007.       5603.      -81.20      7.0064E-02   414.6      -215.7
        2046       -3030.       5521.      -183.5      -34.53       333.7      -197.5
        2047       -2191.       5772.      -149.7       40.98       194.1      -70.72
        2048       -1510.       5786.      -88.67       28.14       89.21       54.58
        2049       -1009.       5747.       67.69      -6.437       38.77       124.3
        2050       -504.5       6318.       7.958      -6.711       41.77       197.8
        2051       -167.8       6424.      -67.52      -14.61       16.54       173.2
        2052        123.0       6639.      -41.63      -9.991      -13.30       132.8
        2053        327.9       6828.      -17.31      -2.067      -40.09       88.20
        2054        466.2       6976.       3.346       4.335      -57.98       68.43
        2055       -7148.      1.3515E+04  -81.55      -553.8       2174.      -2293.
        2056       -7075.      1.0869E+04  -298.0      -431.6       2040.      -1601.
        2057       -6617.       8785.      -389.9      -356.0       1819.      -1075.
        2058       -5855.       7404.      -376.7      -254.7       1514.      -714.7
        2059       -4832.       6693.      -321.6      -165.7       1221.      -444.9
        2060       -3851.       6290.      -271.6      -102.7       964.6      -217.7
        2061       -2963.       6035.      -238.9      -64.16       734.9      -60.55
        2062       -2137.       6007.      -206.1      -28.72       535.1       32.78
        2063       -1413.       6116.      -137.7      -1.502       358.8       113.9
        2064       -797.2       6528.      -70.02       14.40       180.7       149.7
        2065       -437.5       6429.      -71.86       24.25       67.36       169.3
        2066       -126.7       6409.      -43.43       22.98      -4.924       119.8
        2067        177.7       6660.       32.18       4.725      -50.19       87.59
        2068        342.8       6829.       26.12       4.887      -107.5       90.11
        2069        469.7       6971.       16.37       6.115      -128.9       54.08
        2070       -6032.      1.3991E+04  -838.2      -1177.       3216.      -2310.
        2071       -6182.      1.1333E+04  -1013.      -779.9       2972.      -1594.
        2072       -5848.       9111.      -1038.      -530.1       2653.      -1048.
        2073       -5178.       7590.      -949.1      -380.2       2289.      -665.3
        2074       -4372.       6626.      -849.6      -249.9       1902.      -402.5
        2075       -3481.       6076.      -686.0      -175.3       1523.      -202.4
        2076       -2681.       5776.      -514.2      -101.4       1146.      -35.06
        2077       -1966.       5806.      -388.6      -44.84       833.8       53.78
        2078       -1334.       5841.      -287.4      -3.520       568.6       108.3
        2079       -823.8       6065.      -167.7       15.45       337.9       142.0
        2080       -400.2       6270.      -91.80       20.95       161.7       141.3
        2081       -81.36       6503.      -11.26       24.73       8.573       141.7
        2082        161.8       6716.       44.99       23.59      -89.60       129.7
        2083        331.0       6888.       63.38       22.55      -158.0       102.8
        2084        438.9       7101.       66.40       11.45      -221.7       51.01
        2085       -5312.      1.4024E+04  -2015.      -1353.       3641.      -1716.
        2086       -5263.      1.1122E+04  -2086.      -1033.       3594.      -1286.
        2087       -4921.       9118.      -1950.      -751.9       3243.      -919.8
        2088       -4323.       7673.      -1722.      -509.8       2791.      -605.6
        2089       -3633.       6711.      -1447.      -341.2       2301.      -348.0
        2090       -2916.       6132.      -1183.      -196.9       1836.      -154.8
        2091       -2269.       5908.      -919.5      -94.73       1398.      -38.55
        2092       -1621.       5850.      -681.4      -47.63       1010.       44.00
        2093       -1092.       5901.      -428.2      -5.929       656.7       105.4
        2094       -656.9       6124.      -258.5       28.97       385.6       136.0
        2095       -298.0       6342.      -123.3       47.86       169.5       138.4
        2096       -26.09       6605.      -9.094       44.78      -5.044       136.4
        2097        171.5       6822.       76.03       39.68      -132.7       116.5
        2098        321.1       7001.       136.4       33.37      -218.2       89.93
        2099        414.4       7144.       176.5       17.91      -278.5       58.98
        2100        482.5       7304.       197.1       15.65      -312.3       29.85
        2101       -5126.      1.4311E+04  -2554.      -1065.       3702.      -1733.
        2102       -5046.      1.0732E+04  -2549.      -981.2       3631.      -1200.
        2103       -4569.       9047.      -2273.      -769.8       3324.      -897.7
        2104       -4015.       7661.      -2008.      -527.0       2882.      -592.5
        2105       -3371.       6725.      -1690.      -336.0       2392.      -346.6
        2106       -2653.       6171.      -1401.      -212.9       1913.      -158.1
        2107       -2064.       5907.      -1041.      -110.4       1440.      -23.97
        2108       -1514.       5897.      -755.6      -45.22       1034.       52.49
        2109       -993.0       5945.      -515.7       16.67       688.6       95.49
        2110       -580.5       6156.      -302.6       35.40       394.3       132.7
        2111       -262.1       6390.      -134.8       49.29       163.7       144.0
        2112       -22.98       6641.      -2.291       51.32      -14.51       130.5
        2113        175.5       6854.       92.69       46.08      -142.4       109.8
        2114        311.7       7036.       162.7       38.76      -231.1       85.80
        2115        394.5       7183.       212.3       24.89      -292.0       58.75
        2116       -3522.      1.3509E+04  -3901.      -1773.       4088.      -1310.
        2117       -3663.      1.1171E+04  -3858.      -1277.       3937.      -973.1
        2118       -3490.       9070.      -3562.      -913.6       3574.      -671.1
        2119       -3020.       7715.      -3040.      -627.6       3085.      -472.7
        2120       -2490.       7013.      -2451.      -369.7       2512.      -275.0
        2121       -1969.       6680.      -1873.      -211.3       1919.      -115.7
        2122       -1479.       6612.      -1386.      -110.3       1431.       15.24
        2123       -1051.       6234.      -1084.       12.66       1013.       92.50
        2124       -688.9       6334.      -677.2       86.19       651.9       109.2
        2125       -391.3       6723.      -332.1       90.63       337.5       117.9
        2126       -159.2       6712.      -124.1       106.5       123.7       110.2
        2127        7.525       6873.       44.37       108.1      -52.35       90.18
        2128        147.1       7091.       161.6       105.1      -177.5       62.25
        2129        260.5       7170.       255.2       85.61      -250.5       41.76
        2130        318.5       7283.       296.2       62.85      -308.9       38.81
        2131       -2345.      1.4034E+04  -4980.      -1877.       3902.      -1220.
        2132       -2557.      1.1304E+04  -4971.      -1388.       3748.      -798.4
        2133       -2440.       9265.      -4563.      -1025.       3404.      -489.8
        2134       -2131.       7832.      -3968.      -722.4       2921.      -244.0
        2135       -1785.       6879.      -3269.      -460.2       2411.      -82.64
        2136       -1370.       6297.      -2596.      -282.1       1874.       8.029
        2137       -1061.       6036.      -1888.      -123.0       1380.       62.69
        2138       -709.5       6047.      -1307.      -8.886       943.0       65.44
        2139       -457.0       6138.      -823.1       77.83       586.6       62.76
        2140       -261.1       6379.      -432.8       129.7       315.0       18.22
        2141       -92.01       6607.      -154.3       156.2       98.61      -15.53
        2142        15.07       6858.       55.12       169.4      -48.05      -35.92
        2143        95.46       7112.       179.2       161.7      -146.7      -51.44
        2144        144.5       7312.       256.1       138.6      -208.1      -51.86
        2145        190.5       7462.       305.0       95.17      -245.2      -31.76
        2146       -938.4      1.5074E+04  -5907.      -2558.       3502.      -1346.
        2147       -1417.      1.1887E+04  -6071.      -1720.       3275.      -744.9
        2148       -1409.       9632.      -5640.      -1212.       2951.      -387.2
        2149       -1289.       8027.      -4891.      -834.0       2549.      -129.6
        2150       -1020.       7021.      -4040.      -563.5       2041.       81.10
        2151       -828.2       6443.      -3083.      -331.7       1579.       187.3
        2152       -576.7       6098.      -2220.      -149.6       1102.       198.6
        2153       -375.5       6063.      -1408.      -4.857       703.1       155.3
        2154       -223.9       6162.      -781.9       104.9       388.4       27.86
        2155       -94.11       6365.      -328.5       190.8       157.8      -101.5
        2156       -19.72       6674.      -37.59       247.5       13.69      -217.7
        2157        23.20       6979.       98.28       271.8      -66.98      -287.7
        2158        46.82       7272.       146.9       262.1      -95.89      -299.3
        2159        51.85       7498.       153.4       215.7      -98.40      -261.8
        2160        67.97       7689.       168.9       155.6      -105.0      -181.4
        2161        63.05       7719.       181.0       119.9      -104.8      -74.79
        2162       -447.4      1.4471E+04  -6626.      -2686.       3102.      -988.6
        2163       -1026.      1.1954E+04  -6555.      -1807.       3038.      -678.7
        2164       -1136.       9705.      -6099.      -1242.       2769.      -365.7
        2165       -1017.       8112.      -5337.      -855.2       2370.      -79.71
        2166       -851.4       7136.      -4408.      -591.2       1911.       175.3
        2167       -641.9       6434.      -3385.      -366.0       1439.       312.4
        2168       -460.6       6140.      -2365.      -182.0       989.0       361.5
        2169       -305.1       6014.      -1439.      -37.87       604.6       252.2
        2170       -166.4       6103.      -706.8       85.69       294.2       45.48
        2171       -47.51       6328.      -224.5       199.8       84.24      -165.1
        2172        11.87       6670.       53.12       272.0      -26.55      -349.4
        2173        28.93       7029.       118.3       315.9      -72.13      -424.5
        2174        27.48       7345.       111.2       300.0      -68.66      -423.0
        2175        15.41       7573.       83.47       240.0      -52.40      -348.0
        2176        22.40       7741.       55.66       164.9      -42.17      -238.3
        2177        157.3       8359.      -5877.      -718.9       427.3      -1071.
        2178       -525.6       8408.      -7778.      -74.83       920.6      -251.0
        2179        134.9       8823.      -914.8      -219.3       41.21      -558.2
        2180        90.61      -3046.      -1573.      -225.2       111.9       539.6
        2181        159.3      -3122.      -1405.       177.2       25.65      -247.3
        2182       -11.39      -2237.      -2174.       260.0       318.7      -855.9
        2183       -2547.      -1120.      -1917.      -541.0      -48.05       141.5
        2184       -3243.      -1416.      -2482.      -4.683       145.9      -171.5
        2185       -3121.      -1403.      -2869.       87.41       260.0      -200.8
        2186       -2253.      -1511.      -3076.       87.86       225.0      -176.8
        2187       -1816.      -1506.      -3108.       173.9       234.3      -217.6
        2188       -1325.      -1491.      -3112.       155.4       251.3      -253.4
        2189       -859.7      -1472.      -3136.       105.0       233.0      -304.0
        2190       -540.9      -1447.      -3110.       73.38       222.0      -323.5
        2191       -267.7      -1420.      -3087.       30.64       197.2      -360.4
        2192       -96.72      -1321.      -2920.       8.352       105.4      -366.4
        2193       -2154.      -316.2      -2089.      -942.1      -244.6       303.9
        2194       -3040.      -1413.      -2207.       114.7       327.8      -50.57
        2195       -2945.      -1450.      -2692.       386.7       448.7      -317.6
        2196       -2066.      -1441.      -3040.       375.4       392.8      -379.4
        2197       -1613.      -1481.      -3008.       400.6       461.2      -514.5
        2198       -1201.      -1530.      -3011.       354.1       502.1      -551.8
        2199       -837.1      -1606.      -3009.       278.7       495.7      -586.8
        2200       -509.0      -1675.      -2908.       234.9       474.7      -606.8
        2201       -276.8      -1593.      -2886.       158.3       406.2      -587.4
        2202       -71.54      -1565.      -2711.       64.28       241.6      -601.7
        2203       -1781.       273.9      -2352.      -975.3      -317.9       53.88
        2204       -2451.      -1211.      -2619.       147.2       182.4      -358.8
        2205       -2290.      -1525.      -2757.       494.2       467.3      -555.0
        2206       -1932.      -1488.      -2778.       684.5       574.6      -652.9
        2207       -1280.      -1640.      -2768.       657.7       591.4      -840.6
        2208       -855.7      -1735.      -2753.       561.6       611.5      -878.6
        2209       -609.4      -1811.      -2732.       459.3       653.4      -796.4
        2210       -319.3      -1932.      -2678.       381.5       528.5      -872.8
        2211       -184.2      -1907.      -2620.       304.6       496.7      -803.3
        2212       -80.62      -1861.      -2516.       156.0       291.2      -871.8
        2213       -1992.      -86.84      -2568.      -1049.      -396.7      -325.5
        2214       -1747.      -1161.      -2442.       234.9       41.54      -548.6
        2215       -1732.      -1763.      -2609.       654.5       402.3      -839.8
        2216       -1428.      -2032.      -2490.       871.7       659.4      -986.9
        2217       -818.8      -2178.      -2485.       887.5       612.4      -973.2
        2218       -528.8      -2247.      -2490.       775.3       624.0      -1028.
        2219       -291.3      -2233.      -2484.       688.0       586.3      -983.4
        2220       -128.7      -2225.      -2344.       564.4       543.2      -953.5
        2221       -80.10      -2178.      -2323.       462.3       488.9      -867.5
        2222       -1286.       1623.      -1945.      -1364.      -123.0      -553.6
        2223       -1403.      -1308.      -2129.       110.9      -146.0      -693.1
        2224       -1107.      -2254.      -2258.       763.5       265.7      -946.9
        2225       -778.8      -2615.      -2239.       909.3       439.5      -1089.
        2226       -416.2      -2682.      -2226.       998.1       520.0      -1026.
        2227       -165.8      -2659.      -2184.       883.4       507.0      -976.9
        2228        49.82      -2522.      -2111.       819.6       483.8      -921.7
        2229        86.89      -2489.      -2054.       661.1       428.9      -900.7
        2230        71.83      -2512.      -2012.       522.6       416.2      -866.9
        2231        81.15      -2496.      -1910.       351.8       305.0      -799.7
        2232       -778.1      -1892.      -1655.       622.6      -144.1      -699.9
        2233       -618.9      -2591.      -1908.       777.1      -122.9      -853.2
        2234       -193.3      -3175.      -1874.       940.2       9.712      -990.0
        2235        115.0      -3171.      -1804.       875.0       150.7      -994.9
        2236        292.1      -3082.      -1734.       787.1       203.4      -932.1
        2237        295.7      -3041.      -1753.       675.7       250.6      -836.1
        2238        284.0      -2802.      -1755.       614.7       276.7      -791.6
        2239        199.9      -2787.      -1750.       514.1       254.8      -698.9
        2240        111.9      -2726.      -1672.       334.4       193.1      -678.9
        2241       -145.1      -2090.      -1426.       390.4      -199.4      -390.8
        2242        93.78      -3309.      -1412.       730.5      -298.4      -641.9
        2243        402.0      -3744.      -1498.       784.7      -207.3      -698.4
        2244        561.2      -3657.      -1492.       723.3      -100.3      -717.6
        2245        637.0      -3491.      -1479.       634.3      -9.540      -645.0
        2246        579.8      -3329.      -1478.       538.6       31.90      -540.0
        2247        439.1      -3199.      -1486.       428.8       98.73      -541.1
        2248        290.1      -2985.      -1541.       406.7       105.9      -483.5
        2249        127.0      -3029.      -1516.       282.9       103.4      -518.6
        2250       -20.29      -2971.      -1194.       429.8      -206.5       62.43
        2251        476.1      -3642.      -1282.       372.2      -362.1      -61.86
        2252        724.1      -4011.      -1314.       322.5      -290.2      -125.2
        2253        871.3      -3986.      -1403.       252.0      -199.5      -143.2
        2254        826.8      -3782.      -1387.       203.7      -114.6      -125.7
        2255        733.6      -3530.      -1393.       160.7      -70.84      -118.2
        2256        550.4      -3226.      -1403.       206.1      -12.66      -233.8
        2257        351.8      -3145.      -1373.       193.7       9.241      -233.6
        2258        381.2      -2506.      -1282.       357.7      -358.2       419.6
        2259        699.7      -3544.      -1416.       26.17      -340.1       480.3
        2260        788.4      -4025.      -1343.      -101.4      -265.5       400.9
        2261        994.0      -3845.      -1335.      -209.9      -186.2       407.9
        2262        946.8      -3679.      -1385.      -183.6      -113.9       344.8
        2263        774.5      -3458.      -1376.      -170.1      -58.70       276.9
        2264        563.9      -3311.      -1382.      -83.69      -25.65       92.50
        2265        379.2      -3180.      -1341.      -65.27       3.980       91.16
        2266        171.3      -3202.      -1361.      -16.65       3.289       131.4
        2267        204.8      -2656.      -1845.       176.2      -370.5       971.0
        2268        514.8      -3469.      -1624.      -363.2      -272.2       920.6
        2269        753.2      -3682.      -1542.      -522.2      -132.0       883.9
        2270        799.4      -3650.      -1520.      -586.6      -46.20       844.1
        2271        810.1      -3525.      -1516.      -522.2      -6.497       734.9
        2272        708.2      -3400.      -1509.      -451.2       49.92       605.3
        2273        579.7      -3244.      -1458.      -380.0       52.15       463.4
        2274        342.4      -3105.      -1453.      -284.8       87.70       396.4
        2275        172.4      -3071.      -1452.      -162.9       50.62       373.5
        2276       -183.2      -2046.      -2329.       45.03      -293.2       1088.
        2277        45.36      -2826.      -2185.      -589.9      -60.57       1179.
        2278        291.5      -3195.      -2066.      -830.8       95.35       1161.
        2279        417.6      -3183.      -1989.      -853.6       229.5       1066.
        2280        473.1      -3080.      -1944.      -787.7       287.9       958.6
        2281        424.7      -2978.      -1884.      -699.8       309.2       859.9
        2282        376.1      -2933.      -1788.      -589.4       275.9       745.9
        2283        314.9      -2827.      -1605.      -486.2       190.3       533.6
        2284       -1159.      -577.5      -3178.       1396.      -1115.       930.7
        2285       -1093.      -1929.      -2681.      -273.6      -15.66       1122.
        2286       -747.6      -2382.      -2555.      -810.6       366.7       1236.
        2287       -280.4      -2578.      -2389.      -1017.       488.2       1204.
        2288        63.57      -2616.      -2265.      -980.0       550.7       1089.
        2289        192.2      -2586.      -2181.      -883.1       567.5       995.0
        2290        217.7      -2524.      -2124.      -787.3       549.1       908.1
        2291        257.3      -2485.      -2026.      -676.2       483.4       838.7
        2292        189.0      -2719.      -1867.      -535.0       319.8       782.6
        2293        107.1      -2708.      -1690.      -361.4       187.9       668.7
        2294       -1802.      -439.7      -3603.       1362.      -1294.       522.7
        2295       -1579.      -1600.      -3080.      -81.89      -8.400       723.8
        2296       -1408.      -1985.      -2952.      -668.2       510.1       939.9
        2297       -975.6      -2246.      -2809.      -897.6       726.6       1009.
        2298       -530.7      -2374.      -2677.      -873.8       703.1       1022.
        2299       -290.6      -2399.      -2561.      -761.3       740.8       973.7
        2300       -131.2      -2316.      -2426.      -684.7       681.7       939.7
        2301       -22.33      -2302.      -2354.      -592.3       594.7       901.9
        2302        5.747      -2319.      -2191.      -458.2       476.6       913.8
        2303        4.431      -2551.      -1967.      -272.5       238.8       881.6
        2304       -2403.      -540.4      -4671.       871.4      -1096.       230.4
        2305       -2506.      -1345.      -3314.      -130.6       90.82       475.5
        2306       -2235.      -1601.      -3176.      -505.6       591.0       694.3
        2307       -1849.      -1801.      -3061.      -621.6       790.0       742.8
        2308       -1323.      -1944.      -3030.      -665.5       750.7       804.4
        2309       -782.3      -2018.      -2788.      -622.9       745.0       876.8
        2310       -466.7      -1969.      -2731.      -501.5       705.3       802.6
        2311       -272.2      -1919.      -2628.      -424.0       629.1       833.0
        2312       -160.3      -1957.      -2550.      -353.3       540.6       823.8
        2313       -76.35      -2075.      -2319.      -252.2       333.6       817.2
        2314       -2333.      -233.7      -3966.       933.0      -1004.      -245.0
        2315       -3214.      -1308.      -3364.      -74.58      -111.7       165.7
        2316       -2853.      -1492.      -2855.      -278.5       441.4       285.3
        2317       -2449.      -1542.      -2725.      -404.5       717.5       311.4
        2318       -1792.      -1564.      -2764.      -411.7       721.5       406.3
        2319       -1239.      -1540.      -2886.      -353.0       644.8       514.7
        2320       -804.2      -1674.      -2791.      -297.2       645.7       554.2
        2321       -464.3      -1675.      -2786.      -242.3       575.9       609.4
        2322       -268.7      -1678.      -2758.      -206.8       503.5       635.4
        2323       -110.8      -1790.      -2601.      -161.7       329.4       733.4
        2324       -2914.      -870.4      -4106.       679.3      -518.6      -87.97
        2325       -3383.      -1356.      -3419.       62.33       91.23       106.2
        2326       -3066.      -1403.      -3101.      -147.2       281.2       185.9
        2327       -2709.      -1488.      -3069.      -170.0       391.9       206.7
        2328       -2152.      -1490.      -3087.      -176.7       401.9       273.6
        2329       -1798.      -1439.      -3043.      -176.3       363.1       268.7
        2330       -1265.      -1466.      -3110.      -145.3       337.5       307.8
        2331       -750.0      -1526.      -3080.      -129.9       297.5       369.7
        2332       -418.8      -1484.      -3062.      -83.26       290.0       391.0
        2333       -167.1      -1458.      -2879.      -43.44       208.3       489.0
        2334        262.2      -38.03      -1101.       1011.      -216.2       398.7
        2335       -1018.      -1252.      -2526.       1200.      -714.9       1069.
        2336       -143.1      -915.5      -1051.       784.0      -82.53      -5.768
        2337        59.61      -451.4      -1798.       1146.      -292.6       835.3
        2338       -208.0       441.6      -911.0       127.6       96.15      -261.5
        2339       -1166.      -561.9      -1387.      -35.13       21.42      -496.8
        2340       -1246.       377.7      -1615.      -778.9       42.83      -391.5
        2341        7.717      -1615.      -2259.      -27.66       22.28       1296.
        2342        1.240      -2877.      -1746.      -163.8       140.6       1060.
        2343        39.03      -3691.      -1386.      -77.77       74.16       1261.
        2344        96.53      -4471.      -1012.      -27.82       26.38       598.3
        2345        60.67      -3977.      -1267.      -25.21       11.22       141.4
        2346        40.11      -4472.      -957.7       42.63       31.85      -256.2
        2347       -3.471      -3909.      -1225.       67.39       40.09      -1069.
        2348       -39.81      -3145.      -1670.       144.6       79.31      -892.2
        2349       -25.54      -2090.      -2223.       90.34       104.7      -953.2
        2350       -47.09      -1687.      -2515.       90.95       125.3      -715.7
        2351       3.7905E-02  -1092.      -2585.       31.72       24.39      -574.5
        2352       -17.13      -2698.      -1831.       63.74       87.17      -1219.
        2353        7.039      -2967.      -1647.      -201.9       149.2       719.9
        2354       -18.10      -2247.      -2070.      -151.6       192.6       990.1
        2355       -30.28      -3791.      -1398.       92.23       64.64      -525.4
        2356       -3.652      -1282.      -2521.      -19.56       96.72       638.5
        2357        53.34      -3487.      -1449.      -81.79       51.66       537.1
        2358        44.59      -3618.      -1338.       72.13       72.86      -202.0
        2359        17.02      -3284.      -1523.       83.82       57.28      -668.4
        2360        45.13      -1611.      -2253.       42.27       56.56      -1206.
        2361        9.383      -2502.      -1793.      -35.27       58.16       1532.
        2362       -32.38      -1899.      -2337.      -102.0       170.2       884.4
        2363       -1142.      -1361.      -3353.       136.4       126.6      -190.2
        2364       -285.3      -938.5      -3579.      -388.2      -34.08       99.54
        2365       -374.4      -1018.      -4715.       114.1      -17.24      -318.0
        2366       -611.4       822.6      -1437.      -680.8      -194.8       337.2
        2367        64.45       4218.       1172.       24.13      -49.60       257.4
        2368        11.33       4980.       1138.      -28.60      -13.29       168.8
        2369       -151.9      -781.0      -3456.     -0.2652       89.63      -418.6
        2370       -307.6      -779.6      -3825.       51.55       95.89      -369.6
        2371       -119.5      -1015.      -3105.      -14.10       86.22      -313.4
        2372       -777.2      -1308.      -3326.       67.12       127.7      -205.0
        2373       -575.7      -863.6      -4395.       144.7       94.32      -317.4
        2374       -1902.      -1472.      -3381.       25.61       123.8       9.551
        2375       -1974.      -1333.      -3369.       5.923       72.45       65.19
        2376       -119.8      -914.3      -4810.      -1.150      -10.12      -221.2
        2377       -2085.      -1459.      -3011.      -20.01       18.32       136.9
        2378       -317.8      -715.1      -3625.      -945.4      -137.9       67.23
        2379       -1188.      -324.3      -1218.      -938.3      -155.8       319.1
        2380       -1749.      -1439.      -2282.      -404.4      -67.33       246.5
        2381       -195.1       3054.       909.6       17.60      -153.3       495.1
        2382       -398.0      -760.8      -4038.       89.98       123.8      -287.2
        2383       -519.6      -1278.      -3234.       28.89       113.7      -228.5
        2384       -1602.      -1447.      -3332.       155.1       127.2      -154.4
        2385       -473.8      -851.8      -4213.       150.6       117.2      -364.5
        2386       -380.7      -1325.      -3185.      -7.794       115.7      -235.6
        2387       -4187.      -492.0      -106.7       49.91       376.0       438.3
        2388        752.5       7819.       6.601      -2.742      -87.68       47.01
        2389       -4241.      -449.4      -356.2       81.81       1076.       383.3
        2390        658.8       7773.       71.82       3.272      -218.8       28.64
        2391       -3748.      -646.2      -799.9       133.9       1738.       503.7
        2392        564.7       7898.       138.3      -1.615      -276.6       6.637
        2393       -3050.      -654.2      -1427.       246.2       2115.       397.3
        2394        438.0       8017.       239.5       27.52      -322.4       26.98
        2395       -2301.      -516.0      -2080.       317.9       2188.       365.2
        2396        304.9       8236.       329.7       50.06      -330.5       6.234
        2397       -1630.      -563.9      -2884.       498.5       2215.       185.5
        2398        210.8       8538.       396.8       65.31      -287.3      -32.95
        2399       -880.3      -733.5      -3636.       485.8       1805.       83.11
        2400        90.26       8841.       302.8       98.90      -141.8      -86.82
        2401       -355.6      -677.4      -4004.       572.5       1244.       40.24
        2402       -27.38       8086.       69.97      -9.641       56.56       147.7
        2403       -17.60      -1095.      -4651.       584.9       567.1       55.95
        2404       -18.79       5647.       735.6      -40.31      -9.365       476.1
        2405       -188.4      -614.1      -4260.       544.1       992.0       63.48
        2406       -315.3      -2367.      -7118.       860.1       1499.      -67.62
        2407       -217.4      -3008.      -9036.       1033.       1878.      -348.5
        2408        35.29      -4480.     -1.0949E+04   373.2       2032.      -251.9
        2409       -143.8      -2828.     -1.1726E+04   223.8       2460.      -430.1
        2410        146.4      -1860.     -1.1815E+04  -686.8       2441.      -837.2
        2411       -115.6       988.2     -1.0985E+04  -1379.       2195.      -1027.
        2412       -61.74       3014.      -9542.      -1399.       1938.      -1271.
        2413       -340.2       5899.      -7897.      -919.3       1477.      -1415.
        2414       -268.8       8552.      -6702.      -607.7       1079.      -1389.
        2415       -326.5       9435.      -5116.       40.41       530.7      -1022.
        2416       -149.0       9262.      -2937.       576.0       409.4      -544.5
        2417        375.4      1.0012E+04  -322.1       972.3       163.9      -790.6
        2418        442.6      1.2593E+04   1586.       408.9       31.13      -811.8
        2419       -92.70      1.1425E+04   1649.       127.8       114.0      -582.6
        2420        177.9      1.1986E+04   1180.      -396.5      -41.51       6.201
        2421        85.71      1.0045E+04   373.8      -689.2      -186.1       568.9
        2422        91.78       9663.      -153.7      -283.9      -186.4       261.1
        2423        11.41       9260.      -220.7      -30.02      -124.4       847.0
        2424        39.34       8799.      -94.63      -9.059      -47.87       856.1
        2425        80.25       7868.       108.2      -72.60       21.21       658.6
        2426       -43.82       7477.       143.5      -27.06       45.74       327.7
        2427       -35.87       6616.       393.0      -26.19       76.77       522.0
        2428        139.8       6853.       298.0      -68.96       37.43       929.3
        2429        110.2       7196.       79.27      -112.6      -120.4       1425.
        2430       -35.49       8501.      -168.3      -242.6      -262.3       1300.
        2431        71.34       8072.       31.64      -731.7      -366.8       1453.
        2432       -5.265       7404.      -2553.       726.5      -160.3      -1877.
        2433       -174.4       7472.      -4646.       114.2       379.1      -1741.
        2434       -226.2       7087.      -6081.      -303.6       662.7      -2005.
        2435       -371.4       5246.      -7782.      -852.4       1165.      -1638.
        2436       -145.2       3028.      -9406.      -1277.       1489.      -1311.
        2437       -52.11       672.1     -1.0861E+04  -1399.       1763.      -1095.
        2438        351.4      -1896.     -1.2054E+04  -613.4       1966.      -770.0
        2439        374.0      -4260.     -1.2296E+04   673.5       1738.      -423.6
        2440       -321.8      -4306.     -1.1036E+04   612.0       1757.      -145.3
        2441       -200.7      -2606.      -8997.       491.2       1473.      -131.0
        2442        97.15      -1597.      -6721.       784.3       1147.      -47.43
        2443       -101.4      -801.4      -4260.       633.3       660.4       4.006
        2444       -29.27       4914.      -4472.       143.5       34.46      -1892.
        2445       -89.37       4509.      -5209.      -402.9       278.2      -1873.
        2446       -258.4       4314.      -7108.      -862.0       745.4      -1691.
        2447       -170.5       2737.      -9048.      -1241.       1006.      -1249.
        2448       -57.22       485.5     -1.0743E+04  -1607.       1145.      -844.5
        2449        377.9      -2360.     -1.2039E+04  -1390.       1295.      -549.3
        2450        155.6      -3211.     -1.2243E+04  -142.2       993.3      -216.3
        2451        583.6      -5311.     -1.1822E+04   650.5       919.8      -106.6
        2452       -251.8      -2902.      -9870.       769.4       1030.       111.4
        2453       -107.0      -1889.      -7090.       647.5       646.4       64.37
        2454       -162.8       1875.      -4656.       73.07      -136.2      -1059.
        2455       -191.8       2737.      -4806.      -346.7       21.81      -1431.
        2456       -98.63       3681.      -6422.      -932.2       246.7      -955.3
        2457       -71.41       2576.      -8436.      -1124.       535.3      -684.6
        2458        132.1       874.1     -1.0125E+04  -1384.       651.6      -525.6
        2459        242.3      -2057.     -1.1623E+04  -1390.       623.4      -381.8
        2460        614.0      -3672.     -1.2102E+04  -785.5       815.5      -301.3
        2461        676.6      -4040.     -1.1706E+04   501.2       691.3      -225.7
        2462        87.31      -4386.     -1.0287E+04   482.8       452.8       1.216
        2463       -34.22      -1976.      -7672.       581.3       345.7      -5.987
        2464        25.22      -1116.      -4863.       388.1       304.3       124.6
        2465       -678.4      -768.7      -3777.       420.4       1617.       98.96
        2466       -951.6      -1964.      -6162.       585.0       2475.       100.9
        2467       -967.0      -2511.      -7895.       707.8       3227.      -74.80
        2468       -1457.      -3483.      -9427.       637.4       3933.      -241.7
        2469       -809.1      -2807.     -1.0420E+04  -345.6       4495.      -363.0
        2470       -988.0      -1739.     -1.0451E+04  -1331.       4660.      -722.6
        2471       -1669.       675.1     -1.0169E+04  -1155.       3846.      -812.2
        2472       -1229.       4326.      -8583.      -1092.       3405.      -609.9
        2473       -1080.       6564.      -7101.      -957.2       2787.      -472.0
        2474       -849.4       8187.      -5610.      -715.7       2159.      -214.3
        2475       -623.9       9355.      -4122.      -538.8       1565.       94.18
        2476       -402.8       9823.      -2730.      -404.6       995.9       367.9
        2477       -200.2       9913.      -1463.      -241.9       505.1       501.3
        2478        2.849       9584.      -416.6      -72.70       111.1       410.5
        2479        95.60       9296.       301.7       114.3      -137.0       96.96
        2480        123.4       9142.       640.3       243.0      -240.2      -258.0
        2481        97.33       9140.       639.3       316.9      -238.4      -512.7
        2482        72.27       9220.       505.0       306.8      -205.2      -540.3
        2483        60.50       9206.       393.8       270.3      -167.5      -440.5
        2484        55.94       9071.       290.3       198.9      -138.5      -303.3
        2485        51.12       8994.       258.9       148.8      -127.4      -159.8
        2486        74.13       8879.       212.0       59.01      -81.67      -82.48
        2487       -6.545       8729.       145.4       16.92      -24.36      -55.55
        2488        61.39       8925.       157.6       79.27      -47.20      -123.8
        2489        44.03       9184.       159.3       132.9      -82.46      -269.9
        2490        69.35       9473.       283.5       228.0      -103.9      -488.8
        2491        80.05       9442.       446.4       282.0      -182.0      -745.0
        2492        117.9       9226.       810.7       355.8      -229.4      -745.1
        2493        144.9       9123.       1023.       292.2      -299.0      -398.7
        2494        34.78       9104.       717.9       141.4      -242.8       154.3
        2495        52.05       9606.      -102.3      -17.29      -60.60       700.5
        2496       -69.40      1.0120E+04  -1365.      -218.7       327.1       770.3
        2497       -291.4      1.0222E+04  -2844.      -379.2       861.8       567.3
        2498       -455.3       9674.      -4441.      -524.6       1359.       97.99
        2499       -698.7       8321.      -5951.      -691.7       1934.      -312.5
        2500       -780.5       6595.      -7414.      -927.7       2474.      -603.0
        2501       -1064.       3909.      -8950.      -1157.       3055.      -730.7
        2502       -1200.       1288.     -1.0271E+04  -1287.       3647.      -602.2
        2503       -617.7      -1476.     -1.1105E+04  -1037.       3846.      -588.2
        2504       -803.6      -2361.     -1.1029E+04  -340.2       3845.      -328.4
        2505       -816.3      -1962.      -9896.       683.4       3430.      -20.88
        2506       -697.8      -2996.      -8200.       923.8       2879.      -18.85
        2507       -843.7      -2172.      -6098.       576.2       2124.      -1.518
        2508       -547.1      -664.9      -3889.       432.1       1458.       100.4
        2509       -1313.      -625.5      -3145.       534.6       2083.       167.2
        2510       -2167.      -1897.      -5006.       589.0       3316.       143.3
        2511       -2799.      -2363.      -6568.       690.5       4320.       305.6
        2512       -2524.      -4441.      -8040.       522.5       5409.      -171.4
        2513       -3029.      -2084.      -8540.      -174.4       5707.      -412.4
        2514       -3298.      -1085.      -8754.      -1016.       5887.      -763.8
        2515       -3263.       1275.      -8043.      -1250.       5296.      -754.6
        2516       -2894.       3956.      -6897.      -1136.       4469.      -710.4
        2517       -2369.       6103.      -5636.      -881.8       3646.      -541.1
        2518       -1877.       7724.      -4389.      -650.3       2847.      -344.4
        2519       -1406.       8665.      -3249.      -456.7       2119.      -134.0
        2520       -939.7       9221.      -2265.      -279.6       1460.      -13.77
        2521       -616.0       9461.      -1402.      -147.4       935.7       50.16
        2522       -315.1       9465.      -788.7      -26.77       505.8       75.49
        2523       -131.9       9363.      -277.5       75.48       198.6       24.43
        2524        8.793       9211.       37.23       146.8      -16.49      -32.32
        2525        95.81       9052.       244.4       194.0      -148.0      -84.79
        2526        143.2       8909.       356.6       211.1      -225.9      -125.1
        2527        171.8       8794.       399.6       204.1      -263.3      -135.3
        2528        181.2       8698.       402.0       181.1      -276.9      -121.1
        2529        197.0       8713.       402.0       148.5      -276.9      -85.77
        2530        186.9       8583.       394.6       65.95      -253.2      -58.18
        2531        136.3       8712.       360.0       6.317      -231.3      -74.33
        2532        175.1       8763.       410.6       119.0      -255.1      -120.7
        2533        157.0       8792.       415.0       182.5      -256.0      -168.9
        2534        151.8       8869.       426.4       217.8      -252.6      -196.5
        2535        133.3       8965.       399.1       227.9      -229.4      -187.9
        2536        90.91       9075.       314.9       209.7      -169.3      -143.6
        2537        39.71       9211.       111.9       161.4      -54.92      -63.49
        2538       -83.09       9392.      -228.1       74.82       149.8       25.90
        2539       -248.9       9484.      -741.1      -28.47       445.9       91.24
        2540       -474.6       9531.      -1486.      -150.2       850.8       104.0
        2541       -818.4       9322.      -2369.      -301.2       1393.       18.64
        2542       -1154.       8755.      -3483.      -462.2       2002.      -111.5
        2543       -1577.       7818.      -4736.      -697.7       2714.      -293.5
        2544       -2049.       6179.      -6045.      -925.3       3503.      -499.4
        2545       -2484.       3972.      -7386.      -1170.       4296.      -688.0
        2546       -2744.       1170.      -8481.      -1233.       5047.      -694.1
        2547       -2914.      -1745.      -9437.      -1142.       5613.      -398.4
        2548       -2683.      -1472.      -9049.      -627.7       5579.      -69.18
        2549       -2035.      -2458.      -8282.       187.5       4978.       23.80
        2550       -1996.      -2931.      -7033.       640.2       4290.       236.7
        2551       -1780.      -1827.      -5325.       501.1       3177.       241.5
        2552       -1189.      -473.9      -3364.       576.6       2052.       196.1
        2553       -2101.      -584.7      -2559.       351.0       2156.       258.5
        2554       -2948.      -1603.      -4062.       559.2       3599.       329.6
        2555       -3693.      -2263.      -5121.       497.5       4732.       380.8
        2556       -4564.      -3073.      -6130.       174.4       5660.      -9.896
        2557       -4857.      -4722.      -7218.       45.49       6562.       185.2
        2558       -4818.      -1121.      -6618.      -885.0       6497.      -355.2
        2559       -4812.       1313.      -6339.      -1017.       5673.      -804.2
        2560       -4146.       3994.      -5434.      -972.7       4770.      -772.6
        2561       -3398.       5993.      -4431.      -773.1       3888.      -586.9
        2562       -2671.       7461.      -3436.      -558.0       3028.      -355.5
        2563       -2040.       8435.      -2624.      -385.3       2266.      -204.4
        2564       -1466.       9063.      -1836.      -252.6       1654.      -109.3
        2565       -889.4       9370.      -1222.      -130.7       1072.       20.18
        2566       -613.6       9444.      -712.5      -62.64       635.6       33.98
        2567       -296.4       9308.      -348.9       75.64       319.0       70.37
        2568       -51.83       9137.      -61.08       130.2       69.65       42.71
        2569        94.04       8958.       111.4       152.1      -95.78       43.68
        2570        199.2       8790.       257.9       163.8      -203.5       19.30
        2571        247.1       8632.       302.4       146.8      -277.1      -4.045
        2572        283.1       8517.       344.8       119.3      -310.3      -15.01
        2573        274.6       8413.       364.2       90.54      -328.4      -21.12
        2574        259.2       8374.       368.6       61.39      -325.2      -5.925
        2575        233.6       8450.       381.4       53.50      -311.4      -21.75
        2576        248.9       8503.       380.2       99.95      -313.2      -38.44
        2577        249.9       8568.       371.0       146.6      -304.1      -48.85
        2578        218.2       8691.       342.6       171.2      -273.7      -45.03
        2579        198.8       8845.       283.2       182.2      -211.4      -27.77
        2580        93.39       8970.       143.7       179.8      -114.9      -3.016
        2581       -55.70       9181.      -41.14       150.4       50.23       22.39
        2582       -216.7       9276.      -321.0       77.15       282.9       45.01
        2583       -476.1       9405.      -767.0      -13.06       603.4       47.39
        2584       -826.2       9361.      -1261.      -104.9       1047.       16.75
        2585       -1274.       9051.      -2017.      -248.9       1599.      -79.63
        2586       -1805.       8502.      -2813.      -443.9       2263.      -199.1
        2587       -2375.       7543.      -3753.      -612.9       2995.      -377.7
        2588       -3047.       6034.      -4833.      -828.9       3831.      -572.1
        2589       -3741.       3937.      -5949.      -1077.       4709.      -763.4
        2590       -4243.       1299.      -6930.      -1240.       5572.      -857.1
        2591       -4320.      -1381.      -7419.      -908.8       6225.      -743.6
        2592       -4388.      -1755.      -7280.      -119.7       6134.      -353.5
        2593       -4161.      -3227.      -6630.       168.7       5606.       90.79
        2594       -3372.      -2475.      -5526.       535.3       4653.       292.2
        2595       -2686.      -2031.      -4478.       541.8       3668.       325.6
        2596       -1920.      -556.6      -2770.       461.7       2295.       309.3
        2597       -2703.      -598.9      -1667.       294.4       2210.       393.5
        2598       -4183.      -2021.      -2586.       256.2       3404.       427.9
        2599       -5660.      -3136.      -3317.       381.7       4728.       413.6
        2600       -6503.      -3732.      -4166.       99.56       5635.       187.0
        2601       -7196.      -2129.      -4480.      -218.2       6068.      -79.46
        2602       -7642.      -2952.      -4049.      -492.4       6227.      -730.0
        2603       -6687.       776.3      -4189.      -971.0       5543.      -1450.
        2604       -5996.       3571.      -3611.      -934.8       4798.      -897.0
        2605       -4956.       5568.      -3071.      -692.3       3872.      -754.1
        2606       -3880.       7282.      -2364.      -485.8       3015.      -527.7
        2607       -2898.       8318.      -1762.      -364.4       2267.      -324.7
        2608       -2070.       8970.      -1230.      -220.0       1607.      -157.6
        2609       -1350.       9228.      -803.2      -94.75       1073.      -52.16
        2610       -815.6       9292.      -489.2      -27.73       645.6       16.75
        2611       -433.3       9287.      -203.1       32.79       303.7       60.94
        2612       -113.6       9106.      -59.01       65.05       65.56       69.92
        2613        89.26       8907.       81.15       85.51      -102.4       85.84
        2614        232.8       8669.       167.8       92.23      -207.1       91.46
        2615        321.9       8476.       227.0       90.21      -274.6       81.02
        2616        375.3       8312.       254.9       79.79      -314.1       60.18
        2617        401.6       8184.       264.3       60.62      -333.9       36.96
        2618        410.7       8121.       277.4       42.69      -336.8       31.34
        2619        376.0       8182.       288.8       26.65      -330.5       12.14
        2620        366.7       8285.       293.5       61.79      -318.5       43.85
        2621        341.0       8337.       271.2       80.79      -311.9       50.04
        2622        303.9       8524.       264.3       100.6      -268.5       63.32
        2623        221.3       8708.       189.4       103.6      -205.6       65.86
        2624        94.71       8969.       91.81       87.12      -109.2       53.25
        2625       -102.1       9171.      -27.14       65.98       52.35       53.83
        2626       -363.8       9335.      -246.7       25.88       311.6       65.63
        2627       -775.4       9305.      -504.4      -46.54       673.2       69.72
        2628       -1288.       9271.      -970.3      -111.6       1098.      -22.65
        2629       -1839.       8982.      -1381.      -197.0       1624.      -156.2
        2630       -2646.       8380.      -1935.      -344.9       2309.      -292.8
        2631       -3537.       7388.      -2689.      -521.9       3092.      -485.6
        2632       -4425.       5627.      -3411.      -649.8       3893.      -670.0
        2633       -5485.       3017.      -4123.      -886.2       5025.      -1052.
        2634       -6391.       1163.      -4888.      -1072.       5635.      -1036.
        2635       -6419.      -2706.      -5080.      -906.4       6623.      -895.1
        2636       -6436.      -1896.      -4867.      -70.97       6178.      -399.1
        2637       -6241.      -4070.      -4710.       194.6       5710.       345.2
        2638       -5137.      -2748.      -3698.       296.8       4753.       478.8
        2639       -3988.      -1614.      -2887.       351.1       3570.       408.8
        2640       -2663.      -581.5      -1974.       379.4       2318.       339.8
        2641       -3464.      -524.9      -977.1       148.3       1718.       440.1
        2642       -5599.      -1969.      -1419.       200.1       2862.       461.3
        2643       -7162.      -2797.      -1627.       381.1       3954.       501.8
        2644       -8413.      -2620.      -1886.       72.86       4516.       75.50
        2645       -9560.      -3271.      -2409.      -183.8       4801.      -686.2
        2646       -9628.      -2173.      -2617.      -458.2       5109.      -1046.
        2647       -8818.       1066.      -2274.      -698.7       4702.      -1148.
        2648       -7642.       3617.      -2047.      -684.6       3968.      -1097.
        2649       -6250.       5731.      -1667.      -549.8       3222.      -864.9
        2650       -4913.       7261.      -1290.      -395.5       2513.      -623.2
        2651       -3711.       8353.      -952.0      -267.9       1863.      -400.9
        2652       -2603.       8904.      -677.4      -160.2       1327.      -194.8
        2653       -1732.       9162.      -406.9      -80.11       852.6      -73.36
        2654       -1017.       9239.      -256.4      -38.45       520.3       8.419
        2655       -520.4       9207.      -106.5       2.721       237.2       74.13
        2656       -124.5       8996.      -20.85       27.72       49.52       114.0
        2657        153.0       8807.       55.57       48.16      -89.72       124.1
        2658        332.6       8559.       108.4       56.41      -187.1       123.6
        2659        454.6       8356.       135.7       51.32      -244.0       106.5
        2660        502.5       8171.       142.4       42.10      -278.5       90.87
        2661        560.2       8062.       169.1       32.61      -283.0       57.13
        2662        541.5       7903.       166.6       20.32      -297.3       17.97
        2663        514.3       8004.       196.3       31.46      -318.5       41.59
        2664        506.4       8070.       184.5       40.60      -308.7       56.58
        2665        476.1       8207.       174.5       52.09      -291.4       81.84
        2666        413.6       8386.       156.8       62.76      -255.9       102.9
        2667        311.1       8590.       122.2       64.62      -193.6       115.1
        2668        145.9       8799.       62.77       54.39      -91.68       123.0
        2669       -133.1       9018.      -9.780       39.13       46.61       115.8
        2670       -485.7       9214.      -148.9       5.829       270.8       78.58
        2671       -1013.       9238.      -297.2      -38.05       547.3       27.68
        2672       -1678.       9224.      -507.8      -95.07       923.8      -67.31
        2673       -2511.       8885.      -779.7      -173.7       1396.      -205.9
        2674       -3490.       8343.      -1155.      -282.2       2001.      -388.7
        2675       -4665.       7271.      -1534.      -436.9       2679.      -593.2
        2676       -5929.       5740.      -1975.      -608.6       3422.      -818.3
        2677       -7233.       3684.      -2408.      -765.7       4197.      -1019.
        2678       -8267.       1332.      -2567.      -751.8       4959.      -1045.
        2679       -9063.      -1950.      -3008.      -376.4       5479.      -447.5
        2680       -8883.      -2174.      -2849.      -199.6       5171.      -279.5
        2681       -8281.      -3647.      -2509.       128.3       4630.      -123.1
        2682       -6801.      -2785.      -2014.       355.0       4154.       454.8
        2683       -5363.      -1519.      -1656.       259.7       3145.       463.0
        2684       -3643.      -650.5      -1169.       281.1       2069.       469.2
        2685       -4248.      -643.5      -502.6       229.2       1408.       509.9
        2686       -6121.      -1818.      -679.2       261.8       2275.       575.9
        2687       -8151.      -2226.      -691.6       202.1       2964.       674.1
        2688      -9.9999E+03  -3797.      -841.8       390.8       3479.       365.2
        2689      -1.0821E+04  -3451.      -859.8       46.51       4049.      -239.6
        2690      -1.0894E+04  -1909.      -962.5      -288.6       4000.      -668.6
        2691       -9931.       1071.      -969.2      -505.9       3486.      -1096.
        2692       -8538.       3687.      -951.8      -460.4       2929.      -1153.
        2693       -6958.       5736.      -778.4      -336.5       2365.      -935.9
        2694       -5443.       7181.      -618.3      -255.6       1827.      -656.7
        2695       -4088.       8218.      -458.5      -193.8       1365.      -421.9
        2696       -2929.       8858.      -325.3      -137.7       977.4      -231.2
        2697       -1984.       9182.      -205.9      -82.81       633.7      -68.01
        2698       -1183.       9242.      -145.3      -31.52       383.0       31.98
        2699       -613.0       9190.      -71.27       29.16       152.5       107.2
        2700       -133.1       8959.      -6.090       55.08       26.79       149.2
        2701        208.6       8741.       52.76       18.70      -62.67       135.8
        2702        400.6       8490.       57.40       4.138      -127.8       130.3
        2703        510.3       8267.       59.20       30.74      -190.5       139.4
        2704        604.8       8204.       107.1       42.99      -217.3       127.4
        2705        628.4       7995.       85.82       18.28      -240.4       53.22
        2706        652.5       7880.       86.47       28.95      -241.5       57.45
        2707        634.3       7911.       105.5       4.196      -250.3       30.18
        2708        635.3       7985.       140.8       34.69      -255.4       61.56
        2709        589.8       8152.       124.8       36.65      -232.4       111.9
        2710        501.0       8287.       80.98       43.75      -200.2       129.0
        2711        377.0       8511.       76.10       56.76      -162.2       130.1
        2712        173.5       8741.       38.43       51.94      -71.02       125.6
        2713       -135.6       8941.       7.904       37.78       35.97       117.9
        2714       -554.1       9135.      -74.41       9.598       205.3       84.36
        2715       -1143.       9236.      -149.0      -29.34       412.8       22.10
        2716       -1873.       9192.      -274.0      -46.64       745.1      -90.06
        2717       -2852.       8834.      -447.4      -116.7       1129.      -233.3
        2718       -4007.       8256.      -595.5      -201.2       1562.      -424.5
        2719       -5323.       7247.      -823.8      -297.7       2091.      -667.3
        2720       -6792.       5744.      -1058.      -371.8       2687.      -933.2
        2721       -8274.       3688.      -1253.      -429.3       3297.      -1156.
        2722       -9770.       653.2      -1397.      -500.8       3896.      -1162.
        2723      -1.0649E+04  -2079.      -1166.      -640.7       4422.      -800.7
        2724      -1.0463E+04  -3171.      -1276.      -389.3       4545.      -101.1
        2725       -9579.      -3342.      -1479.      -88.76       4134.       397.2
        2726       -7825.      -2189.      -1158.       133.4       3355.       644.7
        2727       -6229.      -2008.      -936.3       209.7       2606.       710.1
        2728       -3734.      -646.2      -653.1       118.0       1470.       371.5
        2729       -4250.      -581.0      -112.5       145.2       617.3       505.6
        2730       -7008.      -1784.      -76.27       133.0       1096.       610.6
        2731       -9049.      -2209.       58.42     -4.3600E-02   1376.       682.4
        2732      -1.1070E+04  -3877.       103.5      -130.4       1560.       283.9
        2733      -1.1863E+04  -1917.      -106.7       17.89       1746.      -318.2
        2734      -1.1770E+04  -1455.       281.3      -105.5       1788.      -1173.
        2735      -1.0676E+04   1179.      -171.0      -158.0       1510.      -1381.
        2736       -9652.       1943.       287.7      -39.58       1552.      -1198.
        2737       -7951.       5613.       30.84      -236.6       1349.      -1147.
        2738       -6214.       7072.      -151.4      -136.5       916.5      -818.2
        2739       -4669.       8086.       12.12      -102.8       647.3      -522.1
        2740       -3410.       8626.      -96.36      -34.21       383.5      -338.0
        2741       -2129.       8957.       2.368       25.20       270.7      -164.3
        2742       -1225.       9161.       6.683      -10.81       141.3      -55.97
        2743       -585.0       9129.       52.06      -6.499       59.46       50.22
        2744       -96.61       8964.       70.66      -19.72      -15.27       98.38
        2745        242.7       8756.       45.38      -18.09      -55.40       114.1
        2746        461.3       8495.       28.20      -6.791      -77.86       128.5
        2747        601.7       8268.       22.96       3.251      -89.69       119.9
        2748        688.5       8094.       24.09     -0.1619      -98.69       95.04
        2749        725.5       7937.       20.50      -4.398      -113.3       69.02
        2750        742.5       7814.       21.54      0.7057      -120.9       41.09
        2751        720.1       7830.       27.33     -0.5073      -146.7       23.31
        2752        728.0       7943.       64.89       14.03      -154.7       63.04
        2753        683.3       8096.       37.52       2.103      -134.1       96.20
        2754        586.1       8242.       11.27      0.8462      -118.8       113.7
        2755        439.9       8458.       35.49      0.1088      -103.1       115.4
        2756        245.9       8760.       50.59       19.10      -64.81       95.08
        2757       -72.23       9002.       25.11       20.59       12.60       86.83
        2758       -570.6       9143.      -16.62      -7.953       107.0       50.34
        2759       -1230.       9215.      -43.93      -39.96       207.3      -9.104
        2760       -2063.       9092.      -69.58      -56.43       370.9      -131.6
        2761       -3119.       8806.      -88.68      -76.24       572.7      -273.7
        2762       -4425.       8229.      -134.1      -97.16       838.2      -477.1
        2763       -5910.       7163.      -247.4      -155.0       1175.      -691.1
        2764       -7565.       5241.      -350.9      -145.2       1559.      -858.6
        2765       -9404.       2949.      -234.8      -308.0       1833.      -1314.
        2766      -1.0704E+04   1166.      -14.76      -350.1       2077.      -1429.
        2767      -1.1745E+04  -1625.      -278.7      -159.5       2297.      -1310.
        2768      -1.1299E+04  -2239.       390.5     -0.1538       2131.      -122.4
        2769      -1.1126E+04  -6216.       400.4      -44.42       2345.       597.2
        2770       -9173.      -2226.      -124.6       65.76       1855.       766.2
        2771       -6971.      -1668.      -282.3      -73.57       1367.       605.9
        2772       -4265.      -503.1      -158.0       82.36       858.8       520.4
        2773        750.9       7861.      -17.43       2.257      -44.71       56.96
        2774        719.7       7942.       7.839       13.88      -40.62       86.09
        2775        650.9       8043.       72.75       12.11      -20.16       122.8
        2776        558.6       8271.       50.49       17.10      -23.79       128.0
        2777        398.5       8524.       64.76       44.78      -49.73       88.04
        2778        134.2       8892.       20.48       29.10      -3.671       138.1
        2779       -316.7       8813.       70.11       43.35       35.47       163.8
        2780       -821.0       9059.       50.20       2.028       20.28       65.72
        2781       -1533.       9243.       156.3      -105.6       32.09       59.55
        2782       -4799.       8135.      -59.04      -54.04       224.2      -439.1
        2783       -7721.       5699.       89.51       9.938       377.2      -871.8
        2784       -9710.       3780.      -137.6      -129.1       448.2      -1336.
        2785      -1.1519E+04  -49.24       236.5      -233.9       685.7      -1547.
        2786      -1.2557E+04  -2932.       379.2      -382.5       778.4      -1243.
        2787      -1.1847E+04  -2249.       227.9      -179.9       723.8      -209.6
        2788      -1.1118E+04  -3906.       249.0       238.5       489.9       818.7
        2789       -9259.      -2837.      -16.40       63.50       571.0       655.9
        2790       -6950.      -1360.       20.39      -5.388       390.8       604.9
        2791       -4665.      -875.3      -24.10      -14.75       295.5       438.1
        2792        479.4       8063.       213.8       42.41      -318.6       55.82
        2793        466.1       8089.       203.6       49.46      -319.4       58.87
        2794        440.9       8229.       199.6       61.26      -301.2       77.14
        2795        382.4       8414.       174.3       70.72      -263.5       99.17
        2796        278.0       8623.       134.8       73.09      -200.7       108.8
        2797        125.9       8818.       76.39       70.71      -97.09       108.7
        2798       -107.0       9042.      -24.66       53.71       62.11       103.0
        2799       -465.1       9183.      -173.1       16.75       285.1       83.04
        2800       -980.1       9306.      -351.5      -21.89       580.4       26.71
        2801       -1575.       9235.      -629.0      -94.70       992.1      -82.69
        2802       -2364.       8897.      -944.5      -203.0       1492.      -189.0
        2803       -3303.       8294.      -1341.      -326.8       2103.      -357.2
        2804       -4405.       7270.      -1792.      -445.2       2808.      -549.7
        2805       -5600.       5718.      -2312.      -589.4       3587.      -762.8
        2806       -6924.       3340.      -2900.      -800.2       4383.      -1037.
        2807       -7929.       959.9      -3091.      -952.4       5173.      -1096.
        2808       -8568.      -1554.      -3190.      -744.8       5767.      -665.1
        2809       -8414.      -2342.      -3174.      -385.2       5709.      -128.6
        2810       -7738.      -1685.      -3059.       19.81       5022.       392.0
        2811       -6488.      -3342.      -2409.       382.4       4318.       454.1
        2812       -4914.      -2088.      -2092.       314.6       3176.       354.1
        2813       -3127.      -524.6      -1206.       173.7       1899.       409.0
        2814        104.4       8763.       353.5       69.38      -200.3      -84.56
        2815        131.4       8833.       385.0       117.3      -215.7      -156.0
        2816        128.2       8898.       404.0       190.0      -224.8      -223.8
        2817        125.5       8959.       442.3       234.1      -234.6      -275.1
        2818        117.8       9013.       451.3       253.5      -232.9      -276.5
        2819        98.56       9099.       394.8       237.1      -194.7      -217.7
        2820        55.37       9205.       227.1       175.2      -98.55      -99.92
        2821       -26.26       9395.      -135.1       79.01       79.30       38.25
        2822       -168.4       9563.      -707.8      -51.79       365.7       149.7
        2823       -377.9       9593.      -1489.      -181.7       765.9       169.7
        2824       -613.7       9473.      -2518.      -338.4       1260.       98.53
        2825       -965.5       8879.      -3665.      -515.9       1888.      -49.17
        2826       -1281.       7860.      -5013.      -695.9       2547.      -257.5
        2827       -1711.       6304.      -6434.      -935.7       3310.      -467.5
        2828       -2065.       4045.      -7894.      -1186.       4078.      -656.5
        2829       -2134.       1228.      -9032.      -1076.       4822.      -699.8
        2830       -2272.      -2651.     -1.0146E+04  -625.1       4972.      -701.9
        2831       -2197.      -1881.      -9368.      -625.0       4995.      -644.5
        2832       -2110.      -2075.      -8811.       190.6       4686.      -114.7
        2833       -1607.      -2700.      -7306.       748.3       3928.       158.3
        2834       -1458.      -1935.      -5527.       624.4       3015.       165.4
        2835       -1088.      -488.9      -3438.       529.7       1949.       171.4
        2836       -194.7       3138.       843.6      -7.221      -173.7       1316.
        2837       -32.90       3842.       1284.       177.6      -136.1       886.8
        2838        16.11       4404.       1210.       15.83      -62.68       651.3
        2839       -24.26       4695.       1001.      -38.49      -4.053       231.3
        2840       -82.57       5187.       104.1      -483.5      -323.9       1696.
        2841        55.53       5331.       742.5      -92.24      -183.0       1527.
        2842        90.56       5431.       766.9      -65.99      -46.84       996.8
        2843       -323.1      -702.1      -4202.       626.1       1145.      -52.32
        2844       -326.7      -1665.      -6598.       654.0       1666.      -11.39
        2845       -263.8      -2195.      -8753.       824.3       2115.      -77.46
        2846       -118.4      -4155.     -1.0437E+04   582.2       2840.      -23.70
        2847       -273.8      -1937.     -1.1285E+04  -152.3       2832.      -419.7
        2848       -444.4      -1563.     -1.1582E+04  -891.9       3084.      -753.6
        2849       -464.4       751.2     -1.0851E+04  -1358.       2752.      -1043.
        2850       -420.8       3953.      -9435.      -1311.       2348.      -1035.
        2851       -441.1       6184.      -8001.      -1005.       1856.      -1019.
        2852       -421.1       8645.      -6557.      -648.1       1441.      -837.9
        2853       -233.3      1.0238E+04  -5207.      -292.6       931.7      -227.5
        2854       -226.2      1.0461E+04  -3246.       157.9       451.1       601.1
        2855       -23.23      1.0169E+04  -402.7       505.8       282.6       496.0
        2856        42.52      1.0007E+04   1273.       327.2       47.92       64.61
        2857       -129.9       9439.       1763.       151.8      -124.7      -597.0
        2858       -240.9       9841.       1528.       31.61      -252.1      -965.2
        2859        11.92      1.0078E+04   848.3      -124.4      -288.8      -934.1
        2860        250.3       9584.       154.1       14.87      -159.3      -585.1
        2861        180.5       9807.      -195.8       111.4      -66.50      -65.91
        2862        65.51       9469.      -181.7       12.91      -26.31       314.3
        2863        15.59       8392.      -82.75      -17.85       70.75       336.7
        2864        6.283       8513.       43.86      -4.634       11.96       42.70
        2865       -604.3      -2173.      -6484.       695.9       2078.       12.15
        2866       -453.7      -3238.      -8897.       929.2       2669.       114.6
        2867       -499.8      -2358.     -1.0228E+04   610.3       3127.      -87.04
        2868       -767.0      -2589.     -1.1214E+04   157.7       3357.      -526.4
        2869       -632.1      -997.9     -1.1317E+04  -989.1       3435.      -706.7
        2870       -747.0       337.8     -1.0590E+04  -1348.       3372.      -945.7
        2871       -795.0       3863.      -9129.      -1009.       2654.      -917.3
        2872       -526.9       6419.      -7763.      -912.9       2246.      -761.1
        2873       -553.6       8668.      -6091.      -607.9       1659.      -441.4
        2874       -314.6      1.0052E+04  -4748.      -447.0       1157.       88.45
        2875       -119.7      1.0657E+04  -3093.      -256.0       657.9       705.5
        2876       -174.6      1.0494E+04  -1365.       64.72       209.6       1076.
        2877       -154.7       9511.       746.0       167.4      -127.6       699.3
        2878       -98.06       8768.       1399.       171.8      -284.9      -174.3
        2879       -55.86       9103.       1331.       211.1      -398.8      -819.9
        2880      -0.1088       9335.       951.0       201.0      -286.2      -1045.
        2881        131.1       9850.       350.6       164.1      -188.0      -808.0
        2882        115.6       9726.       56.79       155.5      -77.06      -396.8
        2883        43.48       9246.      -20.92       95.52      -21.41      -112.3
        2884        69.45       8880.       43.78       20.96       4.484       28.48
        2885       -1079.      -1875.      -5768.       659.2       2781.       122.0
        2886       -1219.      -2101.      -7481.       625.4       3631.       95.06
        2887       -1840.      -3027.      -8889.       248.7       4153.      -137.1
        2888       -1270.      -4385.      -9962.       158.9       4876.      -726.8
        2889       -1772.      -1337.     -1.0121E+04  -793.4       4885.      -836.7
        2890       -1831.       1007.      -9759.      -1195.       4386.      -880.4
        2891       -1604.       4144.      -8307.      -1105.       3734.      -689.3
        2892       -1384.       6408.      -6797.      -926.5       3062.      -486.3
        2893       -1059.       7989.      -5294.      -707.6       2377.      -231.1
        2894       -772.8       9102.      -3885.      -530.9       1730.       22.26
        2895       -496.9       9580.      -2610.      -376.7       1144.       219.6
        2896       -270.5       9746.      -1506.      -225.3       646.5       314.5
        2897       -83.79       9593.      -617.7      -68.62       253.0       259.5
        2898        33.22       9366.       28.86       85.59      -12.84       70.99
        2899        88.18       9190.       390.0       203.4      -160.8      -157.6
        2900        101.8       9109.       511.1       274.1      -215.1      -334.7
        2901        98.34       9095.       492.0       280.4      -221.2      -392.6
        2902        97.31       9067.       432.2       256.6      -208.0      -358.3
        2903        99.91       8994.       377.3       200.9      -186.7      -275.2
        2904        83.45       8869.       321.7       142.1      -163.7      -180.1
        2905       -2382.      -1854.      -4523.       472.3       3333.       115.5
        2906       -3324.      -2897.      -6023.       473.0       4416.       120.2
        2907       -3469.      -3736.      -7406.       193.4       5530.       8.704
        2908       -3784.      -2344.      -7911.      -170.3       5990.      -192.7
        2909       -3807.      -1167.      -7979.      -914.9       6065.      -712.1
        2910       -3756.       1271.      -7498.      -1229.       5429.      -831.9
        2911       -3313.       3944.      -6433.      -1109.       4605.      -728.7
        2912       -2704.       6067.      -5236.      -857.9       3754.      -542.0
        2913       -2124.       7611.      -4075.      -631.2       2935.      -349.8
        2914       -1556.       8583.      -3053.      -427.5       2186.      -193.1
        2915       -1127.       9129.      -2104.      -262.7       1547.      -72.04
        2916       -689.9       9405.      -1371.      -115.1       989.5       18.88
        2917       -409.6       9432.      -749.2      -16.44       559.2       41.56
        2918       -180.6       9340.      -321.8       66.80       245.1       40.02
        2919       -12.24       9212.      -14.84       137.5       13.58      -1.937
        2920        83.21       9023.       209.1       178.6      -128.7      -34.25
        2921        162.3       8870.       316.3       189.4      -221.5      -66.55
        2922        194.9       8741.       371.9       184.6      -272.3      -84.83
        2923        214.8       8637.       389.7       159.8      -292.6      -84.16
        2924        223.4       8599.       399.0       121.8      -297.4      -65.24
        2925       -2224.      -606.6      -2482.       344.1       2290.       344.2
        2926       -3408.      -1685.      -3827.       519.6       3630.       384.5
        2927       -4182.      -2361.      -4773.       535.7       4834.       412.8
        2928       -4794.      -3152.      -5489.      -43.16       5839.       66.98
        2929       -5488.      -3530.      -5953.      -446.1       6201.      -361.5
        2930       -5720.      -2127.      -6509.      -594.5       6282.      -731.5
        2931       -5215.       1609.      -5684.      -839.0       5632.      -805.4
        2932       -4513.       4001.      -4971.      -884.9       4785.      -819.1
        2933       -3771.       5843.      -4078.      -740.5       3928.      -634.3
        2934       -3039.       7372.      -3265.      -535.6       3146.      -361.9
        2935       -2184.       8546.      -2439.      -313.7       2258.      -121.3
        2936       -1564.       8903.      -1634.      -240.7       1595.      -108.5
        2937       -1122.       9249.      -1165.      -129.3       1147.      -26.91
        2938       -615.4       9671.      -657.1      -87.93       613.9       23.71
        2939       -330.2       9578.      -313.8       26.04       301.2       77.59
        2940       -63.64       9020.      -38.44       53.65       88.74       69.73
        2941        59.54       8779.       92.10       97.04      -83.93       51.07
        2942        191.3       8612.       214.3       120.3      -195.3       39.20
        2943        279.5       8453.       266.7       118.1      -268.4       10.65
        2944        299.3       8523.       307.6       117.1      -308.1       11.14
        2945        310.0       8379.       335.9       71.22      -320.5      -8.550
        2946        349.3       8197.       312.8       45.22      -343.0       7.686
        2947       -3591.      -1561.      -3302.       419.1       3599.       422.9
        2948       -4457.      -2066.      -4155.       384.5       4821.       455.5
        2949       -5554.      -5808.      -5202.       97.17       6086.       154.7
        2950       -5916.      -2091.      -5207.      -499.7       6418.      -402.0
        2951       -6478.      -1805.      -5869.      -737.2       6286.      -943.8
        2952       -5749.       1326.      -5221.      -754.5       5610.      -1041.
        2953       -4954.       3718.      -4585.      -877.0       4831.      -935.8
        2954       -4161.       5542.      -3832.      -777.3       4073.      -670.0
        2955       -3132.       7428.      -2907.      -486.9       3002.      -419.1
        2956       -2318.       8321.      -2232.      -365.4       2343.      -248.3
        2957       -1751.       8928.      -1615.      -199.1       1715.      -78.34
        2958       -1196.       9198.      -987.2      -94.77       1055.      -52.85
        2959       -668.2       9136.      -627.0      -23.33       683.3      -2.461
        2960       -353.8       9069.      -330.2       21.08       331.0       53.04
        2961       -107.1       9090.      -64.16       77.27       118.1       98.46
        2962        103.2       9153.       122.4       75.12      -92.69       44.37
        2963        215.2       8887.       217.0       100.3      -193.3       36.29
        2964        309.6       8677.       286.5       86.77      -248.2       13.90
        2965        310.8       8417.       287.2       75.96      -313.3       6.479
        2966        337.7       8295.       323.2       65.30      -329.6       8.026
        2967       -4867.      -2080.      -2397.       336.9       3667.       533.1
        2968       -5859.      -2233.      -2802.       292.9       4420.       604.6
        2969       -6942.      -1596.      -3136.      -94.59       5234.       61.52
        2970       -7879.      -3072.      -3785.      -197.0       5964.      -525.8
        2971       -7972.      -1610.      -4031.      -701.1       6030.      -1049.
        2972       -7507.       227.3      -3453.      -963.7       5550.      -1201.
        2973       -6509.       3216.      -3336.      -692.5       4478.      -866.2
        2974       -5278.       5792.      -2641.      -631.2       3733.      -697.5
        2975       -4144.       7297.      -2049.      -469.5       2918.      -522.5
        2976       -3096.       8310.      -1530.      -323.9       2186.      -338.1
        2977       -2253.       8921.      -1051.      -212.2       1539.      -175.7
        2978       -1487.       9225.      -724.0      -118.2       1035.      -63.79
        2979       -896.8       9328.      -426.1      -29.10       619.4       22.00
        2980       -461.4       9199.      -182.3       34.77       288.8       73.50
        2981       -119.8       9065.      -25.89       55.51       64.61       93.87
        2982        104.2       8859.       80.68       71.19      -95.82       109.4
        2983        257.7       8651.       147.2       82.41      -202.8       104.4
        2984        350.8       8439.       199.3       79.22      -272.0       90.41
        2985        407.7       8267.       226.7       65.52      -308.4       69.40
        2986        431.5       8135.       234.2       47.14      -324.0       50.26
        2987       -5901.      -1729.      -1150.       132.8       2750.       627.6
        2988       -7571.      -2489.      -1489.       221.1       3660.       598.6
        2989       -8877.      -2774.      -1726.       352.8       4311.       333.7
        2990       -9676.      -2093.      -1682.      -152.6       4724.      -476.2
        2991      -1.0381E+04  -3046.      -1768.      -589.8       4877.      -1242.
        2992       -9328.       428.2      -1917.      -537.0       4289.      -1012.
        2993       -7948.       3850.      -1599.      -610.2       3675.      -1097.
        2994       -6530.       5822.      -1334.      -485.6       2979.      -885.8
        2995       -5126.       7298.      -1039.      -344.4       2317.      -637.1
        2996       -3856.       8302.      -766.1      -214.4       1719.      -417.0
        2997       -2742.       8907.      -524.7      -147.9       1206.      -220.6
        2998       -1801.       9153.      -355.6      -92.71       807.9      -77.70
        2999       -1066.       9277.      -201.6      -31.05       476.1       5.561
        3000       -537.0       9142.      -84.91       8.241       212.9       73.69
        3001       -121.3       9008.      -13.73       27.90       44.10       108.5
        3002        152.9       8777.       56.77       40.30      -95.31       129.9
        3003        359.0       8545.       82.89       45.94      -174.0       124.4
        3004        471.0       8313.       100.9       49.65      -232.1       107.1
        3005        541.8       8128.       116.7       48.07      -259.8       99.73
        3006        579.7       8076.       152.5       34.88      -271.1       97.44
        3007       -4064.      -569.8      -499.0       121.4       1171.       312.6
        3008       -6394.      -1742.      -467.0       325.2       1969.       517.8
        3009       -8321.      -2858.      -629.5       222.4       2534.       620.6
        3010      -1.0246E+04  -3193.      -729.3       100.5       3024.       367.0
        3011      -1.1241E+04  -2748.      -477.7      -109.6       3325.      -199.9
        3012      -1.1201E+04  -1851.      -549.7      -295.1       3492.      -871.7
        3013      -1.0241E+04   1029.      -752.2      -398.4       3061.      -1182.
        3014       -8762.       3680.      -707.6      -368.9       2537.      -1167.
        3015       -7160.       5700.      -594.5      -275.3       2051.      -917.5
        3016       -5699.       7072.      -463.0      -190.7       1660.      -625.3
        3017       -4058.       8281.      -361.9      -120.6       1204.      -332.4
        3018       -2849.       9071.      -246.6      -70.48       852.1      -191.0
        3019       -1868.       9432.      -153.2      -35.63       545.9      -94.65
        3020       -1121.       9531.      -102.3      -8.005       315.7      -2.168
        3021       -547.0       9399.      -102.8       1.655       139.0       148.5
        3022       -118.5       8887.      -1.210      -11.45       28.75       106.9
        3023        152.1       8522.       16.94       10.74      -62.07       117.1
        3024        428.3       8566.       48.68       25.39      -126.9       116.8
        3025        571.3       8443.       54.22       16.58      -175.3       105.3
        3026        646.5       8139.       74.16       21.88      -204.9       69.72
        3027        648.6       7940.       53.36       18.35      -216.1       64.34
        3028        688.5       7881.       60.46      -5.531      -210.8       34.47
        3029       -6522.      -1691.      -417.6       72.18       1602.       468.8
        3030       -8964.      -3350.      -587.4       402.7       2083.       906.6
        3031      -1.0367E+04  -4628.       34.02       198.7       2772.       678.3
        3032      -1.1039E+04  -2435.      -22.63      -112.8       3021.      -268.3
        3033      -1.1632E+04  -1831.      -350.9      -396.6       2816.      -1173.
        3034      -1.0468E+04   880.4      -488.9      -320.0       2624.      -1267.
        3035       -8952.       3555.      -526.3      -317.7       2144.      -1165.
        3036       -7351.       5662.      -455.0      -248.0       1719.      -897.9
        3037       -5591.       7258.      -379.2      -169.0       1383.      -604.1
        3038       -4293.       8141.      -260.5      -131.4       1094.      -415.8
        3039       -3052.       8709.      -171.0      -75.36       762.5      -238.5
        3040       -2052.       8959.      -115.4      -38.34       502.1      -106.1
        3041       -1226.       9028.      -82.31      -5.354       300.3      -14.06
        3042       -601.9       8897.      -51.84      -19.62       167.8       69.15
        3043       -144.0       8929.       25.62     -7.9569E-02   40.33       120.4
        3044        278.3       8972.       81.32      -9.450      -76.08       32.87
        3045        463.5       8501.       48.82       10.92      -126.8       54.88
        3046        554.7       8232.       4.882       22.95      -159.8       108.2
        3047        659.0       8086.       54.63       15.17      -180.0       93.09
        3048        689.0       7915.       55.79      -2.808      -179.4       61.01
        3049       -6934.      -1980.      -27.95       140.9       717.3       468.2
        3050       -9160.      -3719.      -61.13       213.1       920.9       660.8
        3051      -1.1148E+04  -3227.       337.2       9.070       1059.       629.4
        3052      -1.1973E+04  -2180.       77.25       95.36       1332.      -45.94
        3053      -1.1750E+04  -1111.       764.6      -207.7       1364.      -1289.
        3054      -1.1178E+04   47.03       297.1      -310.3       1074.      -1655.
        3055       -9456.       3026.      -91.42      -228.6       919.4      -1121.
        3056       -8090.       5218.       189.2      -207.4       906.9      -1055.
        3057       -6593.       6952.      -87.47      -35.94       532.4      -845.8
        3058       -5145.       7894.      -52.01      -73.06       536.5      -520.7
        3059       -4075.       8455.       18.06      -24.43       335.1      -349.6
        3060       -2487.       9067.       16.43      -40.50       217.0      -140.8
        3061       -1401.       9041.       73.56      -15.13       110.2      -60.26
        3062       -677.6       9056.       90.64       9.130       20.00       47.30
        3063       -125.1       8986.       100.6     -0.1173      -27.69       99.54
        3064        212.9       8690.       55.95       29.11      -46.37       99.22
        3065        477.6       8541.       37.91       5.433      -65.27       101.3
        3066        603.6       8279.       26.22      -7.830      -59.07       109.6
        3067        691.2       8099.       27.77      -14.87      -70.86       93.42
        3068        733.3       7939.     -0.6115      -9.954      -78.68       77.51
        3069       -97.36       2648.      -4226.       530.3      -518.8      -1032.
        3070       -6233.       7135.      -45.63      -26.19       207.3      -687.1
        3071       -3390.       8748.       49.34      0.1242       144.0      -174.9
        3072       -2333.       8908.       250.9       7.052       109.1      -22.58
        3073       -794.0      -714.9      -4789.      -101.3       122.6       234.0
        3074       -656.0      -1320.      -3117.      -16.03       118.3       114.3
        3075       -663.0      -733.4      -4083.      -124.2       139.6       219.9
        3076       -67.87      -810.1      -3156.       4.141       51.35       276.9
        3077       -717.1      -732.0      -5431.       311.9      -80.42       9.340
        3078       -2379.      -1626.      -4446.       224.6      -26.33      -164.7
        3079       -604.1      -628.3      -5965.       719.4      -62.05      -144.2
        3080       -656.5       171.4      -6134.       571.8      -137.0      -347.1
        3081       -516.9       2673.      -4971.      -46.04      -73.76      -557.3
        3082        71.44       4478.      -5823.      -750.3       50.09      -312.7
        3083       -53.75       4812.      -7548.      -1103.       103.6      -251.1
        3084        446.2       6569.      -9547.      -1868.      -57.87      -146.4
        3085        1126.       4873.      -9989.      -1634.      -197.6      -209.6
        3086        1704.       4629.      -9306.      -1471.      -8.464      -184.9
        3087        564.8       688.3      -8832.       187.9       16.62      -170.1
        3088        2236.       6254.      -7913.      -2878.      -118.5      -308.7
        3089        2968.       4726.      -7352.      -3255.       103.4      -189.6
        3090        3842.       3785.      -6479.      -3741.       105.1      -263.5
        3091        323.7      -76.15      -5907.       458.3       141.4      -67.44
        3092       -145.6       31.34      -4562.       282.0      -52.34      -265.1
        3093        4386.       3517.      -5402.      -3676.       108.9      -158.3
        3094        4728.       3285.      -5347.      -3658.       274.2      -290.9
        3095        4674.       2989.      -4116.      -3684.       313.5      -439.1
        3096       -393.2       442.2      -1620.      -178.8       3.952      -225.9
        3097        2965.       1574.      -4638.      -3676.       242.1      -417.2
        3098        753.8      -919.9      -4799.      -3912.       199.1      -343.4
        3099       -220.8       22.33       4093.       76.57      -76.64      -80.51
        3100       -6224.      -2391.      -9848.      -2213.       146.7      -450.0
        3101        76.53       551.3       1615.       30.30      -79.86      -155.2
        3102        187.1       6107.      -8838.      -1422.      -262.9      -111.2
        3103       -2653.      -1462.      -3951.      -61.10       54.06      -125.4
        3104       -874.5      -769.8      -4872.       53.90       6.390      -71.40
        3105       -2321.      -1368.      -3889.      -183.7       54.56      -25.17
        3106       -760.1      -765.7      -4623.      -107.5       162.2       268.4
        3107       -582.8      -807.1      -4165.      -60.37       106.0       369.8
        3108       -327.5      -1050.      -3261.      -4.277       91.28       210.7
        3109       -1357.       272.0      -5240.       602.9      -104.0      -420.4
        3110       -2011.      -1329.      -3580.      -189.1       106.5       14.83
        3111      -1.5279E+04  -2533.     -1.5765E+04  -143.6      -186.9      -240.4
        3112      -1.3752E+04  -2476.     -1.4066E+04  -776.3      -8.901      -239.1
        3113      -1.3101E+04  -2349.     -1.3382E+04  -892.0       119.1      -106.1
        3114      -1.1749E+04  -2655.     -1.2827E+04  -1073.      -94.02      -200.8
        3115      -1.1883E+04  -2676.     -1.3322E+04  -1300.       105.1      -366.1
        3116      -1.0578E+04  -2727.     -1.2609E+04  -1709.       275.0      -253.0
        3117       -9410.      -2370.     -1.1831E+04  -1782.       245.8      -430.8
        3118       -8270.      -2385.     -1.1382E+04  -1933.       251.3      -509.4
        3119       -3795.      -2549.      -8037.      -2671.       21.85      -345.3
        3120       -1612.      -2360.      -6787.      -3210.       134.7      -259.9
        3121        9917.      -934.9      1.0134E+04  -468.6       233.7      -143.1
        3122        1417.      -1587.       1162.      -216.4       25.54      -394.2
        3123       -592.2      -303.2       6152.       66.96      -125.6      -228.7
        3124       -777.6       171.7       6973.      -497.5      -144.7      -127.5
        3125       -474.3       149.5       7768.      -922.2      -121.5      -292.7
        3126        392.7       285.9       8204.      -1717.      -227.5      -430.8
        3127        1741.       186.7       9362.      -2260.      -102.1      -298.8
        3128        3483.      -338.6      1.0899E+04  -2335.      -146.0      -318.0
        3129        5532.      -140.9      1.1636E+04  -2617.      -58.96      -317.7
        3130        7526.      -365.8      1.2657E+04  -2576.      -35.99      -404.7
        3131        9442.      -580.2      1.3831E+04  -2473.      -112.1      -488.2
        3132       1.1207E+04  -674.7      1.4842E+04  -2346.      -40.66      -491.7
        3133       1.2697E+04  -580.5      1.5725E+04  -2064.      -12.52      -306.4
        3134       1.4099E+04  -606.3      1.6510E+04  -1717.       11.94      -188.0
        3135       1.5446E+04  -665.3      1.7048E+04  -1383.       36.43      -373.5
        3136       1.6669E+04  -629.0      1.7830E+04  -1354.       59.80      -439.5
        3137       1.8133E+04  -267.6      1.9122E+04  -989.8      -15.77      -408.4
        3138       1.7188E+04  -568.1      1.7753E+04  -1037.      -106.3      -313.6
        3139       1.8627E+04  -689.0      1.8922E+04  -441.1      -175.7      -174.6
        3140        262.1      -214.2      -7688.       436.2      -15.38      -392.7
        3141        659.9       2073.      -6130.      -387.8       30.12      -288.9
        3142        2646.       2762.      -3505.      -2842.       104.4      -122.6
        3143        2582.       2861.      -2690.      -3177.       214.4      -318.7
        3144      -1.0900E+04  -2062.     -1.1049E+04  -184.7       5.244      -311.3
        3145        8013.      -1209.       9826.      -2990.      -51.59      -381.1
        3146       2.0290E+04  -284.1      2.0681E+04  -190.3       173.5      -161.1
        3147       -759.8       19.56       6058.      -128.7      -116.7      -182.9
        3148       -130.8       837.0       2895.      -426.3      -67.33      -167.5
        3149       -18.36       1089.       590.6      -480.0      -44.37      -208.9
        3150        358.4       968.6       4655.      -2236.      -60.08      -294.5
        3151        2358.       198.8       6405.      -3898.      -184.4      -247.4
        3152        4604.      -793.4       8272.      -4030.      -160.3      -296.4
        3153        5750.      -1263.       9005.      -3950.      -143.9      -335.8
        3154        7032.      -1224.       8733.      -3487.      -94.06      -346.7
        3155        8745.      -1551.      1.0108E+04  -2550.      -13.96      -377.1
        3156        9327.      -1726.      1.0716E+04  -2286.      -25.74      -530.0
        3157       1.0599E+04  -1195.      1.1871E+04  -1702.      -63.05      -360.2
        3158        9311.      -1197.       9699.      -1284.      -38.16      -190.1
        3159        9542.      -1391.      1.0570E+04  -1468.       11.49      -179.5
        3160       -1607.      -1274.      -3383.      -145.4       113.1       122.4
        3161        1680.       3178.      -5101.      -1909.       48.25      -229.0
        3162        184.1       1401.      -3762.      -557.8      -98.57      -447.2
        3163        2597.       3105.      -4318.      -2806.       82.27      -39.90
        3164       -5202.      -2096.      -5281.      -566.2      -140.4      -199.1
        3165        6620.      -1428.       9205.      -3705.      -49.13      -397.6
        3166        3287.      -197.1       7068.      -4103.      -144.3      -168.7
        3167        94.15       1114.       4623.      -1281.      -86.21      -133.1
        3168        1869.       2082.      -1338.      -3916.       174.3      -443.7
        3169        1313.       796.2       5881.      -3045.      -61.77      -361.5
        3170        1450.       606.7      -850.0      -4803.       157.5      -313.1
        3171        1505.      -785.7       61.57      -4812.       64.46      -310.4
        3172       -80.26      -1873.      -2252.      -4173.       173.4      -263.3
        3173       -1194.      -2185.      -3316.      -3748.       158.4      -295.9
        3174       -1790.      -2050.      -3513.      -3407.      -25.96      -291.9
        3175       -3400.      -1796.      -5589.      -3035.       70.11      -410.4
        3176       -3817.      -1422.      -5548.      -2665.       70.75      -524.3
        3177       -4377.      -1424.      -5704.      -2252.       50.75      -490.3
        3178       -4767.      -1364.      -5891.      -1804.       65.98      -479.1
        3179       -4489.      -1346.      -4893.      -1263.       49.07      -206.7
        3180       -4938.      -1801.      -5284.      -1223.      0.3883      -117.5
        3181        9081.      -1065.       9443.      -651.9      -145.9      -373.6
        3182        1501.       4238.      -7317.      -1036.       56.73      -151.3
        3183        315.1       1854.      -2091.      -1036.      -33.52      -315.5
        3184        580.5       1539.       1917.      -2208.      -105.7      -301.6
        3185        2153.      -1361.       2152.      -997.4      -23.40      -128.0
        3186       -461.1      -880.7      -3556.      -36.54       78.22       226.6
        3187       -213.5       715.6       4652.      -736.8      -91.12      -162.1
        3188        1572.       1146.       2326.      -4346.      -24.14      -392.6
        3189        2489.      -1479.       2524.      -2784.      -145.2      -508.1
        3190        2849.      -1363.       2922.      -2397.      -109.2      -595.5
        3191        2276.      -1375.       2085.      -1606.       55.75      -25.95
        3192        1186.       2170.      -727.2      -2181.      -17.74      -210.1
        3193        1835.      -1538.       1945.      -1780.       41.67      -372.3
        3194       -1234.      -1264.      -3311.      -112.7       172.2       183.7
        3195        2046.       96.19       3007.      -4853.       49.31      -241.8
        3196        167.5       1549.       1600.      -1226.       9.594      -228.8
        3197        1119.       1338.       2754.      -3193.      -54.10      -419.9
        3198       -891.8      -1292.      -3181.      -43.26       116.3       149.5
        3199        1001.       2573.      -3358.      -1708.      -26.27      -243.2
        3200        1510.       2644.      -2314.      -2079.      -42.03      -128.9
        3201        2970.      -713.2       4645.      -4772.      -168.5      -274.6
        3202        2670.      -1441.       2630.      -3179.      -60.55      -496.7
        3203        1397.       2142.       135.6      -3065.      -48.42      -253.8
        3204        351.2       1780.      -662.1      -1351.      -6.102      -189.5
        3205        3122.      -1064.       3968.      -4722.      -44.19      -287.5
        3206        3196.      -1304.       3488.      -3601.      -138.2      -448.0
        3207        2983.      -1266.       3374.      -4359.      -40.31      -350.8
        3208        2551.      -1460.       2434.      -4060.      -86.33      -346.3
        3209       -448.5       278.2      -6622.       492.0      -363.9      -138.6
        3210       -13.76      -750.5      -7213.       775.5      -375.3       561.7
        3211        151.7      -1035.      -7184.       270.1      -310.3       897.1
        3212       -294.9      -993.6      -6373.      -13.15      -166.5       878.2
        3213       -172.5      -1002.      -6092.      -118.3       22.82       1089.
        3214       -237.3      -933.3      -5061.      -52.47       134.4       1032.
        3215       -290.3      -1233.      -4680.      -66.93       136.2       1143.
        3216       -388.0      -1056.      -4408.      -66.28       141.7       1012.
        3217       -309.0      -874.8      -4228.      -89.72       80.86       912.6
        3218       -274.2      -873.8      -3909.      -76.73       100.7       889.3
        3219       -126.4      -864.4      -3430.      -2.689       66.91       697.1
        3220       -7.735      -691.1      -3135.      -33.61       10.01       551.7
        3221        60.52       2261.      -3691.       1111.      -742.4      -401.7
        3222        566.7       591.4      -4732.       996.8      -663.2       285.4
        3223        792.3      -527.2      -5041.       467.0      -603.6       936.7
        3224        718.0      -1014.      -5023.       97.47      -288.3       1309.
        3225        293.2      -1489.      -4812.      -8.502      -11.94       1615.
        3226        217.6      -1647.      -4496.      -129.8      -40.74       1629.
        3227        32.74      -1896.      -4002.      -181.9       101.5       1717.
        3228       -136.3      -1802.      -3698.      -143.8       172.3       1745.
        3229       -164.6      -1785.      -3479.      -148.0       135.5       1796.
        3230       -216.1      -1612.      -3374.      -120.0       142.0       1614.
        3231       -116.5      -1409.      -3145.      -36.56       92.47       1420.
        3232       -38.84      -1195.      -2849.       14.25       34.85       1169.
        3233        781.7       6084.      -178.7       1175.      -596.2      -2113.
        3234        1449.       3258.      -1558.       1326.      -688.0      -798.2
        3235        1937.       1111.      -2471.       811.0      -705.4       239.9
        3236        1538.      -650.6      -3000.       244.6      -459.9       1036.
        3237        1407.      -1566.      -2880.      -60.63      -213.5       1431.
        3238        1038.      -2413.      -2696.      -164.7      -173.7       1795.
        3239        468.3      -2680.      -2907.      -307.1      -3.305       1875.
        3240        123.5      -2674.      -2786.      -257.6       104.0       1935.
        3241       -24.12      -2693.      -2611.      -219.3       172.8       1931.
        3242       -116.2      -2650.      -2615.      -176.4       128.7       1886.
        3243       -106.7      -2605.      -2459.      -97.07       120.5       1748.
        3244       -25.03      -2181.      -2330.       4.525       32.07       1653.
        3245        1296.      1.1052E+04   1261.       1151.      -129.2      -2096.
        3246        2329.       6595.       529.5       920.6      -225.2      -1463.
        3247        2939.       2883.      -325.4       566.2      -438.9      -376.0
        3248        2962.       489.0      -906.8       171.5      -467.0       463.3
        3249        2421.      -1510.      -1345.      -54.83      -289.3       1071.
        3250        1623.      -2450.      -1526.      -275.8      -219.7       1360.
        3251        1022.      -3141.      -1800.      -316.3      -83.72       1480.
        3252        481.5      -3513.      -1930.      -330.1       16.93       1504.
        3253        158.1      -3739.      -1875.      -224.6       128.3       1511.
        3254       -46.37      -3748.      -1883.      -157.7       97.09       1665.
        3255       -94.67      -3862.      -1713.      -109.7       45.70       1669.
        3256       -73.08      -3783.      -1721.      -3.040      -2.247       1739.
        3257        1775.      1.4119E+04   1671.       550.3      -204.6      -1342.
        3258        2623.       9628.       819.4       312.0       110.0      -1314.
        3259        3347.       4978.       295.8       254.1      -74.03      -559.7
        3260        3564.       1721.      -294.6       154.0      -311.3      -107.3
        3261        2936.      -953.5      -560.6      -68.58      -317.2       464.0
        3262        2185.      -2478.      -729.1      -178.0      -328.9       705.5
        3263        1384.      -3493.      -900.4      -143.9      -213.6       772.8
        3264        827.4      -4073.      -1010.      -148.8      -87.24       814.5
        3265        440.3      -4424.      -859.5      -116.0      -26.69       818.2
        3266        62.51      -4680.      -1135.      -100.6       27.76       1106.
        3267       -72.42      -4840.      -1098.      -61.40       5.500       1034.
        3268       -69.80      -4876.      -1015.      -20.71      -35.65       1153.
        3269        1560.      1.3936E+04   1718.      -614.4      -166.0       512.2
        3270        2688.       8860.       1114.      -585.8       4.513      -139.7
        3271        3479.       5109.       558.0      -431.1      -40.08      -79.17
        3272        3812.       1853.       34.70      -172.1      -315.6      -119.4
        3273        3258.      -652.6      -210.6      -189.7      -391.1      -49.15
        3274        2352.      -2393.      -416.2      -115.5      -370.8     -0.7039
        3275        1610.      -3506.      -475.7      -37.64      -276.2      -63.42
        3276        992.1      -4274.      -496.3      -49.89      -169.4      -28.63
        3277        444.6      -4941.      -505.2      -15.24      -68.96      -12.02
        3278        124.1      -5095.      -712.9       17.06      -35.06      -57.75
        3279       -22.11      -5183.      -692.7      -4.053      -6.848       2.947
        3280       -60.08      -5583.      -650.9       23.53       49.63       100.1
        3281        1634.      1.0263E+04   1392.      -1295.      -205.3       1436.
        3282        2274.       7977.       764.9      -1244.      -137.1       713.1
        3283        3138.       4406.       159.3      -908.2      -154.5       308.7
        3284        3486.       1579.      -132.5      -461.3      -326.6      -209.5
        3285        3039.      -890.8      -517.3      -198.5      -396.7      -517.1
        3286        2308.      -2307.      -676.3       13.74      -361.5      -698.6
        3287        1438.      -3314.      -748.2       64.23      -216.7      -899.9
        3288        951.6      -4016.      -729.2       47.43      -191.3      -874.6
        3289        516.0      -4321.      -786.1       100.6      -108.6      -810.0
        3290        114.9      -4677.      -993.8       85.16      -39.05      -874.3
        3291       -87.53      -5184.      -883.4       107.3      -20.23      -1088.
        3292       -43.56      -5433.      -654.2       19.14       21.16      -582.5
        3293        890.8       7853.       974.1      -1527.      -511.6       2029.
        3294        1559.       4724.       117.6      -1611.      -501.1       907.3
        3295        2547.       2682.      -391.2      -1211.      -490.4       266.9
        3296        2961.       594.4      -852.1      -610.2      -454.9      -444.0
        3297        2548.      -1051.      -1248.      -201.0      -440.8      -920.1
        3298        1916.      -2138.      -1396.       26.58      -318.4      -1284.
        3299        1160.      -2868.      -1623.       164.3      -193.7      -1561.
        3300        665.4      -3332.      -1680.       257.8      -85.61      -1573.
        3301        275.0      -3589.      -1738.       232.5      -33.86      -1635.
        3302        13.70      -3764.      -1708.       186.5       36.07      -1641.
        3303       -34.46      -4065.      -1499.       140.9       13.72      -1635.
        3304       -139.7      -4694.      -1299.       21.99      -13.07      -1373.
        3305        73.65       3864.      -43.67      -1232.      -690.5       1376.
        3306        964.9       2436.      -1046.      -1565.      -583.7       383.7
        3307        2096.       813.0      -1555.      -1162.      -665.4      -313.3
        3308        2198.      -476.5      -2092.      -571.3      -676.3      -968.9
        3309        1860.      -1340.      -2436.      -153.6      -501.0      -1365.
        3310        1384.      -1888.      -2639.       18.06      -286.7      -1642.
        3311        874.0      -2246.      -2762.       131.6      -150.3      -1811.
        3312        340.9      -2519.      -2810.       178.5      -1.636      -1869.
        3313        112.1      -2649.      -2698.       191.7       49.40      -1868.
        3314       -40.28      -2695.      -2511.       169.4       86.49      -1884.
        3315       -55.75      -2892.      -2129.       103.9       47.36      -1873.
        3316       -42.61      -3028.      -1980.       56.77       29.28      -1899.
        3317       -492.8       926.7      -2016.      -817.2      -707.6       382.1
        3318        118.6       721.1      -2543.      -1276.      -714.6       90.28
        3319        1059.      -105.5      -3293.      -940.8      -539.2      -330.4
        3320        1336.      -722.4      -3461.      -410.9      -553.2      -933.0
        3321        1422.      -1310.      -3766.       35.70      -469.6      -1413.
        3322        1027.      -1440.      -4022.       38.64      -277.6      -1557.
        3323        458.6      -1650.      -4126.       88.10      -62.09      -1668.
        3324        101.7      -1703.      -3942.       130.1       60.70      -1659.
        3325       -67.67      -1655.      -3733.       109.2       110.0      -1589.
        3326       -117.7      -1618.      -3394.       77.47       91.82      -1540.
        3327       -102.7      -1732.      -3022.       39.04       49.69      -1576.
        3328       -34.39      -1886.      -2583.      0.2927       32.78      -1573.
        3329       -697.5       415.6      -2817.      -523.2      -314.3       229.7
        3330       -229.2      -94.57      -3223.      -943.9      -373.2       72.52
        3331        724.2      -748.5      -4567.      -734.6      -449.6      -327.6
        3332        1059.      -736.6      -4847.      -284.6      -251.1      -651.4
        3333        897.2      -1039.      -4995.       43.75      -169.8      -742.7
        3334        739.7      -1020.      -4850.       136.9      -210.7      -1074.
        3335        484.8      -843.2      -5022.       141.5      -59.64      -952.6
        3336        8.587      -963.8      -4826.       166.9       16.02      -943.2
        3337       -109.0      -870.6      -4422.       122.2       61.12      -932.8
        3338       -158.5      -795.8      -4156.       90.59       53.95      -959.5
        3339       -148.7      -830.0      -3821.       28.73       21.98      -926.1
        3340       -42.34      -925.7      -3165.       2.108       57.30      -760.6
        3341        2034.       1330.       414.7      -254.2      -408.4      -1333.
        3342        394.8       1954.       720.2      -254.2       46.03      -1739.
        3343        3929.       896.2       17.66      -87.69      -580.7      -957.2
        3344        2485.       1599.       713.1      -277.5      -348.4      -2149.
        3345        1669.       1868.       942.2      -771.0      -187.6      -2577.
        3346       -477.4       2237.       912.7      -553.2       231.0      -1792.
        3347        1311.       1968.       879.9      -591.7      -62.46      -2255.
        3348        1822.       1535.       597.9      -463.7      -365.9      -1501.
        3349        3582.       1099.       381.9      -499.7      -804.7      -1562.
        3350        418.0       1757.       577.7      -351.9       35.02      -1325.
        3351        3410.       659.3       169.2      -208.6      -927.0      -757.3
        3352        1097.       1189.       2195.      -1271.      -1250.      -881.1
        3353        894.1       389.1       3605.      -306.9      -2444.      -232.6
        3354        717.8       1125.       1630.      -805.3      -966.5      -571.0
        3355        648.3       991.7       1949.      -758.8      -1150.      -504.3
        3356        1223.       1736.       1840.      -2071.      -705.8      -1315.
        3357        916.3       1767.       1269.      -2062.      -200.3      -1307.
        3358        740.4       2217.       596.1      -1761.       237.0      -1031.
        3359        1280.       487.1       3552.      -598.1      -2564.      -436.2
        3360        1587.       851.1       3130.      -1213.      -2027.      -884.7
        3361        1264.       523.3       3939.      -856.3      -2456.      -605.9
        3362        1038.       1738.       1433.      -1780.      -514.1      -1126.
        3363        917.6       2247.       199.9      -1949.       323.5      -550.4
        3364        491.3       1812.       579.9      -1245.      -15.16      -511.7
        3365        193.6       963.6       2465.      -973.5      -615.1      -255.8
        3366        617.2       1221.       2440.      -1876.      -585.4      -575.8
        3367        334.6       2336.      -1774.      -1272.       782.5      -543.6
        3368        399.0       1857.      -1147.      -1163.       445.4      -433.4
        3369        3945.       142.6       1951.      -116.4      -3094.     -0.7067
        3370        1287.       1559.       2290.      -2971.      -392.5      -1016.
        3371        1265.       1874.       1363.      -2988.      -71.81      -760.9
        3372        1749.       2689.      -847.8      -3012.       984.1      -1036.
        3373        476.9       1656.       530.3      -1188.       30.72      -379.7
        3374        910.6       2063.       305.8      -1713.       128.5      -478.6
        3375        664.6       1721.       1925.      -2059.      -278.9      -484.9
        3376        1168.       2221.      -311.8      -2523.       416.1      -668.5
        3377        1244.       2562.      -1649.      -1971.       794.8      -562.2
        3378        62.11       4550.       1254.      -64.52      -55.10       451.5
        3379       -11.42       5279.       842.2      -190.5      -113.2       938.0
        3380        479.2       7297.      -23.48       11.92      -6.969       85.55
        3381        269.5       7259.      -35.17      -12.19       8.238       119.6
        3382        931.6       2273.      -81.63      -2242.       508.3      -825.6
        3383        2230.       3067.      -2084.      -2741.       1630.      -991.5
        3384        901.2       2654.      -1037.      -1799.       819.6      -642.7
        3385        2360.       2858.      -2451.      -2947.       1435.      -815.4
        3386        808.4       1827.       783.4      -663.4       59.95      -1947.
        3387       -920.4       2285.       1154.      -685.8       535.3      -2331.
        3388       -1733.       2943.       1801.      -863.3       1287.      -2540.
        3389       -1522.       2667.       1139.      -704.6       834.6      -2008.
        3390       -1333.       2733.       1713.      -1101.       1159.      -3099.
        3391        75.56       1860.       665.1      -534.4       241.5      -1495.
        3392       -102.3       2114.       896.4      -1027.       526.6      -2342.
        3393       -1349.       2673.       968.0      -764.7       1009.      -1908.
        3394        2616.       984.2       315.7      -315.5      -806.3      -857.9
        3395        4478.       733.0       399.8      -275.3      -1464.      -960.3
        3396        1539.       1704.       1048.      -981.9      -190.8      -2867.
        3397        1448.       2763.      -1185.      -2877.       2909.      -1823.
        3398        1583.       2810.      -1244.      -2882.       4268.      -2051.
        3399        2408.       2568.      -1798.      -2936.       4303.      -1938.
        3400       -2436.      -2067.      -1053.      -1793.       925.2      -3608.
        3401       -2536.      -1953.      -667.9      -1716.       870.7      -3817.
        3402        1464.      -1062.       2012.      -1850.       62.52      -4365.
        3403       -3710.      -2142.      -1606.      -1527.       1088.      -3525.
        3404       -2766.      -2011.      -1281.      -1993.       1451.      -3589.
        3405       -8028.      -2663.      -5975.      -1215.       2024.      -1968.
        3406       -6992.      -2786.      -4361.      -1244.       2205.      -2466.
        3407       -4148.      -2163.      -2789.      -1432.       827.6      -3091.
        3408       -8872.      -2576.      -6329.      -1077.       1809.      -1964.
        3409       -5231.      -2454.      -2929.      -1484.       1593.      -3100.
        3410        1553.       1863.       1042.      -1111.      -441.3      -2270.
        3411       -507.4       2492.       1398.      -1305.       1014.      -3086.
        3412       -977.6       2331.       1181.      -1142.       1399.      -2390.
        3413        1385.       1667.       808.7      -911.1      -343.5      -1945.
        3414        2118.       1663.       1396.      -1243.      -429.9      -3027.
        3415       -9.654       2249.       864.2      -904.5       569.0      -1711.
        3416        337.7       2245.       803.0      -839.2       316.5      -1708.
        3417      -0.3441       1812.       360.4      -643.6       212.6      -1226.
        3418        4063.       947.6       1327.      -999.8      -1801.      -1909.
        3419        4070.       966.1       793.7      -715.6      -1366.      -1763.
        3420        4726.       640.3       1581.      -1209.      -1611.      -2421.
        3421        796.5      -3716.      -1264.      -109.9      -127.6       250.5
        3422        827.8      -4051.      -789.8      -83.96      -177.7       247.7
        3423        649.8      -3648.      -1362.      -315.8      -31.53       586.7
        3424        665.7      -3688.      -1304.      -323.1      -33.35       1021.
        3425        2204.       985.7       403.7      -397.7      -881.8      -884.0
        3426        2303.       1551.       790.7      -619.3      -536.7      -1530.
        3427        2835.       1085.       621.1      -593.5      -1304.      -1342.
        3428        245.7       1489.       1399.      -1592.       487.3      -4061.
        3429       -2419.       1533.       1676.      -1312.       1769.      -3748.
        3430       -3052.       94.29       541.6      -1530.       1514.      -3888.
        3431        470.4       805.5       1275.      -1963.       466.5      -4248.
        3432        2030.       1302.       1370.      -1197.      -278.9      -3635.
        3433        4099.       757.4       1786.      -1314.      -1048.      -3292.
        3434        284.3       1269.       1504.      -1295.       408.9      -4264.
        3435       -89.55       2120.       1082.      -1311.       651.2      -3398.
        3436        1292.       2062.       1485.      -2137.      -234.2      -2242.
        3437        2045.       1379.       1950.      -2103.      -1073.      -2238.
        3438        2482.       861.1       2851.      -2683.      -1307.      -2468.
        3439        447.1       1522.       393.5      -2920.       1028.      -2945.
        3440       -62.32       167.0      -391.4       93.11       120.9      -291.7
        3441       -246.5       924.6      -1217.      -135.9       399.1      -228.1
        3442        4204.       195.9       2350.      -1676.      -788.1      -3971.
        3443        3377.       760.4       1756.      -1696.      -751.9      -3454.
        3444        828.1       1778.       375.7      -501.7      -95.79      -1026.
        3445        917.9       1658.       1095.      -1617.       140.8      -3200.
        3446       -1394.       2676.       673.8      -933.2       1410.      -1899.
        3447       -2136.       3044.       1865.      -1101.       2014.      -2715.
        3448       -1123.       2748.      -668.4      -1205.       2054.      -1404.
        3449       -860.7       2770.      -1193.      -1365.       2391.      -1323.
        3450       -207.1       2782.       27.90      -1428.       1786.      -1607.
        3451       -530.0       1909.      -554.2      -736.2       947.4      -875.0
        3452       -1414.       1910.      -1356.      -684.4       1677.      -707.9
        3453       -1758.       2777.      -1388.      -1271.       2797.      -1261.
        3454        469.4       1711.       471.3      -980.5       185.2      -1194.
        3455       -501.9       1684.      -272.4      -530.5       730.7      -806.2
        3456       -1586.       1868.      -1056.      -508.3       1561.      -746.0
        3457        229.6       2663.       530.2      -1606.       1190.      -1799.
        3458       -730.2       2746.      -35.10      -2035.       3193.      -2365.
        3459       -856.1       3169.      -41.59      -1901.       3134.      -2004.
        3460       -381.3       2433.       233.6      -1351.       1510.      -1547.
        3461       -1749.       3319.      -595.5      -1815.       3698.      -2100.
        3462       -1436.       3001.      -161.8      -1399.       2789.      -1814.
        3463       -1878.       2781.      -987.1      -1031.       2509.      -1293.
        3464        461.4       2227.       373.7      -1625.       646.9      -1629.
        3465        1106.       2417.       1050.      -2709.       341.8      -2157.
        3466        554.9       2243.       342.5      -1870.       753.6      -1630.
        3467        199.2       2584.       305.3      -2283.       1843.      -2308.
        3468        168.1       503.8       1526.      -6.592      -552.9      -155.4
        3469       -304.3       825.0      -728.9      -68.15       359.3      -262.3
        3470       -83.43       2858.       63.42      -2057.       2794.      -2210.
        3471        856.0       2051.       963.5      -1996.       96.84      -2244.
        3472        106.6       321.7       1481.      -29.80      -394.1      -176.7
        3473        754.2       1102.       3103.      -955.9      -1387.      -557.4
        3474        574.3       1724.       892.7      -1538.      -92.28      -766.8
        3475        657.9       756.2       3810.      -1108.      -1474.      -500.0
        3476        352.4       1178.       1977.      -709.7      -776.7      -461.9
        3477        285.5       937.9       2515.      -875.4      -838.8      -445.8
        3478        100.7       1072.       685.2      -523.3      -252.7      -271.0
        3479        774.5       2681.      -829.2      -1738.       1169.      -966.9
        3480        190.2       1747.      -486.0      -1027.       346.0      -473.0
        3481        968.1       2717.      -1481.      -2090.       1283.      -936.7
        3482        864.1       2439.      -671.0      -2225.       1022.      -1237.
        3483        886.4       1633.       2064.      -2018.      -505.2      -829.7
        3484        910.4       1940.       246.5      -2691.       372.3      -1065.
        3485        956.9       1079.       2811.      -1927.      -1000.      -892.7
        3486        811.8       1371.       1906.      -1576.      -764.4      -769.3
        3487        66.80       2318.       1205.      -311.1       224.3      -2784.
        3488       -2491.       2842.       2336.      -576.6       1003.      -2931.
        3489       -393.1       2507.       1316.      -523.7       337.9      -2336.
        3490       -1210.       2559.       1501.      -304.9       417.3      -2522.
        3491        1593.       1907.       1121.      -685.4      -63.45      -3279.
        3492        2454.       1375.       976.7      -498.1      -132.7      -3276.
        3493       -1185.       2328.       1811.      -652.7       589.3      -3280.
        3494       -176.6       1921.       1532.      -625.3       255.4      -3695.
        3495        607.3       1240.       1408.      -761.0       146.9      -4307.
        3496       -1203.       1808.       1648.      -919.9       709.7      -4068.
        3497       -51.87       5209.       1075.      -77.80       5.833       441.5
        3498        458.7       2038.       1355.      -319.7       132.0      -3236.
        3499        2084.       1304.       1491.      -375.9      -46.31      -4190.
        3500       -2269.       2295.       2427.      -552.9       683.4      -3344.
        3501        54.78       2410.       684.4      -1592.       1055.      -1937.
        3502        970.1       1702.       991.3      -1187.      -226.4      -1456.
        3503        1303.       1599.       894.0      -1093.      -449.7      -1550.
        3504        475.6       1812.       554.7      -751.4       16.38      -1137.
        3505       -20.95       2623.       575.6      -2210.       1798.      -2429.
        3506       -649.5       2823.       576.0      -1924.       2769.      -2421.
        3507        979.2       2209.       1052.      -1724.       111.7      -2148.
        3508       -499.5       2694.       662.8      -2029.       2094.      -2647.
        3509       -718.1       2758.       529.0      -1364.       1670.      -1884.
        3510        257.2       2545.       960.5      -1274.       752.4      -2134.
        3511       -1222.       2783.       841.9      -1591.       2735.      -2630.
        3512        417.0       1399.       2270.      -1130.      -343.4      -240.9
        3513        577.0       1390.       3057.      -1914.      -412.5      -416.4
        3514       -81.52       595.6       4955.      -1013.      -749.4      -289.7
        3515        339.6       1425.       1673.      -1274.      -168.9      -237.8
        3516       -69.08       464.7       4730.      -610.6      -985.1      -199.1
        3517        446.0       1689.       242.8      -1250.       7.653      -345.8
        3518       -96.23       715.3       2745.      -479.3      -375.6      -212.2
        3519        250.2       1059.       2354.      -957.2      -480.9      -300.2
        3520        299.7       845.4       4145.      -1576.      -838.8      -392.3
        3521       -2340.      -51.94      -4648.       414.4       3860.       225.3
        3522        111.3       1124.       1736.      -512.2      -329.9      -178.7
        3523        1414.       2460.      -933.2      -2334.       406.5      -442.7
        3524        2251.       2890.      -2332.      -2816.       943.5      -503.3
        3525        1126.       2102.       532.0      -2816.       154.1      -581.6
        3526        626.1       1627.       1843.      -2183.      -78.66      -311.7
        3527       -77.80       906.5       699.5      -381.9      -68.00      -146.8
        3528        355.9       1757.      -1065.      -1129.       301.8      -279.2
        3529        1761.       1660.       1002.      -966.1      -804.7      -1751.
        3530        504.5       1512.       472.2      -601.4      -160.4      -1263.
        3531        275.0       2209.       670.6      -995.2       325.2      -1549.
        3532        1260.       2004.       1219.      -1538.      -101.3      -2596.
        3533        88.91       2345.       1168.      -1384.       885.1      -2680.
        3534        3066.       940.8       1327.      -990.6      -1742.      -1612.
        3535        1791.       1793.       1303.      -1482.      -455.4      -2761.
        3536        2156.       1064.       954.9      -829.6      -1242.      -1273.
        3537        3640.       890.8       1620.      -1313.      -1744.      -2295.
        3538        592.6       1961.       857.1      -1575.       372.5      -2532.
        3539       -55.87       2141.       881.5      -2130.       1166.      -3230.
        3540        1666.       1455.       1530.      -1968.      -311.9      -3047.
        3541        452.2       2202.       1162.      -1934.       800.9      -3411.
        3542        1957.       1387.       1670.      -1915.      -337.3      -3472.
        3543        2190.       1312.       1710.      -1632.      -1045.      -2329.
        3544        3968.       805.4       2312.      -1457.      -2160.      -2068.
        3545        1956.       1427.       1232.      -1293.      -986.0      -1824.
        3546        110.8       1031.       827.5      -452.0      -220.7      -230.0
        3547        39.70       1104.       759.4      -372.9      -236.7      -235.9
        3548        17.36       521.0       4612.      -617.5      -1327.      -233.7
        3549       -53.98       397.4       3390.      -216.8      -896.6      -145.3
        3550        58.29       392.9       3411.      -205.6      -1196.      -152.9
        3551        654.2       1073.      -702.5      -3652.       1663.      -2460.
        3552       -1265.      -736.0      -3345.      -3100.       2755.      -2064.
        3553        1425.       106.8       700.0      -4113.       576.8      -2810.
        3554       -428.6      -395.6      -3607.      -3417.       2666.      -1857.
        3555        1596.       1067.       1571.      -3809.      -26.02      -2246.
        3556        1184.       1397.       933.0      -3720.       413.9      -2587.
        3557       -114.8       795.9      -1502.      -3181.       2950.      -2304.
        3558       -1839.      -486.4      -3781.       577.3       2841.       181.9
        3559        1227.       2266.      -1184.      -3001.       3084.      -2082.
        3560        3831.       958.0       1736.      -1417.      -1440.      -2690.
        3561       -805.9       2244.       1269.      -1526.       1367.      -3040.
        3562       -208.4       1981.       1071.      -1766.       838.3      -3388.
        3563        476.8       1663.       1402.      -1681.       550.6      -3807.
        3564        727.0       1787.       1178.      -1404.      -355.6      -932.1
        3565        308.9       1780.       346.6      -1177.       137.9      -639.0
        3566        303.4       1835.       87.41      -1120.       324.0      -704.3
        3567        659.7       2771.      -731.5      -1869.       1230.      -1178.
        3568        1117.       1133.       2877.      -1302.      -1411.      -849.1
        3569        432.9       1166.       1718.      -774.6      -890.6      -496.5
        3570       -174.4       437.8       6793.      -1256.      -1123.      -118.2
        3571        1625.       1431.       1709.      -1233.      -1217.      -1344.
        3572        627.5       1915.       560.8      -1110.       28.95      -992.9
        3573        1307.       1655.       1511.      -1519.      -834.7      -1410.
        3574        1352.       1236.       1512.      -694.6      -1194.      -754.6
        3575       -7223.      -250.4      -313.0       107.3       1773.       483.4
        3576       -9577.       581.8       564.6      -42.32       2331.       127.6
        3577        96.64      -4534.      -833.0       70.45       26.03      -237.5
        3578        40.49      -3861.      -1292.       128.3       56.88      -789.1
        3579        81.27      -3612.      -1300.       133.8       59.25      -368.7
        3580       -12.95      -4349.      -1044.       52.07       52.86      -637.9
        3581        737.3       1817.       740.7      -1213.      -139.0      -1016.
        3582       -127.9       2557.      -543.8      -1567.       1783.      -1465.
        3583        192.4       2433.      -213.7      -1541.       1225.      -1289.
        3584        127.3       1600.       121.8      -823.2       272.1      -676.0
        3585        904.5       1049.       1173.      -627.7      -932.7      -618.8
        3586        392.7       1256.       425.3      -489.3      -261.5      -512.3
        3587        638.0       1880.       699.1      -1159.      -65.56      -795.1
        3588        7152.      -920.0       6229.      -2029.      -863.7      -3480.
        3589        3661.      -976.8       3393.      -2106.      -363.7      -4193.
        3590        1825.      -1642.       2073.      -1723.       16.62      -3959.
        3591        1430.      -1482.       1878.      -2203.       187.5      -3965.
        3592        7305.      -527.7       6119.      -1925.      -1145.      -3782.
        3593       1.1075E+04  -354.9       7727.      -1069.      -1942.      -2461.
        3594        8043.      -783.8       6162.      -1499.      -909.7      -3692.
        3595        5448.      -511.8       4053.      -1853.      -826.9      -4097.
        3596        6768.      -1051.       5431.      -1637.      -494.2      -3633.
        3597        1576.       921.1       1949.      -645.6      -1694.      -579.8
        3598        1427.       635.6       1638.      -218.6      -1642.      -279.8
        3599        2333.       171.7       3130.      -182.5      -3479.      -130.6
        3600        1803.       513.3       2830.      -522.1      -2496.      -425.1
        3601        2459.       89.88       3655.      -472.1      -3893.      -398.1
        3602        1955.       697.2       2762.      -893.5      -2453.      -825.8
        3603        2148.       422.5       2419.      -494.9      -2574.      -477.2
        3604        1405.       1359.       1982.      -1442.      -1109.      -1244.
        3605        2011.       885.4       3149.      -984.7      -2352.      -853.7
        3606        1490.       347.6       2828.      -147.4      -2384.      -129.9
        3607        1203.       786.2       2202.      -742.0      -1548.      -643.9
        3608        1337.       386.7       2028.      -170.6      -1958.      -195.8
        3609        2214.      -1733.       1904.      -2864.       67.52      -3420.
        3610        6164.      -888.2       5731.      -2590.      -1035.      -3271.
        3611        2155.      -1451.       2120.      -2609.       76.69      -3739.
        3612        2491.      -936.8       2429.      -2872.       16.32      -3960.
        3613        7303.      -944.9       6630.      -2308.      -870.8      -3181.
        3614        6004.      -755.0       5669.      -3055.      -1008.      -2980.
        3615        1726.      -1219.       1728.      -3221.       281.5      -3565.
        3616        1390.      -1483.       1539.      -3055.       338.5      -3158.
        3617        2014.      -1476.       2314.      -2602.       155.8      -3172.
        3618       -3514.      -2293.      -3430.      -2299.       1172.      -2597.
        3619       -2935.      -2172.      -2235.      -2282.       1238.      -3037.
        3620        1714.      -1642.       1443.      -4011.       231.7      -1724.
        3621        1882.      -1806.       1932.      -3804.       92.94      -2127.
        3622       -3423.      -2105.      -4991.      -2907.       1057.      -1631.
        3623       -2037.      -2082.      -3254.      -3309.       1181.      -1936.
        3624        5454.      -1018.       6427.      -3597.      -669.6      -2044.
        3625        2040.      -1423.       2158.      -4032.       80.71      -2380.
        3626        2534.      -1250.       2705.      -4228.      -62.67      -2000.
        3627       -87.99      -1829.      -807.3      -3359.       487.0      -1756.
        3628        2745.      -1613.       2668.      -3645.      -52.62      -1655.
        3629        2900.      -1389.       2933.      -3846.       20.40      -1493.
        3630        1266.      -1583.       704.9      -4095.       339.0      -1641.
        3631       -2453.      -2311.      -4007.      -3161.       803.0      -1508.
        3632        5755.      -1346.       6604.      -3398.      -625.2      -1776.
        3633        5962.      -1035.       7230.      -3639.      -675.4      -1596.
        3634       -868.9       1780.       64.16      -528.9       747.8      -1057.
        3635       -1568.       2854.       639.6      -1099.       1969.      -2035.
        3636        1948.       1256.       630.2      -466.8      -949.5      -998.7
        3637        2896.       1042.       1029.      -567.7      -1558.      -1028.
        3638        981.1       942.9       137.4      -128.3      -221.6      -756.6
        3639       -2297.       2869.       1493.      -373.1       675.2      -2156.
        3640       -1390.       2141.       412.9      -340.0       519.0      -1141.
        3641        99.71       7588.       1.472       21.43      -37.94       163.0
        3642        49.92       7449.      -19.37       18.56      -18.88       144.8
        3643       -2294.       2956.       1372.      -614.2       936.2      -2143.
        3644       -1582.       2200.       420.9      -279.3       384.4      -1142.
        3645       -1427.       2110.       584.6      -184.8       324.2      -1438.
        3646        3882.       644.8       84.46      -94.50      -853.0      -739.8
        3647        1258.       1274.       254.0      -90.30      -96.64      -927.7
        3648        1417.      -1551.       1831.      -891.4       100.8      -4228.
        3649        2567.      -1352.       2646.      -821.3       83.78      -3657.
        3650       -4423.      -2413.      -2352.      -451.6       351.1      -3402.
        3651        3384.      -1319.       3303.      -365.9       41.16      -4076.
        3652        461.7      -1673.       1217.      -908.8       298.5      -4500.
        3653        3770.      -1177.       3280.      -369.7       4.293      -4449.
        3654       -2955.      -2284.      -791.6      -448.1       290.7      -4043.
        3655        7114.      -812.5       5383.      -929.5      -550.9      -4005.
        3656        8180.      -996.1       6364.      -582.3      -370.0      -3682.
        3657        7727.      -741.0       5429.      -661.9      -353.0      -4029.
        3658        2052.      -1571.       2082.      -1144.       102.5      -4448.
        3659        9882.      -863.6      1.0141E+04  -1077.      -209.0      -576.1
        3660        4219.      -1454.       4181.      -1417.      -425.4      -957.8
        3661        3919.      -1428.       3932.      -1125.      -132.8      -420.1
        3662        2939.      -1379.       2907.      -1743.      -99.83      -330.3
        3663       1.0815E+04  -405.9      1.0873E+04  -1162.      -317.5      -939.3
        3664       1.1415E+04  -548.1      1.1561E+04  -690.6       16.09      -616.0
        3665       1.9916E+04  -122.6      2.0438E+04  -766.2      -352.5      -506.3
        3666       1.7001E+04  -436.9      1.7464E+04  -845.4       15.85      -333.8
        3667        3809.       321.2       2133.      -404.2      -3660.      -488.9
        3668        4138.       195.4       2727.      -692.9      -3820.      -707.0
        3669        3455.       324.0       2477.      -489.8      -3669.      -477.7
        3670       1.2140E+04  -603.6      1.2376E+04  -1369.      -188.8      -556.5
        3671        8604.      -825.5       9122.      -1524.       14.99      -106.9
        3672       1.7980E+04  -573.4      1.8790E+04  -1025.      -304.4      -348.3
        3673        2567.       915.2       1917.      -1483.      -1793.      -1623.
        3674        3220.       506.1       2116.      -942.1      -2637.      -1032.
        3675        3170.       603.2       2619.      -1130.      -2680.      -1258.
        3676        3880.       714.2       2521.      -1551.      -2338.      -1799.
        3677        3271.       620.5       2025.      -1168.      -2439.      -1371.
        3678        2083.       1282.       1857.      -2173.      -962.6      -2397.
        3679        4134.       566.0       3108.      -1849.      -2382.      -2167.
        3680        3651.       829.9       3172.      -1810.      -2304.      -2067.
        3681        1052.       458.4       835.2      -26.93      -892.4      -154.7
        3682        867.5       338.9       855.6      -73.76      -859.4      -124.8
        3683        1858.       1377.       1417.      -1413.      -1079.      -1649.
        3684        1554.       1624.       1514.      -1397.      -967.4      -1532.
        3685        2553.      -1591.       2490.      -3102.       49.68      -1735.
        3686        9320.      -650.7       9882.      -2453.      -642.8      -1645.
        3687        7988.      -994.1       8459.      -2802.      -813.0      -1846.
        3688        6408.      -1370.       7016.      -3079.      -578.7      -1547.
        3689       -720.3      -1786.      -1290.      -3248.       349.7      -1405.
        3690        2479.      -1736.       2714.      -3390.      -50.56      -1454.
        3691        1603.      -1735.       1348.      -3346.       156.5      -2108.
        3692       -3772.      -2400.      -4617.      -2639.       675.7      -1580.
        3693        46.12      -2116.      0.5511      -2769.       261.8      -2279.
        3694       -578.4       616.5      -414.1      -227.7       437.8      -204.8
        3695       -663.1       770.0      -648.6      -171.5       528.0      -202.0
        3696        1862.       868.9       900.0      -520.6      -1208.      -703.3
        3697        279.5       1451.       197.7      -663.6       57.15      -464.8
        3698        560.6       972.8       952.9      -416.3      -624.3      -300.9
        3699        4358.       626.4       536.3      -409.7      -1808.      -924.9
        3700        1704.       517.7       3440.      -528.3      -2669.      -456.3
        3701        967.2       602.0       2334.      -264.4      -1711.      -225.8
        3702        1170.       382.1       3304.      -121.3      -2392.      -238.8
        3703        1390.       879.7       237.9      -135.5      -530.2      -447.0
        3704        2646.       603.8       120.5      -51.36      -835.7      -304.9
        3705        354.3       1060.       34.01      -212.6      -171.5      -673.8
        3706        1406.       360.7       109.0       11.25      -468.9      -109.0
        3707       -627.6       1802.       220.1      -387.2       386.5      -855.3
        3708       -390.5       577.7      -98.17      -34.29       66.35      -162.3
        3709       -3867.       77.21      -272.1       98.54       742.8       456.9
        3710       -1108.       729.4      -368.8      -178.5       349.0      -194.0
        3711        345.6       1255.      0.2406      -238.1      -152.9      -468.6
        3712        1466.       349.0       241.4      -140.5      -682.3      -48.68
        3713        1317.       1443.       2421.      -2950.      -630.5      -1242.
        3714       -3108.      -2042.      -670.5      -873.4       712.1      -4088.
        3715       -7696.      -2627.      -3294.      -819.5       1632.      -2481.
        3716       -7223.      -2018.      -1854.      -636.9       1533.      -2741.
        3717       -8809.      -2542.      -4042.      -550.6       1246.      -2433.
        3718        1650.       2825.      -1171.      -2899.       1386.      -1302.
        3719        2426.       9.003       2029.       50.26      -2522.      -15.41
        3720        1033.       2248.       362.4      -2535.       762.7      -1640.
        3721        1521.       1673.       2070.      -2871.      -546.7      -1799.
        3722        1253.       2599.      -413.8      -2805.       1414.      -1548.
        3723        1338.      -1658.       1723.      -2228.       165.9      -3357.
        3724        6878.      -1032.       6945.      -2268.      -656.9      -2849.
        3725        1617.      -1789.       1650.      -1914.       135.6      -2970.
        3726        6094.      -1286.       5899.      -1964.      -470.5      -2972.
        3727       -3452.      -2281.      -3280.      -1950.       1085.      -2855.
        3728        1846.      -1578.       1924.      -1936.       202.8      -3569.
        3729        5436.       396.4       3620.      -1370.      -3116.      -1799.
        3730        5877.       381.3       4049.      -1799.      -2391.      -2728.
        3731        4154.       614.8       2600.      -2038.      -1637.      -2850.
        3732        7354.       494.4       3957.      -889.0      -3838.      -1541.
        3733        7448.      -35.92       4551.      -1321.      -2933.      -2229.
        3734        3527.       396.2       2770.      -2510.      -988.9      -3577.
        3735        7862.      -299.6       5864.      -1730.      -2394.      -2704.
        3736        8785.      -82.99       6275.      -1058.      -3874.      -1636.
        3737        4543.       594.9       3634.      -2408.      -1760.      -3072.
        3738        3132.       138.1       2561.      -126.3      -3923.      -167.3
        3739        3250.       198.7       3055.      -376.0      -3999.      -423.7
        3740        2775.       63.92       2841.      -110.9      -3885.      -121.5
        3741        7880.      -105.2       6497.      -1772.      -2816.      -2483.
        3742        7189.       106.7       5735.      -1306.      -3549.      -1815.
        3743        4050.      -3.907       3462.      -2988.      -898.1      -3846.
        3744        2832.      -1112.       3151.      -4294.      -135.3      -1766.
        3745        2053.      -1088.       1889.      -4587.       94.23      -1540.
        3746        2276.      -1455.       2115.      -4256.       34.00      -1387.
        3747        5586.      -962.8       7942.      -3935.      -800.0      -1107.
        3748        5054.      -693.0       7723.      -3844.      -1138.      -1363.
        3749        6241.      -1254.       8029.      -3685.      -693.3      -1277.
        3750        5900.      -934.2       7515.      -3735.      -1005.      -1564.
        3751        705.0       372.4       827.2      -59.97      -781.6      -168.0
        3752       -979.6      -1897.      -2925.      -3867.       810.6      -1197.
        3753       -377.5      -1616.      -2102.      -3878.       746.5      -1611.
        3754       1.3848E+04  -392.9      1.3765E+04  -1379.      -533.4      -1220.
        3755       1.0479E+04  -567.7      1.0368E+04  -1709.      -211.6      -1715.
        3756       1.5461E+04  -18.39      1.5861E+04  -1340.      -690.7      -1196.
        3757       1.6781E+04  -725.3      1.6795E+04  -1087.      -1055.      -1054.
        3758       1.7547E+04  -305.2      1.7499E+04  -1180.      -740.8      -905.1
        3759        6775.      -1097.       6409.      -2006.      -260.6      -1737.
        3760        9192.      -760.7       9243.      -1853.      -176.7      -1323.
        3761       1.1859E+04  -426.6      1.1934E+04  -1434.      -235.6      -1411.
        3762       1.6870E+04  -105.9      1.7291E+04  -1347.      -416.7      -781.8
        3763       1.5047E+04  -424.7      1.5217E+04  -1023.      -396.1      -904.8
        3764       -4586.       3272.       1314.      -511.3       1480.      -2017.
        3765       -4382.       1469.       75.46      -83.96       1250.      -443.6
        3766       -2748.       1633.      -98.13      -237.4       693.0      -698.1
        3767       -3985.       1068.       17.38       1.695       931.8      -215.5
        3768       -5224.       310.6      -186.9       155.5       1570.       275.9
        3769        217.8       1115.       466.0      -503.3      -280.6      -362.5
        3770        202.2       2577.      -2145.      -1482.       1728.      -812.9
        3771        2641.       502.1       1949.      -201.0      -2784.      -286.4
        3772        3708.       283.5       2136.      -67.73      -3771.      -166.3
        3773        3471.       88.40       2316.      -146.4      -3848.      -149.6
        3774        314.1       1594.       662.0      -1036.      -154.9      -565.1
        3775        212.8       923.8       871.6      -410.9      -473.3      -267.7
        3776       -31.77       1632.      -750.9      -860.9       521.4      -527.3
        3777        892.7       2217.       234.1      -2070.       493.5      -1082.
        3778        1790.       138.3       1870.       64.05      -2031.      -71.20
        3779        687.7      -1430.       1509.      -1054.       133.6      -4759.
        3780       -3044.      -1762.      -202.3      -510.6       288.5      -4188.
        3781        3530.      -889.4       2890.      -555.4      -69.86      -4738.
        3782       -954.0      -1589.       479.4      -491.4       256.8      -4469.
        3783       -5102.      -2498.      -1923.      -505.8       695.0      -3758.
        3784       -6288.      -2264.      -2245.      -195.0       363.5      -3183.
        3785        19.77      -1540.       1205.      -199.2       184.3      -4626.
        3786       -641.1      -1691.       667.3      -215.8       178.8      -4187.
        3787        6027.       144.6      -18.54       52.27      -2576.      -135.6
        3788        5954.       307.9      -191.6      -132.6      -2094.      -309.0
        3789        6450.       225.9       119.8      -130.6      -2719.      -391.2
        3790        700.6       1435.       672.4      -634.3      -278.5      -840.1
        3791        1537.       958.6       1023.      -452.5      -1153.      -569.5
        3792        2085.       1091.       1643.      -817.3      -1614.      -1014.
        3793        2421.       962.2       1503.      -873.0      -1720.      -1004.
        3794        5440.       100.4       331.7      -12.56      -1998.       5.600
        3795        5452.       32.52       323.2      -59.62      -2184.       112.8
        3796       -7956.       8709.       1185.      -578.2       2737.      -2646.
        3797        3414.       650.6       1520.      -744.9      -2321.      -1088.
        3798       -996.2       2194.       18.52      -656.5       1015.      -1108.
        3799       -390.2       2715.       1109.      -1826.       1836.      -2810.
        3800        2116.      -692.1       2307.      -4539.      -208.4      -2198.
        3801        327.9      -706.3      -947.8      -4434.       1216.      -2278.
        3802       -7.582      -1310.      -1635.      -4116.       1184.      -2130.
        3803        1260.       149.4       607.4      -4582.       525.3      -2223.
        3804        4686.      -535.0       5889.      -3861.      -1157.      -2264.
        3805        4073.      -702.8       5577.      -4038.      -1069.      -1930.
        3806        1212.      -874.8       270.8      -4509.       475.9      -1952.
        3807        2930.       1065.       955.0      -241.3      -110.7      -3298.
        3808        5078.       760.7       1683.      -85.16      -177.3      -3698.
        3809        5439.       958.4       980.3      -172.7      -377.2      -2564.
        3810        5443.       525.0       1809.      -371.4      -368.9      -3616.
        3811        725.2       1653.       1319.      -115.3       70.46      -3697.
        3812        1982.       1550.       795.2      -189.1      -32.27      -2628.
        3813        4420.       915.9       713.0      -59.20      -164.6      -2571.
        3814        1322.       2772.      -1896.      -1921.       546.1      -433.3
        3815        2111.      -613.9       2017.      -4085.       73.30      -2866.
        3816        1910.      -1043.       1758.      -3742.       107.4      -3176.
        3817        2378.      -947.4       2748.      -3882.      -40.82      -2804.
        3818       -1038.      -1982.      -1422.      -3598.       1183.      -2543.
        3819       -1945.      -1581.      -3956.      -3064.       2151.      -1835.
        3820       -510.7      -1345.      -1400.      -3790.       1426.      -2652.
        3821        1089.      -1115.       612.1      -4239.       433.8      -2528.
        3822       -9217.       1886.       330.0      -96.77       2940.      -502.6
        3823        1978.      -537.3       1671.      -4002.       189.0      -3115.
        3824        3690.       316.1       4460.      -3694.      -1194.      -2681.
        3825        4713.      -276.7       5442.      -3596.      -1163.      -2604.
        3826        3167.      -285.4       3740.      -4047.      -752.8      -2623.
        3827        3093.       651.0       3755.      -3616.      -1107.      -2380.
        3828        1495.       134.3       1132.      -4377.       398.4      -2558.
        3829        2389.      -56.76       3622.      -4697.      -162.5      -694.1
        3830        4056.      -180.1       7466.      -4139.      -305.6      -398.6
        3831        3089.      -68.15       7399.      -3867.      -521.1      -464.4
        3832        1992.       54.47       3206.      -4820.      -172.5      -463.8
        3833        2067.       946.5       1746.      -2387.      -416.7      -3450.
        3834        3319.       924.3       2420.      -2246.      -1324.      -2860.
        3835        985.8       1894.       1216.      -2365.       379.3      -3015.
        3836       -430.6       1472.       620.9      -2452.       1535.      -3582.
        3837        930.5       451.1       1000.      -2871.       465.4      -3607.
        3838        1146.       444.2       1362.      -2631.       281.8      -4012.
        3839        1616.       1684.       1967.      -2585.      -588.8      -1833.
        3840        2159.       1042.       3677.      -1990.      -2055.      -1455.
        3841        1163.       1935.       1051.      -2783.       160.4      -1491.
        3842        1554.       961.2       3629.      -1605.      -2017.      -1141.
        3843        1693.       1504.       2491.      -3217.      -657.9      -1682.
        3844        2351.       915.7       4219.      -2256.      -2156.      -1539.
        3845        2597.       718.1       4940.      -2785.      -1927.      -1570.
        3846        2267.       835.0       3589.      -3043.      -1395.      -1848.
        3847        976.4       1775.       562.1      -3118.       723.6      -2291.
        3848        1129.       1922.      -105.0      -3430.       1075.      -2090.
        3849        3012.       2714.      -2935.      -3416.       858.5      -599.6
        3850        4365.       2899.      -4318.      -3617.       1815.      -729.5
        3851        3483.       2878.      -3694.      -3435.       1577.      -720.9
        3852        5440.       2599.      -4641.      -3657.       1624.      -533.4
        3853        6439.      -1004.       6921.      -3240.      -880.3      -2336.
        3854        1346.      -1737.       1253.      -3051.       106.8      -2790.
        3855        1617.      -1555.       1503.      -3658.       109.7      -2566.
        3856        2580.      -1410.       2739.      -3423.      -103.4      -3129.
        3857        7307.      -742.0       7557.      -2884.      -1030.      -2606.
        3858       -9720.       6681.       415.8      -305.0       1646.      -2152.
        3859        6381.      -826.4       6327.      -2683.      -527.1      -2700.
        3860        5391.       2732.      -4529.      -3836.       976.7      -376.2
        3861        3697.       2614.      -3115.      -3681.       392.9      -187.4
        3862        1811.       623.0       4469.      -2585.      -1707.      -1307.
        3863        1435.       521.4       5259.      -1832.      -2047.      -964.8
        3864        1892.       619.3       4567.      -3036.      -1428.      -1518.
        3865        1105.       1701.       1467.      -2355.      -302.0      -1215.
        3866        1417.       2512.      -614.1      -2864.       1364.      -1591.
        3867        1355.       1695.       2077.      -3191.      -394.5      -1565.
        3868        1552.       1117.       1958.      -3929.      -162.8      -1660.
        3869       -3210.       3275.       2583.      -632.9       1378.      -2879.
        3870        824.3       779.1       4681.      -1728.      -1496.      -654.8
        3871        1512.       682.3       4796.      -2420.      -1463.      -899.8
        3872        1322.       2000.      -35.16      -3623.       477.5      -1184.
        3873        1716.       688.6       4230.      -3317.      -1134.      -1288.
        3874        1273.       1970.      -158.7      -3345.       722.6      -1647.
        3875        2039.      -1812.       2338.      -1440.       314.4      -3706.
        3876       -1229.      -1890.      -671.0      -1527.       426.5      -3090.
        3877        6820.      -1176.       6193.      -1241.      -232.2      -3434.
        3878        6858.      -1099.       6231.      -1349.      -473.2      -3053.
        3879       -731.5      -1761.       175.2      -1211.       364.4      -3393.
        3880        9026.      -648.3       8140.      -1430.      -951.8      -3072.
        3881        2237.      -1934.       2390.      -1342.      -68.25      -3944.
        3882       -3823.      -2343.      -2316.      -1327.       687.2      -3274.
        3883        1061.       2785.      -4931.      -1220.       251.5      -147.9
        3884        332.7       1931.      -3106.      -964.5       53.69      -125.3
        3885        3482.       487.0       684.5      -328.7      -1887.      -588.1
        3886        2511.       558.5       671.0      -116.2      -1492.      -312.5
        3887        1677.       870.3       680.2      -390.4      -1050.      -763.4
        3888        2420.       541.6       460.7      -104.7      -1264.      -215.6
        3889        3710.       589.8       551.6      -253.6      -1782.      -439.4
        3890        2356.       551.7       363.6      -154.0      -1162.      -228.9
        3891        3402.       792.6       995.0      -804.0      -1833.      -1384.
        3892       -783.3       3123.      -536.3      -2033.       3555.      -2141.
        3893       -735.4       3187.       81.80      -2784.       5383.      -2917.
        3894        636.0       2108.      -2833.      -1385.       367.5      -250.5
        3895        482.9       2131.      -3012.      -1247.       268.5      -185.7
        3896        72.77       1192.      -2993.      -534.6       383.6      -109.3
        3897        1199.       2721.      -4253.      -1554.       590.9      -241.8
        3898       -1248.       3289.       441.6      -1814.       3452.      -2510.
        3899        1556.       1213.       1555.      -869.6      -1238.      -1069.
        3900        2566.       679.7       2598.      -934.3      -2560.      -943.4
        3901        2040.       2896.      -3057.      -2529.       151.0      -125.6
        3902        877.8       2077.      -546.4      -1709.       17.76      -73.88
        3903        1250.       1106.       182.4      -175.3      -324.3      -613.2
        3904        3827.       1118.       652.5      -484.2      -1039.      -1808.
        3905        3472.       236.5       5417.      -3534.      -1748.      -1983.
        3906        1434.       1519.       198.3      -3861.       640.3      -2069.
        3907        2019.       645.6       3138.      -3788.      -622.5      -1938.
        3908        676.5       1126.      -2192.      -3419.       2862.      -2101.
        3909        807.1       748.7      -1184.      -4207.       1517.      -2274.
        3910        6988.      -1019.       7400.      -2783.      -513.6      -1462.
        3911       1.2237E+04  -263.1      1.4112E+04  -2106.      -909.3      -916.6
        3912       1.3881E+04  -326.8      1.5141E+04  -1754.      -1347.      -1132.
        3913       -549.3      -1737.      -1002.      -2791.       124.0      -1029.
        3914        7632.      -1017.       8359.      -2836.      -274.2      -812.5
        3915       -768.0      -1913.      -1020.      -2818.       283.7      -1439.
        3916       1.2969E+04  -349.9      1.3904E+04  -1820.      -761.4      -1271.
        3917        7123.      -1011.       7849.      -2260.      -357.7      -1307.
        3918        5265.      -1191.       5829.      -2445.      -154.6      -1780.
        3919       -489.3       3090.      -2712.      -1502.       2592.      -986.8
        3920        812.7       3557.      -2599.      -2903.       4022.      -1891.
        3921       -5.202       2940.      -2543.      -1671.       2338.      -987.1
        3922        838.1       4045.      -3536.      -3057.       4292.      -1928.
        3923        444.0       2765.      -1556.      -2008.       2412.      -1378.
        3924       -417.5       2562.      -1677.      -1142.       1908.      -977.6
        3925       -142.6       2290.      -1533.      -1083.       1366.      -796.3
        3926       -1197.       3391.      -3664.      -1099.       3258.      -751.3
        3927       -1274.       1591.      -2605.      -468.7       2185.      -371.0
        3928       -894.2       3351.      -2494.      -1687.       3139.      -1345.
        3929       -611.1       3431.      -3700.      -1302.       3032.      -763.0
        3930       -47.04       4413.      -3537.      -2816.       4461.      -1919.
        3931        3986.       3015.      -3922.      -3388.       415.8      -236.3
        3932        1903.       2747.      -1666.      -2693.       176.6      -129.8
        3933        3647.       3157.      -4427.      -3267.       454.2      -203.7
        3934       -8128.       751.2       293.5       88.59       2280.       154.9
        3935       -4712.       392.7      -962.1       153.7       2476.       367.9
        3936       -5491.       4150.      -52.77      -641.3       3389.      -1036.
        3937       -6265.       931.7      -624.6      -18.60       2955.       276.2
        3938       -4448.       1590.      -414.3      -186.4       2336.      -131.1
        3939       -6172.      -257.9      -1107.       180.4       3438.       462.2
        3940       -4490.       3388.      -254.4      -810.1       3166.      -1371.
        3941       -4045.       3072.      -29.14      -680.0       2588.      -1245.
        3942       -3623.       1087.      -776.8      -153.2       1932.      -324.2
        3943       -3184.       82.78      -779.3       159.6       1410.       310.2
        3944       -4934.       1318.      -251.2      -13.78       2161.       56.41
        3945       -4948.       3451.       331.1      -601.2       2631.      -1228.
        3946       -4979.      -443.3      -689.0       143.8       2090.       547.9
        3947       -3495.       90.65      -763.1       102.6       1443.       446.1
        3948        3768.       1260.       634.1      -638.2      -589.2      -2325.
        3949        4273.       923.5       366.6      -212.6      -817.3      -1464.
        3950        3378.       1150.       173.4      -52.69      -407.6      -1322.
        3951        598.7       1748.       555.2      -196.6      -15.25      -1623.
        3952        5245.       764.0       37.63      -81.75      -657.3      -1512.
        3953        2654.       2880.      -2818.      -3225.       561.1      -269.5
        3954        2840.       2936.      -3706.      -2976.       863.8      -376.4
        3955        5265.       3033.      -5169.      -3870.       640.4      -246.9
        3956        1486.       1068.       3654.      -2033.      -1753.      -1074.
        3957        1114.       912.7       3330.      -1839.      -1535.      -966.3
        3958        1431.       2281.      -646.8      -3303.       1410.      -1731.
        3959        39.29      -4648.      -889.5      -21.98      -7.251       490.4
        3960        72.69      -4126.      -1186.      -49.10      -3.907       1020.
        3961        3673.      -1357.       3557.      -1229.      -127.8      -2143.
        3962       -3940.      -1930.      -4006.      -1238.       326.3      -1599.
        3963        995.3      -1968.       892.4      -1701.      -131.6      -1654.
        3964        1297.      -1696.       1285.      -1771.       96.55      -1889.
        3965        5817.      -995.4       5683.      -901.1      -170.1      -1736.
        3966        8745.      -814.9       8592.      -1167.      -458.0      -1568.
        3967       1.0719E+04  -781.9      1.0284E+04  -1135.      -334.1      -1833.
        3968        2373.      -1373.       2260.      -1532.      -58.82      -2557.
        3969       -5995.      -1894.      -5600.      -1495.       413.3      -1798.
        3970        9888.      -1160.      1.0013E+04  -1539.      -407.2      -1816.
        3971       1.1527E+04  -959.1      1.0839E+04  -1158.      -479.6      -2170.
        3972        5694.      -1301.       5595.      -960.2      -135.4      -2589.
        3973       -150.6       7762.      -9043.      -1667.       2166.      -998.9
        3974       -32.30       7292.      -9103.      -1565.       1644.      -1086.
        3975        9421.      -986.1       9090.      -720.3      -274.9      -2012.
        3976        2310.       3289.      -3148.      -2851.       2120.      -990.3
        3977        1747.       3019.      -2037.      -2694.       2342.      -1348.
        3978        1543.       2989.      -2938.      -2492.       2491.      -1136.
        3979        106.6       1873.      -1239.      -946.5       621.8      -439.7
        3980        684.9       2844.      -2734.      -1871.       1507.      -667.9
        3981        1749.       3184.      -3687.      -2690.       2524.      -1036.
        3982        282.5       2579.      -2211.      -1507.       1433.      -674.8
        3983        838.9      -817.6      -1640.      -4697.       729.1      -1424.
        3984        903.9       28.66      -4250.      -3788.       1537.      -1121.
        3985        1529.       259.6       934.1      -4596.       148.8      -1349.
        3986        972.6       7.352      -4000.      -3662.       2077.      -1390.
        3987        909.2      -612.7      -2329.      -4616.       782.1      -926.8
        3988       -728.0      -1813.      -5044.      -3616.       1155.      -864.8
        3989        1644.      -1050.       836.6      -4775.       178.5      -1272.
        3990        3547.      -395.0       5620.      -4421.      -588.7      -1237.
        3991        2866.      -276.0       3969.      -4551.      -495.6      -1705.
        3992       -1328.      -1874.      -5249.      -3108.       1902.      -1372.
        3993        238.3      -1602.      -2162.      -4323.       792.0      -1401.
        3994       -1150.      -1955.      -6376.      -3089.       1894.      -1070.
        3995        296.0       7904.       356.0       60.22      -311.3      -8.850
        3996        332.5       7818.       336.2       48.77      -327.4       10.02
        3997        1477.       2800.      -3592.      -2181.       372.8      -252.6
        3998        3167.       3546.      -5552.      -3218.       366.3      -241.0
        3999        1480.       2923.      -4213.      -2251.       210.0      -93.60
        4000        2195.       3406.      -5446.      -2711.       597.1      -198.9
        4001        3165.       413.0       4891.      -1289.      -3466.      -986.8
        4002        2897.       607.0       4698.      -2253.      -2629.      -1557.
        4003        2515.       907.8       3658.      -2118.      -2015.      -1718.
        4004        3631.       721.4       5330.      -1906.      -3007.      -1420.
        4005        2517.       279.1       5811.      -1255.      -3531.      -910.8
        4006        3175.       236.6       6327.      -1722.      -3229.      -1154.
        4007        3208.       94.55       5850.      -1263.      -3866.      -934.6
        4008        4215.       317.3       6789.      -2050.      -3135.      -1365.
        4009        2391.       872.9       3370.      -2795.      -1460.      -2245.
        4010        2117.      -1366.       2203.      -1403.       69.30      -4275.
        4011        6830.      -916.7       4831.      -1131.      -678.1      -4104.
        4012        2104.       2865.      -999.8      -3376.       161.3      -100.0
        4013       -2815.      -2159.      -1435.      -897.6       467.3      -3696.
        4014       -3674.      -2174.      -1662.      -1362.       758.1      -3674.
        4015        7205.      -1028.       5825.      -1256.      -764.8      -3647.
        4016        4391.       300.6       377.7      -30.34      -1971.      -133.0
        4017        3915.       59.49       519.0      -76.84      -2032.      -104.2
        4018        4736.       554.9       781.1      -274.5      -2546.      -681.4
        4019        5149.       233.6       364.5      -61.74      -2739.      -192.3
        4020       -5203.      -2139.      -5575.      -1026.       121.1      -960.1
        4021      -1.3164E+04  -3263.     -1.3073E+04  -777.2       371.6      -867.9
        4022       -9869.      -2343.      -9802.      -877.4       443.2      -996.4
        4023      -1.4861E+04  -3205.     -1.4532E+04  -393.1       226.2      -848.6
        4024       -1538.      -2043.      -1574.      -1406.      -133.7      -961.6
        4025       -7218.      -2300.      -7418.      -1055.       329.8      -1011.
        4026      -1.2719E+04  -2683.     -1.2516E+04  -840.2       249.3      -710.0
        4027       -6623.      -2360.      -6404.      -1389.       394.0      -1379.
        4028      -1.6076E+04  -3185.     -1.5839E+04  -510.9       412.6      -490.1
        4029      -1.4944E+04  -3326.     -1.4916E+04  -669.5       703.5      -609.9
        4030       -8542.      -2477.      -8533.      -1265.       236.5      -733.1
        4031        1816.       573.0       4130.      -3924.      -740.4      -1037.
        4032        1671.       814.6       4319.      -3792.      -540.5      -734.3
        4033        1218.       292.3       7378.      -2083.      -1601.      -476.2
        4034        1128.       1217.       4083.      -2902.      -721.4      -721.0
        4035        2695.      -5.337       8111.      -2594.      -1523.      -660.3
        4036        1700.       1436.      -1622.      -4400.       851.5      -1134.
        4037        1501.       1631.       1399.      -4011.       44.96      -1114.
        4038        1584.       555.0       917.0      -4665.       134.5      -976.5
        4039        8260.      -1269.       7951.      -85.84       43.67      -1876.
        4040       1.8216E+04  -541.2      1.7616E+04  -245.5      -117.5      -971.1
        4041        7098.      -1086.       6893.      -18.51       123.3      -1565.
        4042        2709.       296.3       6032.      -4078.      -620.0      -737.1
        4043       -1045.      -2020.      -2844.      -3584.       891.5      -1728.
        4044       -7309.      -2478.      -8404.      -1885.       1332.      -1399.
        4045       -3034.      -2333.      -3805.      -3002.       945.2      -1861.
        4046       -6092.      -2547.      -7502.      -2350.       1140.      -1287.
        4047       -8573.      -2622.      -9286.      -1684.       1235.      -1245.
        4048       -8672.      -2574.     -1.0079E+04  -1890.       1015.      -1039.
        4049       1.4541E+04  -682.0      1.4668E+04  -532.9      -1.079      -835.5
        4050       2.0485E+04  -562.0      2.0107E+04  -302.1       60.95      -641.4
        4051       1.4445E+04  -930.2      1.4146E+04  -86.12       120.8      -1062.
        4052       1.1594E+04  -745.9      1.0920E+04  -257.9      -178.4      -1285.
        4053       -1811.      -1878.      -1361.      -176.6       102.9      -1716.
        4054       -669.2      -2012.      -926.6      -2660.       433.5      -2215.
        4055       -1095.      -2065.      -1345.      -2633.       313.2      -1762.
        4056       -1498.       2636.      -376.9      -1003.       2057.      -1478.
        4057       -755.8       1949.      -227.0      -696.7       897.9      -881.9
        4058       -1166.       2683.       494.9      -1242.       1827.      -1852.
        4059       -2422.       2580.      -2995.      -349.2       3496.      -209.9
        4060       -2505.       298.3      -3175.       349.1       3046.       270.8
        4061       -3562.       458.3      -3562.       351.5       3955.       314.5
        4062       -3083.       792.9      -3911.       277.9       3945.       305.0
        4063       -2029.       2720.      -3001.      -642.6       3356.      -491.8
        4064       -2186.       4055.      -3625.      -929.3       4365.      -755.5
        4065       -1599.       3975.      -3107.      -1723.       4085.      -1446.
        4066       -2147.       2636.      -3679.      -206.0       3717.      -269.9
        4067       -1846.       4546.      -2752.      -1727.       4328.      -1514.
        4068       -2777.       3947.      -3051.      -703.1       4209.      -672.5
        4069        1151.       1511.       2100.      -3332.      -157.5      -774.6
        4070        1809.       2249.      -1112.      -3297.       627.0      -729.2
        4071       -680.0      -560.6      -357.4      -3256.       1796.      -3384.
        4072        1261.       762.1       1110.      -3316.       432.0      -3480.
        4073       -784.1       1103.      -600.3      -2820.       2843.      -2866.
        4074       -1926.      -361.0      -1934.      -2826.       2757.      -2732.
        4075       -1791.      -347.6      -1253.      -2714.       2772.      -2998.
        4076        521.7      -750.4       811.6      -3250.       770.4      -3738.
        4077       -3669.      -1920.      -2955.      -2230.       2913.      -2570.
        4078       -1430.      -105.1      -416.9      -2557.       2378.      -3306.
        4079       -156.2       7788.      -7415.      -573.5       1026.      -1683.
        4080       -135.4       7168.      -8335.      -1219.       1638.      -1206.
        4081       -5388.       3835.      -522.7      -460.1       3593.      -907.8
        4082       -4377.       8490.       1316.      -1918.       4470.      -3570.
        4083       -5015.       6255.       1448.      -1898.       4421.      -3636.
        4084       -4516.       6037.       556.2      -2013.       4498.      -3233.
        4085        913.8      -870.3       752.6      -3530.       658.8      -3361.
        4086        1185.      -1684.       380.2      -4049.       78.61      -828.4
        4087        5557.      -1048.       7050.      -3908.      -450.6      -887.7
        4088        2919.      -1482.       2836.      -3735.      -31.21      -1038.
        4089       -671.8      -1645.      -3115.       347.3       407.4      -885.5
        4090        95.71      -1810.      -3102.       323.2       161.1      -1499.
        4091       -216.3      -1196.      -3827.       216.1       142.5      -1097.
        4092       -3.459      -1923.      -3007.       294.4       209.7      -1499.
        4093        3702.      -1449.       3889.      -3983.       31.77      -586.1
        4094        6735.      -723.9       9074.      -3598.      -513.1      -652.2
        4095       -6374.      -2685.     -1.0338E+04  -2194.       905.5      -433.6
        4096       -1858.      -2057.      -3759.      -3554.       532.1      -945.0
        4097       -2051.      -2185.      -3812.      -3452.       309.8      -378.2
        4098        337.7       2434.      -494.4      -1704.       1121.      -1030.
        4099        812.0       2692.      -951.3      -2458.       2298.      -1518.
        4100       -50.49       6760.      -7948.      -977.7       1073.      -1417.
        4101       -4682.       3140.       1761.      -283.2       552.8      -2216.
        4102       -5003.       3299.       1917.      -158.4       321.2      -2400.
        4103       -5621.       2781.       886.0      -108.4       438.7      -1098.
        4104       -4498.       2515.       1018.      -110.8       171.3      -1271.
        4105       -4093.       967.5       84.50      -11.57       450.6      -409.0
        4106       -3163.       2390.       808.7      -170.6       458.2      -1403.
        4107       -3331.       1666.       285.4      -148.5       193.5      -827.0
        4108       -5159.       3825.       2574.      -382.0       916.7      -2857.
        4109       -6478.       4271.       4266.      -404.4       872.2      -3984.
        4110       -4601.       3222.       3063.      -324.7       680.9      -3050.
        4111       -3529.       2935.       1781.      -313.4       739.0      -2386.
        4112       -6604.       4533.       2903.      -346.9       802.7      -3226.
        4113       -5649.       3178.       1115.      -184.2       697.1      -1469.
        4114       -3228.       2938.       1547.      -212.9       326.1      -1955.
        4115       -1469.      -1932.      -1723.      -2314.       235.5      -1453.
        4116       -2657.      -1948.      -3177.      -2258.       271.1      -957.7
        4117       -5137.      -2351.      -6102.      -2217.       485.9      -1081.
        4118       -5450.      -2160.      -6360.      -2308.       235.4      -617.6
        4119       -9427.      -2658.     -1.0276E+04  -1751.       893.4      -941.8
        4120       -9603.      -2218.     -1.1232E+04  -1796.       793.0      -609.8
        4121       -6106.       3464.       4374.      -546.9       1385.      -3867.
        4122       -5852.       3922.       3445.      -542.6       1477.      -3565.
        4123       -3993.       2754.       1104.      -256.7       835.6      -1841.
        4124       -3512.       3027.       3112.      -423.1       945.6      -3152.
        4125       -4327.       3155.       2639.      -389.4       1195.      -2944.
        4126       -1992.       2687.       1574.      -253.4       343.1      -2155.
        4127        1540.       690.2       4258.      -3394.      -939.0      -1087.
        4128        1532.       1961.      -401.6      -4034.       471.7      -927.0
        4129        811.7       866.4       4868.      -2225.      -1203.      -642.4
        4130        1275.       2235.      -11.12      -3052.       181.3      -301.2
        4131        477.6       690.2       5318.      -2094.      -659.7      -326.6
        4132        980.8       1263.       2217.      -2945.      -132.6      -561.9
        4133        1481.       1516.       1424.      -4037.       66.75      -598.2
        4134       1.1157E+04  -687.2      1.2077E+04  -1980.      -230.7      -664.8
        4135        2279.      -1465.       2313.      -2701.      -199.1      -341.2
        4136        8239.      -1048.       8857.      -2173.      -8.457      -323.6
        4137        9165.      -749.8       9888.      -2424.      -341.8      -420.5
        4138        7362.      -1044.       7962.      -2164.      -85.10      -880.9
        4139       1.0769E+04  -692.7      1.2276E+04  -2158.      -284.2      -675.4
        4140       1.4813E+04  -379.4      1.6113E+04  -1693.      -668.0      -672.5
        4141       1.2250E+04  -800.3      1.2881E+04  -1740.      -126.8      -535.3
        4142       1.7359E+04  -576.3      1.8496E+04  -1176.      -221.0      -351.1
        4143        3835.      -1495.       4158.      -2654.      -180.7      -807.1
        4144        3061.      -1284.       2879.      -2303.       103.8      -319.7
        4145        1452.       1323.      -779.4      -4114.       975.1      -1763.
        4146        1328.      -222.4       150.4      -4587.       495.3      -1772.
        4147        1460.       1287.       127.7      -4186.       590.8      -1397.
        4148        1858.       2059.      -2099.      -3452.       2109.      -1551.
        4149        4479.       352.1       2829.      -1081.      -3298.      -1169.
        4150        1764.       1497.       1802.      -2725.      -375.8      -2914.
        4151        2938.       751.8       2639.      -2579.      -1257.      -2973.
        4152       -4404.       2512.      -1409.      -92.12       3444.      -123.5
        4153       -5611.       333.7      -1341.       366.7       3549.       429.9
        4154       -3921.       64.51      -1332.       230.1       2593.       475.8
        4155       -4253.       1313.      -1052.       84.78       2659.       137.1
        4156        362.4       2001.       597.9      -2605.       1084.      -2856.
        4157       -5817.       6156.      -640.7      -978.5       4404.      -1607.
        4158       -4029.       8703.       672.7      -2136.       4810.      -3388.
        4159       -130.2       1804.      -1089.      -909.2       822.3      -562.6
        4160        1298.       2906.      -1651.      -2557.       2488.      -1557.
        4161        1318.       3291.      -2846.      -2597.       2988.      -1364.
        4162        1674.       2799.      -2279.      -2314.       433.3      -242.4
        4163        962.9       2153.       50.47      -2062.       114.4      -205.2
        4164        786.5       599.2       4549.      -1027.      -2067.      -522.1
        4165        472.9       560.7       2699.      -286.6      -1409.      -269.1
        4166        354.7       468.5       3130.      -291.6      -1369.      -192.1
        4167        425.4       438.8       4469.      -583.5      -1941.      -255.7
        4168        586.9       316.7       4383.      -508.9      -2229.      -232.5
        4169        7379.      -1167.       6088.      -431.1      -190.3      -3588.
        4170        9608.      -836.0       8354.      -738.2      -451.2      -3053.
        4171        2629.      -1585.       2579.      -383.5      -63.96      -3424.
        4172        1904.      -1510.       2184.      -336.6      -131.2      -3821.
        4173       -8642.       8224.       1689.      -322.6       1479.      -2320.
        4174       -7489.       9241.       2974.      -469.0       1720.      -3463.
        4175       -4350.      -2748.      -4626.      -2254.       832.1      -2072.
        4176       -212.0      -1999.      -406.9      -2548.       510.6      -2712.
        4177        5270.      -1187.       5604.      -2744.      -460.4      -2029.
        4178        3922.      -1185.       3966.      -2461.      -150.1      -2614.
        4179        6399.      -1116.       6546.      -2786.      -540.8      -2386.
        4180       -5638.       8060.       1334.      -1571.       4107.      -3366.
        4181       -5772.       5850.       1318.      -1536.       3799.      -3322.
        4182        7099.      -858.2       7572.      -2286.      -325.2      -2012.
        4183       -2567.      -1986.      -2772.      -2250.       455.9      -1891.
        4184       -9467.       6612.       543.7      -553.7       2090.      -2231.
        4185        2513.       2486.      -2535.      -3490.       2205.      -1245.
        4186        2309.       2129.      -2126.      -3751.       1509.      -1018.
        4187        2735.       1381.      -3952.      -3586.       2409.      -1083.
        4188        699.4       1085.       275.1      -263.2      -390.6      -417.4
        4189       -7487.       5226.       4162.      -339.1       438.3      -4429.
        4190       -7339.       8188.       3893.      -532.1       448.7      -4349.
        4191        3974.      -182.7       2662.      -1624.      -358.8      -4533.
        4192        2159.      -199.4       2137.      -1654.       76.15      -4979.
        4193       -1841.      -1170.       382.3      -1602.       1169.      -4468.
        4194        88.86       191.8       1258.      -1762.       622.5      -4693.
        4195        669.1      -998.3       1337.      -2006.       434.9      -4489.
        4196        1753.      -1115.       2031.      -1515.       108.4      -4691.
        4197       -1772.      -1100.       691.2      -1304.       743.5      -4650.
        4198       -3745.       3694.       719.5      -1129.       2919.      -2320.
        4199       -3808.       2945.       270.5      -706.2       2092.      -1537.
        4200       -3729.       3522.       1516.      -1131.       2726.      -2662.
        4201       -4730.       4247.       898.2      -1356.       3470.      -2572.
        4202        3478.      -384.4       2577.      -1114.      -180.6      -4785.
        4203        904.9       228.9       1588.      -1410.       158.6      -4789.
        4204        1599.       688.4       4747.      -3710.      -161.2      -249.7
        4205        1314.       1875.       1048.      -3455.       31.32      -167.3
        4206        663.8       741.5       4900.      -2607.      -223.0      -133.8
        4207        1157.       1012.       3762.      -3143.      -228.9      -290.3
        4208        1887.       2192.      -945.4      -3848.       290.3      -363.0
        4209        1559.       1290.       297.2      -4528.       42.93      -201.2
        4210        1530.       757.7       2764.      -4360.      -49.58      -448.5
        4211       -9220.       6843.       220.4      -626.8       2700.      -2054.
        4212        210.2       463.9       4453.      -664.0      -1559.      -322.8
        4213        395.4       494.7       4967.      -1143.      -1541.      -319.3
        4214       1.5661E+04  -516.7      1.6471E+04  -1352.      -502.1      -691.5
        4215       -7743.       1718.      -662.7      -268.5       3840.      -178.5
        4216       -6075.       5933.       893.2      -950.4       3536.      -2216.
        4217       -6761.       6866.      -120.0      -952.7       3930.      -1817.
        4218       -7564.       1083.      -568.8      -81.13       3275.       241.7
        4219       -8435.       6082.       1241.      -256.0       1874.      -1399.
        4220       -7232.       7384.       2720.      -514.6       1894.      -3303.
        4221       -8199.       2875.       780.4      -76.52       1744.      -318.7
        4222        1018.      -678.9      -1679.      -4649.       404.7      -719.7
        4223        1200.      -996.5      -761.3      -4882.       334.4      -878.7
        4224       -881.6      -2152.      -5300.      -3667.       860.9      -598.6
        4225       -33.19      -1440.      -6092.      -3414.       1292.      -673.4
        4226        1307.       148.0      -4263.      -3774.       1193.      -833.2
        4227        679.9       1131.       273.6      -316.1      -345.8      -516.3
        4228        4553.       262.9       1141.      -425.6      -3003.      -707.4
        4229       -1911.      -2063.      -1009.      -2161.       852.0      -3342.
        4230        1069.       58.48       865.1      -3562.       587.8      -3438.
        4231       -805.1      -1016.      -1450.      -3503.       1768.      -3057.
        4232        4133.       129.9       4719.      -3263.      -1522.      -2866.
        4233       -6651.       4886.       3943.      -1097.       2454.      -4225.
        4234       -6448.       5749.       2596.      -956.4       2559.      -3402.
        4235        22.01      -3239.      -1585.       143.9       81.64      -1407.
        4236        9.420      -2428.      -2118.       179.5       149.1      -1480.
        4237        84.46      -3610.      -1396.       227.1       50.92      -1244.
        4238        1222.       618.4       907.9      -3728.       519.1      -2958.
        4239        4446.       311.6      -330.8      -51.60      -603.4      -328.2
        4240        5961.       209.9      -566.5      -65.02      -1256.      -266.1
        4241        3118.       380.5      -198.8      -63.51      -543.2      -392.8
        4242        2989.       196.5      -124.7      -56.91      -206.3      -168.5
        4243        1980.       648.9       18.57      -57.27      -238.8      -458.8
        4244        4178.       26.72      -305.4       19.52      -483.1      -38.92
        4245       -7414.       7580.       3225.      -362.9       1438.      -3902.
        4246       -7143.       5950.       4050.      -475.1       1442.      -4365.
        4247       -6998.       6155.       3634.      -683.1       1865.      -4043.
        4248        3900.       144.2      -110.9      -27.99      -696.3       23.01
        4249        4761.       367.1      -308.6       41.05      -415.1      -406.2
        4250        6340.      -36.20      -850.2       12.77      -717.3      -140.9
        4251        6484.       80.50      -835.2       48.10      -1010.      -233.6
        4252       -7035.       6849.       2425.      -688.0       2310.      -2970.
        4253       -7185.      1.0391E+04   2507.      -696.3       2265.      -3681.
        4254       -7526.       6202.       1497.      -447.2       2634.      -2353.
        4255        2566.       447.0       5021.      -3971.      -990.1      -1409.
        4256        2577.       424.6       4701.      -4004.      -890.7      -1727.
        4257        1021.       803.8       4170.      -1069.      -2110.      -604.7
        4258        717.9       510.1       3524.      -519.9      -2056.      -373.3
        4259       -6684.       4817.       3684.      -812.1       1881.      -4086.
        4260       -6831.       5187.       2195.      -727.0       1949.      -3107.
        4261       -5796.       4295.       2017.      -763.3       2054.      -2775.
        4262       -5912.       4424.       3538.      -1206.       2940.      -3932.
        4263       -675.5       538.8      -1086.      -143.6       482.4      -244.9
        4264       -6791.       3815.       614.9      -158.0       2283.      -988.0
        4265       -6901.       62.09      -270.0       200.1       2260.       355.4
        4266        1776.       2321.      -839.1      -3360.       784.8      -924.1
        4267        4805.       65.72       853.0       15.75      -2849.       13.33
        4268      -1.5550E+04  -2840.     -1.4528E+04  -573.5       535.9      -864.6
        4269       -8104.      -2439.      -7619.      -825.4       252.8      -1544.
        4270      -1.2889E+04  -2617.     -1.2250E+04  -317.5       320.4      -1237.
        4271       -8675.      -2975.      -7860.      -729.8       284.0      -1916.
        4272      -1.3310E+04  -2700.     -1.3115E+04  -582.0       629.0      -1108.
        4273      -1.5130E+04  -2871.     -1.5042E+04  -462.0       523.9      -836.0
        4274      -1.1003E+04  -2463.     -1.0125E+04  -773.3       570.3      -1448.
        4275       -5694.       3716.       1720.      -510.7       1334.      -2316.
        4276       -6842.       4431.       3489.      -486.7       1474.      -3805.
        4277        93.80       826.8       382.9      -370.4      -310.1      -285.7
        4278        2050.       6960.      -8220.      -2535.       896.6      -334.4
        4279        1891.       7271.      -7772.      -2157.       1553.      -337.2
        4280        616.0       1308.      -9992.      -164.8       1229.       16.11
        4281        285.7       1186.      -8853.       56.08       1418.      -9.336
        4282        509.0       602.8       2273.      -327.8      -1288.      -77.29
        4283        140.7       615.1       2878.      -294.8      -1207.      -255.5
        4284        1110.       619.2       5290.      -2275.      -1445.      -799.2
        4285       -4580.       5263.      -1096.      -1134.       4340.      -1702.
        4286       -4068.       3252.      -1766.      -333.6       3795.      -564.7
        4287       -4301.       5168.      -619.7      -1638.       4268.      -2651.
        4288       -4607.       781.4      -2059.       328.3       3792.       396.0
        4289       -5239.      -351.9      -2041.       370.9       3750.       499.6
        4290       -5070.       4629.      -674.7      -630.8       3898.      -1097.
        4291       -6295.       750.8      -2012.       92.89       4351.       113.0
        4292      -1.5472E+04  -2655.     -1.5748E+04  -723.3       309.9      -429.3
        4293       -5502.      -2136.      -6210.      -1484.       88.83      -515.5
        4294       -6476.      -2194.      -6346.      -1101.       95.93      -334.7
        4295       -7914.      -2373.      -7870.      -773.3       72.08      -515.2
        4296      -1.6298E+04  -3090.     -1.6872E+04  -572.8       298.0      -463.6
        4297        4092.      -1491.       4319.      -1840.       16.06      -608.7
        4298        57.77      -2239.       127.2      -1058.       105.5      -720.9
        4299        6708.      -982.6       6876.      -1038.       62.22      -1270.
        4300        1498.      -1464.       1570.      -777.5      -82.34      -1009.
        4301        7534.      -1009.       7599.      -619.3      -35.32      -1312.
        4302       1.1944E+04  -707.0      1.1699E+04  -301.1       316.5      -639.9
        4303       2.0601E+04  -403.8      2.1167E+04  -378.5       167.8      -322.2
        4304       1.5841E+04  -759.3      1.5692E+04  -280.6       113.4      -511.8
        4305        9131.      -1044.       8848.      -187.7      -10.42      -1272.
        4306       2.1304E+04  -254.0      2.1263E+04  -298.1      -103.0      -309.7
        4307       2.2771E+04  -159.0      2.2274E+04  -246.8       135.6      -259.2
        4308       1.7304E+04   52.33      1.7947E+04  -542.8      -10.91      -514.5
        4309        6089.      -838.3       6067.      -473.1       97.55      -850.3
        4310       1.9873E+04  -107.3      1.9479E+04  -355.3      -359.6      -678.1
        4311       -9792.      -2312.      -6753.      -305.1       358.3      -2145.
        4312      -1.2043E+04  -2828.      -8796.      -468.3       739.6      -1650.
        4313       -5650.      -2428.      -3915.      -402.0      -44.38      -2973.
        4314       1.7428E+04  -313.3      1.4926E+04  -310.9      -456.1      -1614.
        4315       1.2264E+04  -835.4      1.0062E+04  -353.3      -334.9      -2592.
        4316       1.0507E+04  -793.8       9231.      -530.2      -207.6      -2651.
        4317       1.7656E+04  -406.6      1.4468E+04  -411.1      -886.6      -1698.
        4318        2439.      -1106.       2409.      -2467.      -6.778      -4136.
        4319        6407.      -885.8       5534.      -2368.      -997.1      -3665.
        4320       -1679.      -1810.      -1120.      -2658.       1490.      -3350.
        4321       -131.6       1485.       184.2      -2932.       1592.      -3211.
        4322       -1547.       1389.      -57.16      -2414.       3703.      -2685.
        4323       -181.4       2572.       108.1      -2404.       2953.      -2611.
        4324       -686.0       2357.       646.4      -2284.       2730.      -2928.
        4325        8470.      -903.3       8961.      -1097.       19.38      -178.3
        4326       1.5098E+04  -772.3      1.5173E+04  -360.5       65.64      -286.3
        4327       -4086.       1525.       357.9      -79.91       712.8      -503.5
        4328       -3120.       1662.       12.67      -188.4       632.0      -793.2
        4329       -2883.       1512.      -5.501      -140.3       414.0      -810.8
        4330       -2645.      -188.9      -2748.       417.4       2837.       339.5
        4331       -3177.       218.9      -2578.       262.6       3068.       327.7
        4332      -1.5947E+04  -2663.     -1.6147E+04  -237.4      -112.7      -202.5
        4333       -1969.       30.08      -2152.       342.0       1854.       307.9
        4334       -13.21       8469.      -313.2       43.08       79.92       65.20
        4335       -2660.       2092.      -2503.      -169.2       3257.      -64.12
        4336        2853.       438.3       260.5      -136.7      -1142.      -257.9
        4337        4454.       439.0       265.0      -272.7      -1900.      -396.7
        4338        4789.       323.8       173.1      -80.80      -1801.      -137.6
        4339        7705.      -1285.       6669.      -326.5      -185.2      -3066.
        4340       1.2659E+04  -747.9      1.0793E+04  -133.8       18.37      -2302.
        4341       -8659.      -2905.      -5866.      -594.5       867.3      -2360.
        4342       -5034.      -2424.      -3419.      -827.5       429.5      -2980.
        4343       -1696.      -1751.      -254.7      -64.12       39.53      -3944.
        4344       -1253.       2719.       1185.      -1410.       2045.      -2456.
        4345       -312.3       1437.       282.5      -141.1       6.496      -875.6
        4346       -786.2       676.4      -124.0      -92.77       102.0      -323.1
        4347       -3720.      -1938.      -2339.      -152.0       128.4      -3039.
        4348       -1566.       879.8      -143.3      -148.0       172.9      -364.0
        4349       1.9034E+04  -369.6      1.9034E+04  -153.3       220.7      -200.9
        4350       -887.9      -2002.      -8060.      -2656.       429.0      -248.9
        4351       -39.11      -1571.      -4578.      -4231.       271.4      -191.8
        4352        2033.       627.6      -4015.      -3943.       277.3      -170.5
        4353        947.6       1108.       534.9      -311.9      -515.5      -623.8
        4354        2937.       439.7       1539.      -350.8      -2568.      -372.6
        4355       -9824.       5982.       210.4       48.12       322.6      -1772.
        4356        2836.       456.0       1024.      -107.2      -1838.      -318.4
        4357        3423.       411.0       904.3      -329.7      -2105.      -509.9
        4358       -200.7      -1630.      -111.8      -488.1      -57.72      -536.1
        4359       -5684.      -2052.      -5657.      -513.5       217.1      -800.0
        4360        6994.      -1028.       6961.      -726.2      -93.32      -696.0
        4361       -51.73      -1733.      -483.5      -1066.       72.34      -1361.
        4362       -4618.      -2060.      -4654.      -928.6       148.2      -1339.
        4363        2171.      -1433.       1984.      -491.3      -142.2      -1270.
        4364       -3761.      -2658.      -9406.      -2357.       826.6      -338.9
        4365       -2283.      -2331.      -6310.      -3271.       997.0      -577.6
        4366       -6976.      -2469.      -6763.      -531.8       18.84      -1130.
        4367       -2192.      -2339.      -6490.      -3159.       325.3      -243.8
        4368       -3594.      -2261.      -6855.      -2955.       380.7      -150.6
        4369       -5046.      -2703.      -9530.      -2410.       500.4      -310.5
        4370       -3732.      -1582.      -4077.      -92.72       186.0      -728.4
        4371       -2580.      -2130.      -1679.      -1045.       371.2      -2985.
        4372        452.5      -1775.       931.0      -812.8      -36.34      -3049.
        4373      -1.1511E+04  -2553.      -9269.      -476.3       512.7      -1817.
        4374        7329.      -1117.       6808.      -917.4      -246.1      -2770.
        4375       -247.9      -1694.      -253.5      -1186.      -65.88      -2727.
        4376        6305.      -1111.       5471.      -859.2      -528.5      -3386.
        4377       -5441.      -2180.      -4911.      -837.9       304.0      -2463.
        4378       -5687.      -2326.      -6791.      -2471.       202.3      -646.7
        4379      -1.0561E+04  -2644.     -1.1957E+04  -1443.       323.8      -374.7
        4380       -1927.      -1562.      -2548.      -2578.       165.6      -398.1
        4381      -1.2188E+04  -2859.     -1.4805E+04  -1039.       454.9      -489.5
        4382      -1.1215E+04  -2646.     -1.2659E+04  -1454.       667.9      -527.8
        4383       -5158.      -2094.      -5946.      -2078.       226.5      -552.5
        4384      -1.3941E+04  -2558.     -1.6167E+04  -1013.       742.4      -461.3
        4385       -609.0       2667.       921.2      -1544.       1655.      -2507.
        4386        2047.       474.4       903.7      -174.0      -1607.      -236.1
        4387       -1082.      -2142.      -7552.      -2927.       837.3      -313.0
        4388        2711.       640.3       1785.      -463.4      -2478.      -479.3
        4389        1940.       504.3       1101.      -145.6      -1705.      -227.3
        4390        1510.       828.1       1129.      -283.8      -1482.      -278.0
        4391        495.7       821.9       410.9      -254.8      -472.2      -338.7
        4392        3035.      -221.2       4389.      -4076.      -876.7      -2283.
        4393        1228.       105.9      -2784.      -4200.       693.8      -750.1
        4394        4789.      -895.8       5789.      -3705.      -737.4      -2256.
        4395       -274.4       1754.      -845.1      -550.8      -251.8       791.1
        4396        5688.      -414.6       6114.      -3193.      -1552.      -2776.
        4397       -1145.      -1834.      -1598.      -3258.       1348.      -2894.
        4398        1325.      -517.3      -5307.      -3567.       805.5      -432.4
        4399       -1568.      -2087.      -2159.      -3182.       946.5      -2344.
        4400        504.7       2650.      -804.2      -2225.       2514.      -1955.
        4401       -245.5       2992.      -1444.      -1922.       2612.      -1565.
        4402        174.4       2988.      -1065.      -2333.       3758.      -2215.
        4403       -612.4       2353.      -1079.      -1107.       1612.      -917.8
        4404       -198.4       1843.      -456.0      -850.6       710.9      -606.8
        4405        775.9       2325.       352.0      -1961.       539.8      -1531.
        4406       -2337.       1607.      -1559.      -346.7       2336.      -507.4
        4407       -3449.       1245.      -1806.       38.63       3036.       52.35
        4408       -2430.       1418.      -1259.      -314.3       2062.      -488.2
        4409       -3011.       3206.      -1502.      -980.7       3507.      -1189.
        4410       -3046.       1910.      -2145.      -211.6       3189.      -213.0
        4411       -3868.       3407.      -2161.      -418.5       4087.      -506.8
        4412       -3427.       1042.      -2232.       82.69       3316.       109.3
        4413       -4288.      -190.7      -3243.       317.5       3995.       353.7
        4414       -3238.      -221.9      -2045.       345.1       2860.       468.1
        4415       -2394.       206.0      -1606.       284.0       1916.       245.0
        4416        7258.      -438.8       4049.      -34.06      -114.2      -4369.
        4417       1.1247E+04  -588.2       6142.      -133.8      -285.1      -2912.
        4418        6739.      -986.3       4326.      -78.44      -251.2      -4285.
        4419       -2519.       117.3      -1880.       310.9       2072.       311.5
        4420       -2271.       3358.      -1575.      -1351.       3516.      -1422.
        4421       -2176.       1434.      -1984.      -369.2       2411.      -253.0
        4422      -1.1166E+04  -2544.      -8705.      -245.1       360.9      -1863.
        4423        1013.      -766.4       1746.      -269.0       36.12      -4976.
        4424       -23.72      -23.84       1486.      -272.0       52.79      -4889.
        4425        6037.      -125.9       2994.      -130.4      -259.5      -4340.
        4426        77.30       1256.       542.2      -661.5      -20.32      -115.2
        4427        6647.      -1291.       4910.      -68.32      -88.77      -4094.
        4428        945.5       2520.      -1702.      -1767.       340.1      -228.0
        4429        153.5       1671.      -1583.      -981.5       296.6      -234.4
        4430        654.0       7467.       2.497      0.6715      -11.02       43.41
        4431        665.9       7456.       15.19      0.1137      -57.05       22.16
        4432        5458.       203.2       3018.      -854.8      -575.4      -4243.
        4433        938.2      -3.933       1643.      -940.3       90.41      -4766.
        4434        3712.      -463.2       2573.      -634.5      -99.12      -4956.
        4435        4994.       219.0       2970.      -1254.      -511.1      -4320.
        4436       1.0227E+04   105.6       4558.      -611.4      -1561.      -2699.
        4437        6140.       605.6       2360.      -928.1      -1011.      -3640.
        4438        4399.       728.1       1822.      -616.4      -469.3      -3923.
        4439        8974.       395.7       3376.      -613.1      -1176.      -2953.
        4440       1.0454E+04  -1150.       9126.      -258.9      -196.6      -2438.
        4441       1.2102E+04  -626.7      1.1389E+04  -237.4      -379.4      -1881.
        4442       1.7092E+04  -597.9      1.5533E+04  -149.8      -200.0      -1435.
        4443       1.6974E+04  -570.3      1.5035E+04  -280.7      -371.5      -1607.
        4444       1.4532E+04  -615.1      1.2971E+04  -209.4      -147.5      -1998.
        4445        3815.      -1214.       3793.      -476.5      -91.34      -2616.
        4446        7221.      -1413.       6392.      -207.3      -94.12      -2727.
        4447        7882.      -1416.       7458.      -128.7      -75.94      -2285.
        4448        3074.      -1686.       2947.      -220.1      -54.32      -3194.
        4449        1952.       281.1       7277.      -2060.      -2332.      -718.5
        4450        2274.       177.4       6905.      -1970.      -2582.      -927.4
        4451        9072.      -817.9       7666.      -886.6      -590.0      -3395.
        4452       -1964.       3279.       577.2      -1662.       3311.      -2523.
        4453       -3041.       4044.       690.0      -1951.       4528.      -3037.
        4454       -2682.       3896.       679.4      -2298.       5143.      -3285.
        4455       -2500.       3396.      -218.6      -1622.       3727.      -2350.
        4456       -3479.       3139.      -1072.      -778.7       3021.      -1295.
        4457       -2259.       2527.      -668.3      -1000.       2580.      -1460.
        4458       -3080.       3084.      -1011.      -962.6       3145.      -1404.
        4459       -2756.       3440.      -277.4      -1503.       3210.      -2041.
        4460       -2998.       3334.      -421.1      -1067.       2824.      -1661.
        4461       -3256.       4338.       63.55      -1740.       4401.      -2829.
        4462       -2081.       2764.      -222.0      -904.4       2137.      -1440.
        4463       -2722.       3300.       530.1      -1559.       3275.      -2523.
        4464       -3413.      -2183.      -3739.      -2630.       997.1      -2182.
        4465        5942.       320.1       628.1      -325.7      -2780.      -820.7
        4466       -1900.       2233.       201.0      -537.1       1070.      -1193.
        4467       -2298.       2925.       1023.      -968.8       1925.      -2242.
        4468        497.5       3085.       569.5      -2804.       1712.      -2689.
        4469        923.3       2707.      -213.4      -2728.       3984.      -2381.
        4470        794.8       2555.       238.7      -2570.       1745.      -2302.
        4471        253.5       2840.       171.7      -2516.       4408.      -2532.
        4472       -12.69       2315.      -380.1      -2520.       3006.      -2600.
        4473        7485.      -1154.       6429.      -146.3      -108.4      -3329.
        4474       1.0283E+04  -580.1       8171.      -292.2      -294.8      -3217.
        4475       1.4937E+04  -237.3      1.1750E+04  -559.0      -983.3      -2106.
        4476       1.6020E+04  -406.4      1.2492E+04  -496.9      -790.5      -1963.
        4477        5596.      -71.45      -129.6      -15.57      -182.8       37.11
        4478        5803.      -43.52       6.315       38.87      -1496.       102.0
        4479        5425.      -68.13      -219.3      -51.66      -1073.      -46.74
        4480        8287.      -450.8       4328.      -233.4      -285.7      -3917.
        4481       -3236.      -2018.      -2551.      -1627.       807.0      -2822.
        4482       -1846.      -1852.      -1065.      -1734.       511.8      -2724.
        4483        52.11       5377.      -413.4      -1171.       28.59      -471.1
        4484       -628.7       969.9      -1951.      -904.6      -87.41      -292.8
        4485        139.1       2890.      -909.5      -875.1       95.68      -495.8
        4486       -7108.      -2510.      -6623.      -1673.       1214.      -1942.
        4487       -329.9      -1827.      -206.6      -2029.       569.9      -2978.
        4488        5676.      -948.3       5378.      -1973.      -416.0      -2783.
        4489        6722.      -1039.       6152.      -1708.      -466.1      -2806.
        4490       1.2858E+04  -238.4      1.2432E+04  -1432.      -1352.      -1830.
        4491       -8689.      -2701.      -5036.      -692.4       1251.      -2410.
        4492        810.6       6708.       407.8      -1146.      -238.9       886.5
        4493        1408.       4637.      -150.0      -1040.      -132.7       421.5
        4494        748.5       3373.      -806.0      -1256.      -128.2       219.5
        4495        6417.      -1040.       6123.      -1696.      -273.4      -2562.
        4496       -1566.      -2003.      -1663.      -2103.       497.0      -2474.
        4497        663.1       6446.       410.6      -751.3       91.27       26.63
        4498        29.61       7211.       429.1      -432.6       4.876      -960.4
        4499        1721.       1730.       1867.      -2367.      -639.8      -2028.
        4500        808.2       2316.      -151.1      -2648.       1717.      -2052.
        4501        1596.       1309.       1796.      -3181.      -338.7      -2584.
        4502        1912.      -1026.       1492.      -4998.       236.5      -747.1
        4503        87.89      -1722.      -3241.      -4236.       316.1      -520.1
        4504       -523.1      -2044.      -3202.      -4042.       383.9      -730.4
        4505        1151.      -1694.       60.23      -4554.       237.1      -1007.
        4506        3287.      -318.7       4955.      -4631.      -330.8      -805.3
        4507        3906.      -711.5       5323.      -4428.      -279.9      -932.9
        4508        2659.      -1121.       3088.      -4709.       4.753      -492.2
        4509        2159.      -814.8       2181.      -4929.       83.00      -321.5
        4510       -2468.       3268.      -699.1      -1522.       3695.      -2009.
        4511       -1420.       3395.       170.9      -2564.       5082.      -2832.
        4512       -1318.       3126.       541.6      -2439.       4961.      -3001.
        4513       -527.2       1921.      -618.7      -841.4       994.4      -833.1
        4514        1505.       955.9       1451.      -353.0      -1514.      -582.2
        4515       -2813.       2842.       2229.      -775.2       1558.      -2852.
        4516        6077.      -489.6       7049.      -3159.      -1254.      -2716.
        4517        5891.      -598.0       7488.      -3637.      -1235.      -1845.
        4518        1813.       1462.      -925.4      -586.9      -239.3      -186.7
        4519        1640.       114.5      -1715.      -517.6      -411.4      -465.9
        4520       -1561.      -2003.      -3047.      -3472.       1339.      -1934.
        4521        509.3       2715.      -3961.      -1592.       1895.      -596.4
        4522        1145.       3172.      -3741.      -2132.       1530.      -707.4
        4523        878.4       3019.      -4742.      -1608.       1863.      -582.4
        4524        1785.       3444.      -4088.      -2709.       2404.      -999.5
        4525       -253.4       1276.      -3447.      -404.0       1514.      -321.2
        4526        317.2       2659.      -4708.      -839.3       1978.      -526.7
        4527       -174.7       1222.      -3873.      -311.6       1408.      -190.3
        4528        43.80       1993.      -2949.      -905.3       1119.      -355.7
        4529        350.9       2674.      -3233.      -1560.       1911.      -698.6
        4530        1045.       3645.      -4539.      -2214.       2659.      -1023.
        4531       -246.2       1616.      -2363.      -706.6       958.3      -434.5
        4532        538.6       938.5       621.7      -391.5      -482.6      -468.9
        4533       -959.1       7579.      -453.2      -1.619       649.6       69.41
        4534       -437.1       7583.      -199.5       37.92       316.3       110.7
        4535       -605.7       7549.      -242.3       10.39       364.5       117.3
        4536        4654.       970.4       1324.      -884.0      -1331.      -2455.
        4537        1675.       4108.       4.786      -524.5       60.09      -24.04
        4538        4563.       597.8       1503.      -961.9      -1029.      -3102.
        4539        4199.       474.3       2300.      -1327.      -636.3      -4058.
        4540        2398.       1326.       1510.      -1037.      -322.2      -3729.
        4541       -1424.       2087.       287.4      -406.8       663.5      -1209.
        4542        964.0       9372.       1179.      -520.9      -34.83       184.2
        4543        565.2       9731.       858.8      -925.6      -155.9       1241.
        4544        3950.       446.2       1999.      -1064.      -2626.      -1485.
        4545        544.1       268.7       1000.      -19.90      -875.9      -67.38
        4546        495.9       474.6       1387.      -16.46      -889.5      -67.52
        4547       -220.9       606.3      -276.4      -85.50       105.7      -147.1
        4548        1303.       96.24       2738.       62.22      -2148.      -15.27
        4549        2143.       904.1      -500.5      -132.5      -211.2      -203.8
        4550        140.9      -104.3      -1367.      -32.02      -76.74      -499.3
        4551        853.8       891.5       1586.      -658.2       97.16      -4856.
        4552       -414.3       1334.       1538.      -235.0       104.8      -4614.
        4553       -1349.       1327.       1613.      -552.4       257.6      -4420.
        4554        2773.       711.7       1812.      -167.0      -47.47      -4720.
        4555        2891.       97.79       1954.      -472.7      -125.3      -4848.
        4556       -2022.      -1258.      -4424.       243.9      -112.9       71.76
        4557        1372.       1758.      -2677.      -3002.       3167.      -1688.
        4558        1471.       1110.      -3380.      -3275.       3281.      -1643.
        4559        1646.       1954.      -1629.      -3262.       2090.      -1757.
        4560        494.1      -339.7      -3303.      -3646.       2141.      -1796.
        4561       -1652.      -1406.      -3182.      -350.5       519.5       470.6
        4562       -1960.      -1495.      -3433.      -242.4       390.5       453.4
        4563       -629.1      -942.0      -4780.      -85.07       113.7       903.4
        4564       -309.1      -893.7      -5072.       18.46      -178.4       817.2
        4565       -1628.      -1086.      -4261.      -4.907       55.05       272.5
        4566       -2356.       3438.      -2393.      -1233.       3649.      -1111.
        4567       -2611.       4970.      -2243.      -1595.       4380.      -1748.
        4568       -1380.       6207.      -2158.      -2688.       5230.      -2540.
        4569       -1723.      -1126.      -4139.      -153.8       64.51       277.1
        4570        37.21      -819.2      -3868.      -39.39      -194.4       866.8
        4571       -2105.      -1271.      -3709.      -101.1       56.02       306.5
        4572       -1516.      -1412.      -3531.      -311.6       204.6       687.7
        4573        4472.       1104.       1164.      -436.5      -528.5      -3047.
        4574        4817.       984.4       484.7      -210.1      -727.2      -2177.
        4575        3751.       1268.       670.2      -258.6      -265.3      -2267.
        4576        2515.      -1533.       2209.      -3121.       13.31      -367.4
        4577       -208.1       7373.       22.20       38.84       8.594       128.0
        4578        2273.      -1552.       2764.      -2506.      -8.419      -1586.
        4579       -2724.      -2264.      -3063.      -2694.       1409.      -2594.
        4580       -1201.      -843.8      -2676.      -126.2      -14.08      -269.5
        4581        3476.       517.1       15.10      -81.34      -871.1      -295.3
        4582        3635.      -1265.       3754.      -431.7      -11.67      -1776.
        4583       1.2011E+04  -562.3      1.1597E+04  -444.7      -104.3      -1631.
        4584        3282.      -1262.       3197.      -316.7      -31.32      -2256.
        4585        244.5      -1736.       552.2      -898.4       20.98      -1676.
        4586       -785.3      -1766.      -836.4      -868.4       32.30      -2230.
        4587       1.3300E+04  -124.4      1.3112E+04  -781.5      -288.2      -1362.
        4588        551.5       994.3       116.0      -230.3      -329.1      -396.8
        4589       -1516.       2200.       1679.      -1499.       1796.      -3411.
        4590        780.3       49.47      -2403.      -800.7      -318.8      -353.6
        4591       -2560.       2134.       2321.      -993.3       1648.      -3571.
        4592       -104.8       2183.       1358.      -1153.       522.9      -3518.
        4593       -3569.       1446.       2424.      -1054.       2102.      -3625.
        4594       -3367.       8.548       1048.      -1102.       1285.      -3921.
        4595       -2303.       2132.       2194.      -1192.       1803.      -3376.
        4596       -1317.      -1815.      -3144.      -3637.       1215.      -1722.
        4597        2604.       907.3       2991.      -1830.      -1930.      -1790.
        4598       -3733.       3245.       2026.      -771.0       1743.      -2703.
        4599       -2160.       6480.      -1352.      -3138.       5680.      -3219.
        4600       -1121.       7525.      -905.4      -3841.       6078.      -3854.
        4601       -1491.       5286.      -1694.      -2694.       5174.      -2619.
        4602       -747.4       2490.       1831.      -902.7       719.2      -3276.
        4603       -2740.       2997.       969.4      -575.9       1292.      -1896.
        4604       -4728.       1177.      -3479.      -145.0       4855.       76.56
        4605       -5104.       918.5      -3008.      -46.26       4946.       67.78
        4606        5213.      -616.1       3884.      -929.5      -312.1      -4423.
        4607       -3912.      -2027.      -1026.      -1388.       1011.      -3959.
        4608        7245.      -481.4       4917.      -1399.      -1047.      -4025.
        4609       -1802.      -1845.      -304.1      -2025.       928.2      -3834.
        4610       -3140.       7710.      -1681.      -2234.       5216.      -2403.
        4611       -4233.       7617.      -2300.      -1314.       5070.      -1566.
        4612       -3150.       8779.      -3160.      -1853.       5466.      -1823.
        4613       -4625.       5293.      -5196.      -1253.       5453.      -1137.
        4614       -4056.       2985.       572.9      -528.9       1814.      -1672.
        4615       -3888.       3743.       1788.      -921.6       2262.      -2631.
        4616       -4896.       4345.       2054.      -1483.       3371.      -3267.
        4617       -5380.       4205.       2753.      -1224.       3120.      -3505.
        4618       -5071.       3372.       636.6      -538.6       2275.      -1440.
        4619       -4577.       3827.       1582.      -747.4       2066.      -2471.
        4620       -2623.       2805.       832.9      -853.2       1532.      -1814.
        4621       -3700.       1443.      -148.3      -171.8       1533.      -384.4
        4622        1534.       630.0       1766.      -4647.       48.92      -638.1
        4623        1822.       412.6       6043.      -3487.      -566.6      -307.3
        4624        2911.       1671.      -3132.      -3727.       1023.      -685.7
        4625        1530.       867.1      -935.7      -4698.       288.9      -534.8
        4626        3262.      -247.7       5802.      -3809.      -1380.      -1842.
        4627        1646.       4110.      -6790.      -1807.       378.7      -222.1
        4628        4467.       5072.      -7474.      -4604.       604.3      -318.0
        4629        2910.       4239.      -6311.      -3164.       524.1      -228.3
        4630       -701.1       2912.      -1565.      -1369.      -275.5       518.2
        4631        1059.       1166.       4982.      -2732.      -751.4      -481.7
        4632        583.6       1052.       4133.      -2417.      -264.4      -193.0
        4633        794.9       1584.       2229.      -2549.      -113.4      -197.7
        4634        155.5       1069.       3726.      -1326.      -316.4      -178.8
        4635       -2590.      -2294.      -4191.      -3262.       784.3      -1319.
        4636       -4346.      -2471.      -7712.      -2464.       1200.      -879.0
        4637       2.0063E+04   175.7      1.9412E+04  -310.5      -200.5      -1025.
        4638       1.5034E+04  -327.4      1.5291E+04  -855.6      -393.3      -1009.
        4639       1.7888E+04  -90.69      1.7968E+04  -937.4      -728.7      -949.3
        4640       -2368.       7482.      -2096.      -2370.       5183.      -2431.
        4641        3593.       443.9       1469.      -270.7      -2678.      -441.5
        4642        2630.       51.19       728.8       56.22      -1731.       49.65
        4643        1464.       379.8       561.9       10.98      -963.7      -123.7
        4644        4263.       76.02       1032.      -4.855      -2877.      0.8958
        4645        4393.       125.2       1049.      -125.9      -3169.      -273.8
        4646        4057.       163.1       1438.       14.75      -3114.      -43.89
        4647       -654.3       1316.      -4146.       157.5       2355.      -61.82
        4648       -976.9      -429.1      -4333.       637.8       2325.       203.6
        4649       -997.7       1198.      -4459.       140.3       2777.      -21.87
        4650       -1067.       89.70      -5801.       610.4       3204.       238.0
        4651        182.6       916.7       933.3      -425.1      -399.4      -209.3
        4652       -388.9       2593.      -5457.      -185.2       2895.      -142.9
        4653       -747.7      -189.0      -4629.       629.4       2296.       123.8
        4654       -6341.      -2436.      -3129.      -666.9       848.9      -3121.
        4655        6525.      -574.2       5707.      -2338.      -1464.      -3342.
        4656        3412.      -179.1       2944.      -2704.      -506.6      -4207.
        4657        330.7      -985.6       954.8      -2770.       644.1      -4257.
        4658        5825.      -585.8       4696.      -2157.      -1110.      -3890.
        4659        583.6       2033.      -659.4      -2944.       2542.      -2429.
        4660        2990.       497.6       3326.      -3432.      -1186.      -2733.
        4661       -387.4       3341.      -1137.      -2193.       3676.      -2044.
        4662        204.6       2663.      -408.3      -2319.       2795.      -2040.
        4663       -524.7       3586.      -1828.      -2214.       3625.      -1844.
        4664       -470.4       1451.      -4674.       231.8       2216.      -101.0
        4665       -695.2       444.7      -6430.       616.2       2951.      -38.12
        4666       -301.8       1231.      -4998.       211.8       2009.      -112.7
        4667       -705.1      -439.1      -4830.       589.8       2039.       147.7
        4668        4239.       994.6       915.2      -715.2      -1006.      -2499.
        4669       -86.90      -2694.      -2277.       766.3       361.7      -1075.
        4670        454.5      -3188.      -1725.       645.9       44.07      -1078.
        4671       -311.1       953.1      -5566.       50.70      -178.7      -602.2
        4672       -358.4       1555.      -5107.      -60.89       8.895      -796.9
        4673       -2064.       2837.       1663.      -1700.       3535.      -2976.
        4674       -1579.       2782.       1957.      -1963.       4175.      -3039.
        4675        2521.       3179.      -4125.      -2841.       1164.      -531.4
        4676        1109.       2627.      -3808.      -1850.       814.0      -351.2
        4677       0.4882       1585.      -1738.      -582.3       235.3      -192.8
        4678        567.3       2106.      -1473.      -1283.       153.0      -146.4
        4679       -4953.       7467.      -383.1      -180.9       1494.      -533.1
        4680       -2493.       4465.      -779.7      -2267.       4886.      -2643.
        4681       -2926.       5272.      -1329.      -2241.       5025.      -2623.
        4682       -737.6       1506.      -5336.       477.5      -256.6      -705.5
        4683        5374.      -290.9       9004.      -2693.      -2355.      -1354.
        4684        3658.       278.4       8306.      -2469.      -2322.      -1118.
        4685        5398.      -111.5       9407.      -2857.      -2047.      -1313.
        4686        3238.       197.0       6708.      -2650.      -2235.      -1487.
        4687       -2889.       4514.      -89.91      -2182.       5086.      -3098.
        4688       -2096.       4129.       123.6      -2515.       5165.      -3068.
        4689        6654.      -1172.       6444.      -2736.      -777.1      -2993.
        4690        3518.      -587.4       3527.      -3323.      -630.8      -3394.
        4691       -1454.      -1771.      -1223.      -3041.       1407.      -3067.
        4692        4733.      -390.2       4493.      -3053.      -1033.      -3505.
        4693       -42.65      -2394.      -2195.       283.9       321.1      -1021.
        4694        644.2       1199.       200.8      -244.2      -297.1      -393.3
        4695       -8961.       5423.      -582.6      -700.1       3614.      -1677.
        4696       -8412.       3055.      -443.5      -258.3       3728.      -849.9
        4697       -9544.       2546.      -423.7      -134.7       3133.      -640.2
        4698        288.4       3297.      -4589.      -1143.       2434.      -641.8
        4699       -43.24       4226.      -6145.      -822.5       3327.      -621.4
        4700       -63.21       3857.      -4767.      -1685.       3309.      -942.2
        4701       -710.3       3508.      -5650.      -605.8       3473.      -239.9
        4702       -798.4       1938.      -6966.      -144.8       3892.      -98.73
        4703       1.5049E+04  -238.5      1.6340E+04  -1598.      -904.4      -895.3
        4704       1.3589E+04  -370.5      1.4722E+04  -1740.      -1308.      -1334.
        4705       -8656.       803.0      -538.8       155.5       2858.       210.6
        4706       -4698.      -2162.      -4933.      -1822.       501.8      -1515.
        4707        2475.      -1366.       2281.      -2299.       1.978      -1713.
        4708      -1.1077E+04  -3147.     -1.1629E+04  -1293.       965.5      -1165.
        4709        525.8      -1872.       678.4      -2099.       92.63      -1740.
        4710        3417.      -1206.       3234.      -2074.       8.296      -2223.
        4711        7054.      -837.7       6973.      -1798.      -257.1      -1816.
        4712       -9032.       5990.      -244.9      -668.0       3283.      -1951.
        4713       -9222.       6713.      -482.0      -503.6       2644.      -1859.
        4714        91.85       8020.       287.6       244.5      -167.2      -244.5
        4715        5287.       389.5       3915.      -883.3      -4112.      -1034.
        4716        5306.       27.74       4339.      -1652.      -3291.      -1802.
        4717       -4781.       2579.       4872.      -386.4       1460.      -3749.
        4718       -5286.       3088.       4709.      -644.4       1849.      -3974.
        4719       -5459.       3187.       5176.      -421.2       1178.      -3899.
        4720       -4365.       2770.       4834.      -318.1       852.6      -3645.
        4721       -2904.      -2115.      -2479.      -2563.       1410.      -2840.
        4722       -3296.       2673.       4126.      -761.3       1575.      -3534.
        4723       -4516.       2759.       4119.      -834.2       2178.      -3743.
        4724       -4163.       1756.       3338.      -368.2       938.7      -3704.
        4725       -301.9      -1007.      -2982.      -616.0      -154.1      -49.97
        4726       -108.3      -1050.      -3992.      -224.8      -63.17      -289.5
        4727       -1811.      -1273.      -2837.      -175.1       23.10      -93.99
        4728        384.1      -733.4      -3378.      -681.1      -287.8      -321.8
        4729       -3531.       2506.       687.8      -429.5       1198.      -1658.
        4730       -2700.       1827.      -101.5      -211.0       870.2      -889.4
        4731       -3882.       1309.       36.27      -167.9       1317.      -456.3
        4732       -4188.       3272.       2318.      -591.6       1434.      -2768.
        4733       -3348.       2998.       1070.      -483.1       969.0      -1839.
        4734       -9302.      -2457.      -8097.      -1252.       1767.      -1665.
        4735      -1.0223E+04  -2446.      -8228.      -882.6       1723.      -1614.
        4736       -5029.      -2403.      -3729.      -1705.       960.4      -2817.
        4737       -8897.      -2857.      -7078.      -1420.       1284.      -1957.
        4738       -518.5       161.2       5275.      -110.7      -326.5       14.48
        4739       -347.6       475.5       4299.      -348.9      -190.9     -0.8615
        4740       -233.4      -50.74       3957.       89.24      -106.0      -86.03
        4741        22.77       95.54       1869.       95.20      -13.56      -17.74
        4742       -33.63       209.8       2462.      -71.91      -116.0      0.4013
        4743       -60.62       726.5       1913.      -163.3      -32.71      -55.29
        4744       -250.7       40.81       4043.      -14.59      -389.1      -73.90
        4745       -680.5       108.8       6255.       44.44      -458.4      -138.4
        4746        3516.      -1432.       4006.      -3335.       20.55      -733.7
        4747        5824.      -1400.       6775.      -3224.      -301.7      -1221.
        4748       -1466.      -2178.      -2416.      -3262.       426.0      -986.5
        4749        5947.      -1275.       6896.      -3371.      -445.1      -1452.
        4750        477.3       1228.       1196.      -2200.       693.0      -4008.
        4751        2938.       238.5       1771.      -102.1      -2722.      -118.8
        4752        2179.       39.80       1497.       15.22      -2115.      -20.54
        4753        1997.       426.8       1699.      -30.09      -2050.      -162.2
        4754        986.4       3739.      -6990.      -913.0       1195.      -397.9
        4755        292.3       621.0      -5377.       348.4       861.8      -50.13
        4756        276.7       1350.      -5634.       89.71       1198.      -129.4
        4757        78.70      -107.1      -7455.       585.5       1477.      -173.9
        4758        352.1       790.4      -7337.       244.8       829.5      -130.9
        4759        1387.       3455.      -6047.      -1478.       691.6      -202.9
        4760       -1012.       313.9      -2049.      -1005.      -264.4       380.7
        4761        1763.       4390.      -6240.      -2134.       1247.      -480.6
        4762        2192.       5628.      -7774.      -2556.       1315.      -555.4
        4763        970.2       3585.      -6478.      -730.6       1666.      -471.0
        4764        2760.       7151.      -7155.      -3754.       1884.      -769.1
        4765        607.1       1498.      -8572.      -14.93       1693.      -390.4
        4766       -219.3       247.4      -2409.      -1014.      -388.7       275.2
        4767       -263.4       2430.      -1077.      -933.4      -424.0       906.2
        4768       -9508.      -2496.      -4987.      -322.7       506.7      -2269.
        4769       -3889.      -1982.      -3710.      -107.2       202.1      -1326.
        4770       -6282.      -2343.      -6051.      -524.5       42.52      -1574.
        4771       -29.99       5285.       1064.      -2.351       24.55       89.99
        4772       -1918.       7850.      -2239.      -327.6       2102.      -138.5
        4773       -2114.       7674.      -1874.      -262.4       2052.      -189.8
        4774       -2567.       2936.       3146.      -1345.       2880.      -3330.
        4775       -2758.       3121.       3040.      -1598.       3690.      -3351.
        4776       -1500.       1989.      -6.233      -525.5       1017.      -1057.
        4777       -1961.       2979.       383.7      -856.1       1933.      -1714.
        4778       -2124.       3036.       1392.      -1276.       2464.      -2560.
        4779       -2849.       3419.       1166.      -1252.       2757.      -2487.
        4780        2248.       1203.       190.8      -167.4      -157.9      -834.8
        4781       -432.4       2992.      -1050.      -1039.      -253.2       898.1
        4782       -3447.       3261.       149.4      -1129.       3009.      -2019.
        4783       -4010.       3388.      -701.0      -796.3       3181.      -1296.
        4784       -3218.       1600.      -709.6      -277.3       2007.      -509.3
        4785       -2954.       2708.       145.6      -634.8       2001.      -1466.
        4786       -3767.       5018.       1105.      -2228.       4943.      -3539.
        4787       -4514.       4487.       1499.      -1879.       4451.      -3464.
        4788        418.9       7726.       283.7       6.645      -339.7       21.47
        4789        429.0       7738.       271.3       18.40      -338.5       28.87
        4790        425.2       7685.       247.2       29.89      -324.0       36.11
        4791       -1113.      -304.2      -1713.      -928.6      -220.4       223.6
        4792        6330.      -1484.       6450.      -424.9       29.70      -446.2
        4793        3257.      -1570.       3010.      -252.1       13.32      -570.6
        4794       -2347.      -2032.      -3642.      -3319.       450.6      -750.8
        4795        2189.      -1619.       2133.      -3477.       20.69      -618.3
        4796        8.319      -2399.      -2043.       53.28       96.27      -1498.
        4797       -28.58      -2075.      -2288.       116.0       153.0      -999.5
        4798       -3.737      -2692.      -1892.       189.7       172.9      -921.9
        4799       -554.3       1932.      -778.6      -850.4      -252.0       756.4
        4800       -385.9       844.4      -451.3      -213.6       354.6      -288.1
        4801       -136.3       795.3       2949.      -569.9      -206.1       11.88
        4802       -235.7       579.8       4792.      -440.8      -570.0      -145.5
        4803       -264.4       315.7       4564.      -133.1      -843.8      -17.35
        4804       -133.7       223.8       3019.      -11.27      -490.2      -89.72
        4805       -337.7      -70.61       4752.      -21.80      -692.8      -71.44
        4806       -187.9       388.0      -130.2      -69.77      -61.31      -74.37
        4807        77.73       250.0       2190.      -67.12      -198.0      -53.16
        4808       -4359.      -2532.      -4388.      -2326.       1239.      -2391.
        4809        1250.       130.7       5314.      -314.1      -3814.      -172.8
        4810        1776.       298.7       4561.      -448.0      -3804.      -299.1
        4811        1710.       265.7       4021.      -158.6      -3530.      -183.9
        4812        1991.       288.4       4952.      -815.9      -3609.      -506.1
        4813        5046.       77.04       654.3       45.26      -2361.      -112.4
        4814        5163.       55.75       558.5       65.35      -2195.      -73.89
        4815       -2178.       2746.      -1131.      -832.5       2616.      -1220.
        4816       -1569.       1401.      -1019.      -411.5       1200.      -601.4
        4817        5566.       907.8       1385.      -622.9      -1020.      -2855.
        4818        1599.       654.0       1844.      -1221.      -81.79      -4447.
        4819       -485.1       1739.      -2289.      -801.1       1267.      -469.8
        4820       -648.7       1895.      -2176.      -719.2       1417.      -535.0
        4821       -36.18       3373.      -3528.      -1626.       2859.      -993.7
        4822        4827.       95.01       524.0       63.03      -2256.       52.81
        4823        1059.       3138.      -2624.      -2515.       3153.      -1519.
        4824        2549.       777.2       2551.      -1383.      -2238.      -1456.
        4825        3117.       675.8       2899.      -1911.      -2097.      -1915.
        4826        7184.       269.2       1161.      -518.9      -2365.      -1389.
        4827        5492.       501.9      -44.41      -231.6      -1529.      -816.0
        4828        6373.       376.2       304.2      -283.9      -2210.      -850.2
        4829       -468.7      -1546.      -454.8      -1980.      -97.23      -1269.
        4830        5867.      -1205.       5991.      -1615.      -115.8      -1501.
        4831       -2750.       2867.       2715.      -312.6       475.3      -3072.
        4832       1.1763E+04  -291.2      1.5155E+04  -2130.      -755.8      -444.9
        4833        675.2      -1109.       1187.      -2319.       454.9      -4204.
        4834        2547.       532.5       2320.      -317.1      -2823.      -425.6
        4835        498.4       834.2       638.3      -282.4      -608.3      -326.1
        4836        9159.      -231.2      1.1195E+04  -2404.      -1964.      -1647.
        4837        9641.      -290.0      1.1220E+04  -2483.      -1434.      -1494.
        4838       1.0232E+04  -119.0      1.3255E+04  -2331.      -1593.      -863.3
        4839        9144.      -273.5      1.1629E+04  -2612.      -1860.      -1255.
        4840       -1232.       798.9      -343.1      -130.5       337.1      -336.1
        4841        4162.       313.4       2474.      -1928.      -999.0      -3785.
        4842        6472.       16.80       3784.      -1682.      -1503.      -3671.
        4843        8213.       204.2       3675.      -920.7      -2386.      -2538.
        4844        8142.       147.2       4298.      -1101.      -2876.      -2325.
        4845        4380.      -209.4       3116.      -2202.      -934.8      -3991.
        4846        1195.       165.4       1547.      -2390.       351.7      -4396.
        4847        2607.       17.25       2089.      -1999.      -243.2      -4464.
        4848        2159.       3935.      -3965.      -3241.       3539.      -1617.
        4849        2208.       3075.      -2629.      -2856.       2170.      -1162.
        4850        3710.       3334.      -4100.      -3741.       3686.      -1642.
        4851        3366.       3784.      -4697.      -3899.       4000.      -1665.
        4852        3409.       3547.      -4885.      -3742.       3213.      -1460.
        4853       -6819.       6829.       2109.      -1006.       3040.      -3273.
        4854        4408.       561.5       2638.      -1941.      -1434.      -3324.
        4855        6972.       337.5       2730.      -1005.      -2621.      -2106.
        4856       -4232.       3898.       2160.      -1690.       3891.      -3397.
        4857        8718.       53.75       4604.      -996.9      -1696.      -3132.
        4858        9391.      -40.46       5906.      -1262.      -2493.      -2487.
        4859       -6311.       5191.       2532.      -1033.       3006.      -3574.
        4860       -4145.      -1999.      -3895.      -1875.       547.4      -2203.
        4861       -348.2       1635.      -2013.      -694.7       986.1      -489.5
        4862       -212.5       709.2      -594.1      -164.8       255.0      -263.3
        4863       -85.67       7301.       42.64      -6.388       83.37       459.3
        4864       -11.50       7718.      -206.4      -111.6       26.95       611.6
        4865       -2322.       582.8       835.1      -1817.       2026.      -3744.
        4866       -31.03       5723.       780.8      -26.71      -1.048       213.2
        4867       -36.69       7186.       195.6       8.687       112.6       175.1
        4868       -7946.      -2682.      -4444.      -1036.       2192.      -2224.
        4869       -7214.      -2450.      -3446.      -989.8       1863.      -2525.
        4870       -8254.      -2694.      -5019.      -1053.       1465.      -2373.
        4871       -684.1       487.6      -402.3      -134.0       314.9      -192.5
        4872       -982.0       650.4      -473.1      -138.7       374.2      -155.7
        4873        5995.      -27.04      1.0509E+04  -3255.      -675.8      -482.3
        4874        6258.      -236.7      1.2154E+04  -2628.      -489.8      -222.4
        4875        8600.      -157.5      1.3769E+04  -2471.      -975.6      -427.0
        4876        5671.       9.455      1.2755E+04  -2170.      -1124.      -300.4
        4877        6223.      -440.5       9447.      -3799.      -378.5      -333.9
        4878        7272.      -525.4      1.1858E+04  -2839.      -1083.      -611.8
        4879        5154.      -76.18       9870.      -3254.      -1056.      -678.9
        4880        5176.      -436.1       8163.      -4124.      -552.5      -569.2
        4881        4005.       116.1       8486.      -3647.      -823.2      -479.1
        4882       -5642.       2949.       426.9      -280.6       1937.      -998.8
        4883       -5760.       3909.       3162.      -837.8       1949.      -3383.
        4884       -5805.       3173.       683.4      -244.9       1643.      -980.1
        4885       -244.9      -802.8      -3559.      -10.33       84.38       437.7
        4886       -1246.       157.9      -3300.       453.5       1754.       148.3
        4887       -1065.       93.60      -3097.       470.5       1562.       118.6
        4888       -804.8       1133.      -3176.      -245.1       1890.      -236.2
        4889       -3765.      -2011.      -4089.      -639.8      -80.93      -356.2
        4890       -7866.      -2064.      -8356.      -501.0      -41.94      -433.7
        4891       -5058.      -1865.      -5232.      -331.2      -95.40      -150.6
        4892       -392.6      -891.3      -3696.      -87.99       153.0       611.6
        4893       -822.3      -1229.      -3490.      -89.47       182.9       348.7
        4894       -1530.      -1248.      -3721.      -235.2       192.9       332.4
        4895       -502.6      -1273.      -3260.      -76.93       191.9       382.5
        4896       -310.5      -1641.      -2871.      -213.3       443.1       783.8
        4897       -195.7      -1151.      -3106.      -34.39       183.5       509.4
        4898        2569.       531.3       2523.      -3123.      -913.3      -2894.
        4899       -304.8      -2150.      -2707.      -503.2       532.1       1144.
        4900       -382.0      -1640.      -2945.      -286.4       441.0       866.0
        4901       -104.4      -2179.      -2471.      -474.9       470.6       1114.
        4902        656.3       2115.       446.9      -3174.       890.6      -2427.
        4903       1.1405E+04  -115.8       8607.      -1291.      -2568.      -2161.
        4904       1.1647E+04  -82.64       9429.      -1219.      -3077.      -1794.
        4905       -668.9      -1944.      -3012.      -3983.       704.8      -926.3
        4906       -2867.      -2399.      -6215.      -3173.       816.9      -558.0
        4907       1.1977E+04  -424.4       9355.      -1280.      -1896.      -2445.
        4908        114.2      -1816.      -870.2      -3556.       355.8      -1233.
        4909        237.5       64.98       3485.       69.29      -1445.      -68.36
        4910        388.1       222.3       4875.      -177.9      -2149.      -76.98
        4911        41.93       94.01       5430.       29.18      -2048.      -11.77
        4912       -3779.      -1305.      -968.1      -1817.       2007.      -3474.
        4913       -6310.      -2640.      -4192.      -1510.       2444.      -2342.
        4914       -3642.      -1551.      -1346.      -1976.       2233.      -3290.
        4915       -2459.      -2015.      -3827.      -3052.       321.9      -599.6
        4916        5878.      -3.438       9499.      -2267.      -2903.      -1324.
        4917        5794.      -187.4       8012.      -2540.      -2533.      -1603.
        4918        1433.      1.3231E+04  -7982.      -2764.       199.9      -241.4
        4919        2041.       5816.      -9268.      -1630.       637.7      -272.8
        4920        8464.      -171.4      1.1512E+04  -2184.      -2577.      -1282.
        4921        5887.      -507.5       8889.      -1408.      -3620.      -962.2
        4922        4475.       358.4       7795.      -2307.      -2898.      -1359.
        4923        6980.      -1109.       8618.      -3561.      -436.7      -874.6
        4924       -2982.      -1849.      -2941.      -1111.       134.2      -2187.
        4925       -6688.      -2052.      -6025.      -1346.       481.2      -2307.
        4926        5391.       106.7       201.6       46.26      -2473.       38.06
        4927        1392.       2365.      -1141.      -3101.       2381.      -1883.
        4928        2521.       2510.      -2276.      -3153.       3601.      -1820.
        4929        2754.       2688.      -2376.      -3329.       3465.      -1673.
        4930       1.0556E+04  -346.6       8934.      -1859.      -2172.      -2531.
        4931       1.2464E+04  -41.18      1.1180E+04  -1685.      -1980.      -1993.
        4932       1.1526E+04   134.1      1.0498E+04  -1695.      -2429.      -1920.
        4933       1.5504E+04  -180.5      1.6445E+04  -1462.      -683.8      -1025.
        4934       -9345.      -2857.      -9784.      -1512.       1255.      -1449.
        4935       -8009.      -2765.      -8256.      -1580.       1865.      -1552.
        4936      -1.0133E+04  -2681.     -1.0660E+04  -1361.       1798.      -1125.
        4937        1696.       5887.      -8078.      -1921.       340.4      -90.64
        4938        1903.       922.6       2970.      -1713.      -1937.      -1272.
        4939       -1473.      -1813.      -368.0      -2457.       1068.      -3563.
        4940        139.0      -799.0       665.1      -2971.       877.3      -4047.
        4941       -248.6      -993.6      -2462.       226.4      -42.51      -652.7
        4942       -219.6      -1721.      -2114.       524.6       17.17      -960.6
        4943        1465.      -894.3      -1732.       58.02      -392.5      -902.6
        4944        851.0      -1554.      -2349.       218.5      -185.4      -1198.
        4945       -5766.       3432.       4066.      -723.8       1999.      -3834.
        4946        2146.       5347.      -9217.      -1828.       967.5      -437.7
        4947       -846.7       2349.       1078.      -2049.       2147.      -3197.
        4948        1043.       2642.      -3125.      -1790.       937.0      -504.7
        4949        949.4       112.8      -9983.       78.73       513.9      -85.74
        4950        2112.       3306.      -3454.      -2642.       1406.      -623.3
        4951       -3273.       3234.       2159.      -962.3       2074.      -2793.
        4952       -8284.      -2343.      -9119.      -1520.       281.7      -679.7
        4953        6644.      -1226.       6997.      -1813.       211.0      -154.5
        4954        7016.      -1295.       7935.      -1600.      -432.5      -900.9
        4955        850.4       5235.      -8789.      -1609.       2689.      -693.0
        4956        250.2       3581.      -1414.      -3016.       5551.      -2737.
        4957        101.5       3162.      -538.5      -2963.       5055.      -2641.
        4958       -795.1       287.3       7370.      -446.6      -1414.       20.57
        4959       -671.3       17.52       6658.      -246.5      -1017.      -101.5
        4960        277.8       3906.      -2482.      -3005.       4834.      -2311.
        4961        867.9       2683.      -762.5      -2713.       4238.      -2109.
        4962       -388.1       352.9       6447.      -758.2      -1494.      -103.1
        4963       -5098.      -2846.     -1.0111E+04  -2168.       1257.      -528.9
        4964       -1923.       3444.       1324.      -2324.       4818.      -3196.
        4965       -1109.       2922.       1759.      -2239.       4732.      -2975.
        4966        116.9       295.1       7797.      -1472.      -647.0      -127.7
        4967       -61.70       1151.      -1403.      -326.9       39.90      -72.04
        4968        128.5       1778.      -3352.      -856.8       531.3      -226.5
        4969       -382.7       425.5      -1139.      -92.09       226.2      -151.1
        4970        229.9       1107.       4085.      -1784.      -226.4      -142.4
        4971       -548.6       561.7       6165.      -675.5      -278.8      -25.18
        4972       -67.37       1069.       3353.      -931.4      -48.96      -41.52
        4973       -384.5       808.4       5363.      -526.5      -373.2       2.039
        4974       -848.0       223.9       7332.      -288.4      -854.2      -58.18
        4975       -530.0       504.3       6838.      -887.6      -674.9      -157.2
        4976       -760.6      -20.09       6426.      -141.1      -756.9      -86.42
        4977       -1003.       86.98       6979.      -307.1      -454.3       29.06
        4978        176.6       7775.       197.8       123.0      -188.6       32.67
        4979        142.4       7817.       188.0       136.5      -168.3      -10.61
        4980       -5201.       449.6      -306.9       142.8       1891.       323.7
        4981       -3568.       95.96      -575.7       161.7       1274.       443.4
        4982       -6796.      -82.75      -615.7       192.5       2636.       496.4
        4983       -759.9      -1113.       1053.      -753.8       301.7      -4796.
        4984       -1785.      -498.6       1065.      -462.9       274.0      -4815.
        4985       -6835.      -1816.      -1002.      -334.0       720.4      -3141.
        4986       -3271.       398.9       1499.      -597.5       801.6      -4280.
        4987       -4974.      -1708.      -678.2      -678.0       904.2      -3592.
        4988       -6872.       1188.      -985.8       10.93       3927.       214.7
        4989       -5950.       7199.       286.3      -1149.       4234.      -2221.
        4990       -6729.       1092.      -1471.       108.2       4107.       216.2
        4991       -95.17       7954.      -69.78       100.9       103.8       105.8
        4992        82.74       7892.       79.57       112.1      -65.58       95.41
        4993        42.61       7708.       17.04       99.69      -35.60       108.3
        4994        515.5       1985.       952.6      -196.5       45.59      -2199.
        4995       -2.821      -883.4      -2874.      -14.46       33.05      -440.0
        4996       -906.6       622.3      -437.2      -90.20       305.8      -150.9
        4997        34.51       7723.       52.97       115.5      -53.06       51.76
        4998        45.86       7743.       35.97       132.7      -51.64       13.07
        4999       -111.4       7721.      -121.5       103.2       108.8       50.27
        5000       -644.7       1960.       847.4      -65.80       106.2      -1664.
        5001        6379.       144.2      -526.1      -117.5      -1459.      -662.9
        5002        413.3       192.8       6538.      -749.1      -2620.      -386.3
        5003       -88.26       355.1       6762.      -823.0      -1945.      -247.5
        5004       -3336.       3916.      -2636.      -652.6       4327.      -685.2
        5005       -36.39       8385.      -12.32       72.47       27.87      -132.1
        5006       -57.33       8317.      -94.89       81.41       42.60      -127.2
        5007       -4606.      -552.5      -2678.       249.0       3881.       458.7
        5008       -5380.       3736.       3423.      -886.1       2396.      -3613.
        5009        646.3       665.9       2179.      -207.4      -1398.      -246.0
        5010        385.4       272.9       1232.      -126.1      -787.9      -14.90
        5011       -895.9       1450.      -1491.      -417.9       1085.      -527.0
        5012        5760.       19.95      -443.9      -47.93      -284.0      -28.95
        5013        4761.       44.09      -447.0      -48.86      -334.4      -116.4
        5014        3459.      -56.02      -194.6      -124.0      -40.36      -28.91
        5015        5781.      -51.94      -378.4      -3.998      -233.1      -73.10
        5016        6332.       121.5      -570.0      -103.5      -261.1      -163.7
        5017        6197.       43.64      -628.5      -19.73      -599.5       54.42
        5018        1861.       3192.      -3311.      -2674.       1759.      -807.2
        5019        2140.       934.8       3183.      -1481.      -2180.      -1254.
        5020        2272.       73.55       2555.      -98.80      -3067.      -164.1
        5021       -2519.       1816.       2506.      -573.1       863.0      -3741.
        5022       -1750.       1303.      -3550.       164.0       2991.       12.39
        5023       -1605.       3042.      -3210.      -894.3       3272.      -877.5
        5024       -2090.       209.7      -3395.       406.9       2964.       138.6
        5025       -2912.      -79.83      -4355.       491.7       4039.       314.8
        5026       -1547.       1444.      -2406.      -291.5       2265.      -320.7
        5027       -438.7      -1867.      -2880.       425.4       478.5      -1029.
        5028       -335.3      -2160.      -2745.       578.1       407.5      -1168.
        5029       -174.3      -2237.      -2533.       514.8       451.4      -1151.
        5030       -518.1      -1671.      -3047.       258.9       427.2      -825.1
        5031       -175.0      -2116.      -2558.       357.9       403.9      -1128.
        5032       -62.83      -1849.      -2813.       239.3       247.8      -1441.
        5033       -1453.       2522.       1977.      -173.2       176.8      -3290.
        5034       -7723.       1253.       447.3      -32.21       228.9       249.1
        5035       -9292.       324.0       490.2       158.2       275.6       525.5
        5036       -9637.       2501.       1193.       110.8       656.6      -141.3
        5037       -9585.      -771.6       236.8       42.26       927.0       578.2
        5038       -8266.       5388.       1571.      -95.27       319.3      -1191.
        5039        567.5       3710.      -6441.      -906.5       2381.      -464.1
        5040        306.0       3572.      -5756.      -1005.       2728.      -613.8
        5041        1169.       6105.      -6417.      -2658.       3461.      -1115.
        5042       -393.9       1343.      -7669.       35.41       3160.      -126.6
        5043        73.94       1898.      -9489.      -245.7       3208.      -557.1
        5044        1097.       4092.      -5584.      -2175.       2515.      -837.0
        5045        1419.       4929.      -5744.      -3076.       3591.      -1324.
        5046        2172.       7390.      -6632.      -3532.       3528.      -1246.
        5047        2429.       5927.      -6155.      -3852.       3446.      -1389.
        5048        1854.       4560.      -5801.      -3232.       3441.      -1176.
        5049        3287.      -1231.       3799.      -4357.      -100.4      -506.7
        5050        5034.      -1266.       6930.      -4092.      -168.1      -74.17
        5051       1.0813E+04  -85.91      1.5695E+04  -2071.      -926.4      -553.4
        5052        7452.      -620.9       9686.      -3482.      -290.7      -344.1
        5053       1.0165E+04  -581.5      1.4263E+04  -2340.      -487.4      -231.9
        5054        590.3       7126.      -9055.      -2285.       2908.      -889.4
        5055       -5169.       3444.       3402.      -1129.       2965.      -3676.
        5056       -4815.       3513.       3181.      -1329.       3336.      -3694.
        5057       -3410.       3139.       2041.      -1158.       2446.      -2857.
        5058       -3726.       3319.       2463.      -1547.       3621.      -3336.
        5059       -137.8       6184.      -9375.      -2030.       3188.      -935.6
        5060        52.36       1262.      -4175.      -393.1       1236.      -164.1
        5061        79.39       1874.      -2745.      -816.2       873.6      -382.5
        5062        1363.       3466.      -4827.      -2126.       1545.      -708.3
        5063       1.0757E+04  -243.2      1.4652E+04  -2119.      -1393.      -661.9
        5064       1.1514E+04  -351.8      1.3886E+04  -2260.      -1099.      -773.7
        5065        8464.       384.0       1780.      -270.9      -1389.      -2220.
        5066        9286.       533.0       2719.      -534.5      -1734.      -2346.
        5067        6354.       452.2       367.4      -209.2      -1387.      -1382.
        5068        7657.       426.9       754.4      -145.0      -1326.      -1775.
        5069        7777.       347.5       1812.      -479.0      -2005.      -1959.
        5070        6510.       463.2       691.0      -317.2      -1786.      -1348.
        5071        5043.       126.9       6863.      -1203.      -4184.      -952.5
        5072        4290.       336.3       5417.      -1644.      -3538.      -1196.
        5073        5579.       55.67       6043.      -1967.      -3119.      -1849.
        5074        4954.       257.0       6463.      -2152.      -2934.      -1679.
        5075        7004.      -136.1       8752.      -1973.      -3227.      -1450.
        5076        8790.      -191.7       9816.      -2023.      -2798.      -1845.
        5077        3548.       133.1       3347.      -3079.      -1109.      -3362.
        5078        6770.       114.1       6998.      -2134.      -2895.      -2090.
        5079       -227.0       7554.      -90.41       49.61       132.6       129.5
        5080        72.30       7578.       29.17       51.97      -44.07       130.9
        5081        3901.       716.5       3763.      -2463.      -2038.      -2558.
        5082        8365.      -234.8       8379.      -2208.      -2701.      -2112.
        5083        6226.      -58.01       5685.      -2213.      -2619.      -2396.
        5084        2071.       9583.      -7269.      -3065.       3130.      -1220.
        5085        2438.       7999.      -7023.      -3412.       2829.      -1174.
        5086       1.2059E+04  -772.1      1.2564E+04  -1928.      -1503.      -1540.
        5087        30.20       8367.       66.62       42.73      -22.59      -74.72
        5088        3232.       3689.      -5367.      -3384.       1931.      -865.1
        5089       -169.9       1500.      -2556.      -731.7       536.6      -311.1
        5090        1316.       3104.      -4446.      -1969.       1171.      -440.3
        5091        1801.       5529.      -7213.      -2379.       2277.      -708.5
        5092        480.1       1925.      -8455.      -103.0       2683.      -172.6
        5093       -248.5       691.6      -651.9      -138.0       168.5      -222.1
        5094       -1805.      -1239.      -2904.       174.6       196.3      -317.2
        5095       -1380.      -1398.      -3179.       353.1       257.1      -624.3
        5096       -65.44      -953.6      -3744.       112.3       50.51      -541.3
        5097       -2143.      -1432.      -3156.       76.19       131.2      -209.4
        5098       -1719.      -1117.      -2722.      -305.5       17.80      -31.91
        5099        75.71      -978.7      -3531.      -126.6      -164.7      -707.7
        5100        3649.      -797.3       2753.      -302.9      -36.90      -4887.
        5101       -1983.      -2001.      -5731.      -2776.       2614.      -1438.
        5102        497.3       7522.       91.63       32.42      -214.8       81.12
        5103        536.5       7567.       75.25       28.42      -197.0       81.11
        5104        129.0       1351.      -467.3      -754.9      -15.03      -19.61
        5105        781.9       2168.      -2377.      -1599.       66.67      -44.13
        5106       -161.3      -1997.      -2616.       258.3       366.2      -1019.
        5107       -265.9      -1637.      -2906.       199.0       375.0      -843.6
        5108       -50.11      -1659.      -2642.       79.01       159.6      -1197.
        5109       -132.7      -1570.      -2838.       113.9       341.5      -737.2
        5110       -88.10      -1177.      -3141.       61.07       155.4      -963.7
        5111       -47.16      -1991.      -2615.       187.5       179.3      -1474.
        5112       -36.05      -2342.      -2264.       435.4       396.2      -1075.
        5113       1.2229E+04  -340.2      1.2429E+04  -1790.      -1277.      -1650.
        5114       1.3400E+04  -316.3      1.3591E+04  -1764.      -1893.      -1581.
        5115       1.2587E+04  -43.99      1.1842E+04  -1583.      -1575.      -1971.
        5116        1796.       4270.      -4662.      -3380.       4068.      -1611.
        5117        2202.       3459.      -3660.      -3614.       4750.      -1950.
        5118       -307.6      -828.7      -4005.       153.2       105.2      -569.3
        5119       -999.5      -1351.      -3391.       238.9       238.2      -503.3
        5120       -737.0      -1353.      -3353.       163.2       246.9      -495.5
        5121       -261.9      -795.7      -3792.       84.36       109.7      -547.6
        5122       -253.7      -1230.      -3592.       199.1       188.8      -1089.
        5123       -1135.       7539.      -281.4      -35.53       560.7       77.16
        5124        529.2       7454.       149.6       15.13      -282.8       27.63
        5125        577.4       7541.       109.1       4.317      -247.7       33.94
        5126        522.3       7617.       184.4       1.547      -303.4       28.78
        5127        515.7       7591.       170.0       20.65      -283.9       55.45
        5128        541.0       7612.       134.6       16.13      -249.0       41.66
        5129        881.6       207.8       3671.      -122.2      -2323.      -131.6
        5130        703.3      -11.15       5199.      -136.0      -3237.      -147.6
        5131        1000.       172.6       5038.      -49.61      -3426.      -225.3
        5132        1716.       4644.      -4848.      -3187.       3761.      -1506.
        5133        1735.       6168.      -5663.      -3693.       4169.      -2101.
        5134        794.5       103.3       4806.      -21.38      -2772.      -61.84
        5135        853.9       316.5       5457.      -395.2      -3256.      -365.2
        5136        2805.       4071.      -5932.      -3384.       2450.      -947.7
        5137        2819.       4272.      -5491.      -3594.       3141.      -1257.
        5138        3982.       99.63       772.5      -48.23      -2294.      -118.0
        5139        2810.       40.53       653.8       26.34      -1651.       81.16
        5140       -1757.      -575.1      -5996.       520.6       3589.       282.9
        5141       -1322.       1375.      -6701.       27.21       4277.      -4.746
        5142      -1.5770E+04  -3592.     -1.5556E+04  -383.0       41.77      -693.4
        5143        1657.       5150.      -4868.      -3875.       4671.      -1905.
        5144        2546.       4140.      -5008.      -3607.       3610.      -1477.
        5145        331.4       3146.      -3595.      -1729.       2518.      -937.6
        5146       -6713.      1.0494E+04   2182.      -1273.       3076.      -3392.
        5147       -6699.       6698.       1051.      -810.9       3384.      -2206.
        5148       -653.6       7520.      -157.2       28.14       306.5       112.3
        5149        7708.       332.3       2437.      -777.0      -2327.      -2030.
        5150       -1950.       1635.      -735.6      -334.9       1275.      -652.5
        5151        18.78       7611.       9.413       70.96      -25.13       123.1
        5152       1.5430E+04  -377.2      1.5023E+04  -755.5      -334.3      -1323.
        5153       -542.4       1162.      -3488.      -326.8       1683.      -209.2
        5154       -892.9       868.9      -3428.      -202.7       1720.      -71.56
        5155       -429.5       2464.      -4082.      -672.3       2378.      -411.4
        5156       -5994.       5718.       2254.      -1473.       3347.      -3441.
        5157        236.0       7440.      -57.82       16.08      -15.35       140.5
        5158        265.3       7444.      -30.68      0.4474      -34.59       156.3
        5159       -7191.      -2554.      -6990.      -1839.       1378.      -1841.
        5160      -1.0094E+04  -2938.     -1.0468E+04  -1436.       1256.      -1455.
        5161        488.1       151.8       4947.       14.85      -2514.      -57.94
        5162        401.8       13.50       3281.       52.80      -1573.      -142.1
        5163       -4151.       329.2       1884.      -233.3       314.0      -4063.
        5164       -6425.       4523.       2517.      -124.4       357.1      -2976.
        5165       -6839.       4539.       1711.      -174.4       295.2      -1852.
        5166       -4424.      -1504.      -49.05      -173.8       328.3      -4178.
        5167       -2035.       503.3       466.1      -2100.       2429.      -3656.
        5168       -1780.      -462.6      -430.9      -2392.       2234.      -3445.
        5169        621.1       7580.       67.34       8.445      -226.1       27.31
        5170        562.7       7519.       93.09       16.67      -240.8       45.42
        5171        585.3       7491.       78.91       15.29      -215.0       48.71
        5172        2972.       205.1       5216.      -4311.      -667.1      -1176.
        5173        2844.       1303.      -4304.      -3389.       2016.      -934.3
        5174        2969.       2150.      -3273.      -3371.       1484.      -886.8
        5175        538.3       7431.      -22.56      -6.081      -47.48       101.1
        5176        557.1       7444.      -5.418       6.046      -71.96       91.29
        5177        439.2       7443.      -15.61       4.951      -51.91       124.8
        5178        3748.       3163.      -4694.      -3564.       2670.      -1056.
        5179        7251.      -201.0       4658.      -1069.      -835.0      -4153.
        5180        274.7       7439.      -4.927     -2.4214E-02  -41.44       152.8
        5181        3076.      -5.164       2278.      -4.304      -3450.       5.392
        5182        2667.       71.55       2562.      -1.114      -3292.       29.70
        5183       -6621.       3601.       1111.      -159.8       1156.      -1152.
        5184       -3721.       6406.      -3078.      -1313.       5244.      -1353.
        5185       -3975.       2158.      -4127.      -73.47       4898.      -313.2
        5186        8553.      -234.1       8090.      -2076.      -2319.      -2467.
        5187       1.0683E+04  -260.7      1.0238E+04  -1848.      -1663.      -2027.
        5188       1.0774E+04  -321.8      1.0494E+04  -1853.      -2346.      -1879.
        5189        2459.      -1551.       2346.      -1318.      -23.84      -75.26
        5190       1.9890E+04   245.6      1.9908E+04  -832.1      -280.2      -443.8
        5191        815.3       71.82       2924.       37.65      -1916.      -110.4
        5192        353.3       241.7       1230.      -103.4      -647.2      -36.24
        5193       -4210.      -1958.      -4810.      -1392.       18.45      -88.66
        5194       -3693.      -1984.      -4313.      -1650.      -6.258      -283.8
        5195       1.6169E+04  -337.4      1.6706E+04  -1128.      -338.9      -531.8
        5196       1.2056E+04  -862.5      1.2334E+04  -1588.      -115.7       22.40
        5197        5175.       3078.      -5366.      -3925.       1292.      -427.3
        5198       -8206.      -2728.     -1.1786E+04  -1809.       839.0      -501.0
        5199       -6710.      -2984.     -1.0734E+04  -1911.       1017.      -499.3
        5200       -5782.      -2658.      -8306.      -2448.       765.6      -633.2
        5201       -9439.      -2954.     -1.2266E+04  -1718.       536.3      -458.4
        5202       -3705.      -2531.      -5550.      -2932.       243.1      -332.9
        5203       -7234.      -2447.     -1.0476E+04  -2102.       373.3      -206.7
        5204        296.6       7935.       359.5       24.97      -327.2       2.795
        5205        255.6       7964.       357.3       25.88      -305.3      -11.96
        5206        350.4       7777.       322.0       25.24      -352.0       6.654
        5207        214.3       1555.      -8204.       88.62       2869.      -104.8
        5208       -539.9      -327.7      -6551.       578.9       2497.       28.86
        5209       -245.7      -448.9      -7307.       663.3       2242.      -134.3
        5210        1311.       271.3       7105.      -1181.      -2689.      -583.2
        5211        1030.       363.1       5531.      -903.0      -2946.      -501.1
        5212        1908.       310.3       6442.      -1422.      -3138.      -712.4
        5213        1618.       216.0       7549.      -1092.      -3228.      -640.7
        5214       -1387.       1857.      -1498.      -624.4       1617.      -680.4
        5215        417.3       7410.      -32.41       6.571      -20.60       125.1
        5216        2137.       381.6       4053.      -496.1      -3766.      -357.0
        5217        2094.       203.4       3683.      -207.9      -3688.      -104.1
        5218       -2891.       3515.       1769.      -2185.       4925.      -3380.
        5219       -2080.       3463.       630.2      -2309.       4875.      -3102.
        5220        214.1      -3195.      -1568.       428.6       157.8      -764.1
        5221        88.07      -2842.      -1897.       451.8       281.0      -1010.
        5222        275.6      -3194.      -1667.       501.3       170.4      -879.6
        5223        87.56      -2958.      -1732.       337.1       197.8      -862.8
        5224        170.1      -3360.      -1405.       265.9       54.48      -527.7
        5225        169.8      -4316.      -1000.       172.5       5.184      -706.0
        5226        339.5      -3495.      -1373.       300.3       28.35      -528.9
        5227       1.3796E+04  -5.422       8414.      -351.9      -999.2      -2361.
        5228       1.2914E+04  -525.2       8247.      -181.0      -416.7      -2616.
        5229       1.4853E+04  -47.75      1.0510E+04  -423.9      -882.9      -2119.
        5230        8748.      -928.5       6312.      -332.0      -306.8      -3719.
        5231        8899.      -582.1       5597.      -256.1      -376.7      -3899.
        5232        6855.      -1230.       5658.      -192.6      -64.33      -3760.
        5233       1.4617E+04  -482.8      1.0512E+04  -287.9      -344.3      -2258.
        5234       -659.2       463.2      -458.5      -108.9       363.9      -190.2
        5235       -732.0       749.4      -577.8      -85.32       465.6      -226.2
        5236        4736.       3253.      -5675.      -3934.       1742.      -795.7
        5237        3748.       3292.      -4797.      -3642.       2074.      -788.1
        5238        2122.       33.98       3312.       93.29      -3144.       29.24
        5239        1868.       181.0       2313.       3.361      -2404.      -96.33
        5240        1536.       156.4       2439.       81.24      -2223.      -19.07
        5241        896.7       396.0       1275.      -32.81      -1014.      -107.7
        5242       -9141.      -3032.      -5245.      -864.5       1666.      -2216.
        5243      -1.0392E+04  -2974.      -7547.      -660.8       1168.      -1964.
        5244        371.6       7823.       328.8       21.58      -338.5       10.17
        5245        371.4       7739.       285.5       38.20      -331.7       28.13
        5246       -72.14      -565.8      -5675.       664.0       1195.       100.6
        5247       -274.1       47.68      -3694.       487.4       731.4      -9.432
        5248        205.5      -395.1      -4682.       623.1       498.1       100.6
        5249        7143.       275.4      -218.7      -132.3      -2430.      -484.5
        5250        6165.       334.6      -306.2      -130.9      -1692.      -292.1
        5251        2246.       42.99       3154.       73.16      -3483.      -26.55
        5252        558.1       7451.       15.06       2.977      -98.20       87.49
        5253        7781.      -408.0      1.1551E+04  -2321.      -2233.      -1023.
        5254       -1885.       2169.       1154.      -1661.       2362.      -3188.
        5255       -581.4      -932.1      -4297.      -115.0       156.9       516.9
        5256       -1141.      -1306.      -3522.      -216.7       311.6       488.4
        5257       -447.3      -1003.      -3640.      -132.7       214.7       790.1
        5258       -389.9      -1104.      -3735.      -161.7       257.9       889.9
        5259        1847.       2881.      -2081.      -3219.       4162.      -1938.
        5260        2383.       3228.      -3219.      -3421.       4021.      -1731.
        5261       -1303.       3771.      -1528.      -1939.       3872.      -1936.
        5262        451.3       7452.       4.601       1.257      -67.99       120.6
        5263        1756.      -1341.       1934.      -650.1      -46.72      -180.9
        5264      -1.4931E+04  -2919.     -1.5649E+04  -182.2       173.4      -389.1
        5265      -1.2448E+04  -2363.     -1.2717E+04  -428.5     -0.1774      -324.8
        5266       -4375.      -2059.      -4760.      -917.1      -39.72      -168.1
        5267        512.0       1645.       1820.      -1599.      -97.62      -163.6
        5268       -7250.      -2633.      -5503.      -1170.       967.0      -2492.
        5269        5739.       469.5       1298.      -460.3      -2907.      -947.7
        5270       -6408.       1174.      -3555.      -166.6       5325.      -368.0
        5271       -5936.       6285.      -1678.      -1230.       5088.      -1631.
        5272       -87.94       8738.      -2756.      -186.3       602.3       985.8
        5273       -310.6       8202.      -2835.      -306.4       823.2       604.5
        5274       -140.8       7920.      -1537.      -141.7       374.8       690.1
        5275       -13.26       8399.       43.02       186.2      -28.83      -291.5
        5276       -227.8       7768.      -910.4       295.5       172.7       1023.
        5277       -181.6       8782.      -2986.       329.6       460.0       1040.
        5278       -429.3       8557.      -4107.      -491.6       1325.       397.2
        5279       -1854.       4116.      -4397.      -624.6       4101.      -543.8
        5280       -589.3       5713.      -3510.      -2573.       4740.      -1919.
        5281        75.96       7319.      -11.50       6.044       11.53       99.75
        5282      -1.2033E+04  -3009.      -9890.      -459.0       845.0      -1783.
        5283        293.7       992.6      -4736.      -105.0       405.1      -1.700
        5284       -241.7      -19.53      -3398.       375.4       437.9      -1.063
        5285       -2438.       7869.      -5464.      -1123.       3826.      -645.3
        5286        275.4       37.23      -6313.       452.5       367.9       37.16
        5287        1316.       3570.      -6828.      -875.7       576.4      -171.6
        5288       -3367.       5470.       241.9      -2564.       5468.      -3795.
        5289       -3656.       7272.      -937.3      -2236.       5100.      -2708.
        5290       -3334.       4890.      -832.5      -1755.       4538.      -2546.
        5291       -3672.      -1885.      -1925.      -2237.       2403.      -2931.
        5292       -1759.       1656.       575.6      -2195.       3778.      -2973.
        5293       -395.0       35.49      -3782.       492.1       964.0       20.43
        5294       -1402.       2556.       909.5      -2052.       3421.      -2870.
        5295       -6620.      -2214.      -3500.      -123.6       443.6      -3000.
        5296       -2744.       7839.      -6205.      -1450.       4364.      -906.7
        5297       -3145.       7809.      -5775.      -1429.       4491.      -932.0
        5298       1.4342E+04  -526.2      1.2378E+04  -891.6      -996.9      -2062.
        5299       1.1711E+04  -584.4      1.1017E+04  -843.3      -255.5      -2218.
        5300       1.4686E+04  -305.2      1.2418E+04  -661.6      -940.3      -2100.
        5301       1.5603E+04  -423.1      1.4089E+04  -526.0      -592.3      -1867.
        5302        875.6       3472.      -5478.      -1425.       1700.      -434.0
        5303        2787.       6068.      -6402.      -3682.       2850.      -1105.
        5304      -1.1688E+04  -2771.      -7524.      -513.7       994.7      -1785.
        5305       -37.70       1197.      -5668.       99.33       1503.      -143.2
        5306       -307.0       225.5      -4997.       483.0       1611.      -40.26
        5307        5212.       454.0       1098.      -317.3      -2959.      -624.8
        5308        5168.       198.6       826.3      -115.8      -3140.      -228.6
        5309        6128.       354.6       393.9      -121.2      -2937.      -371.8
        5310       -3895.       2592.       4232.      -966.1       2857.      -3575.
        5311       -3414.       2826.       3887.      -920.6       2216.      -3539.
        5312       -3052.       2881.       3348.      -1027.       2464.      -3292.
        5313       -1350.       2876.      -2137.      -1270.       2740.      -1090.
        5314       1.1080E+04  -292.5       7124.      -577.5      -1028.      -3059.
        5315       1.1159E+04  -384.6       7597.      -879.1      -1151.      -2995.
        5316       -602.6     -0.9858      -3463.       470.0       1189.       57.03
        5317       -739.0      -9.865      -3499.       499.4       1369.       136.7
        5318       -523.4      -557.7      -4809.       605.4       1787.       93.20
        5319        2203.       3220.      -4671.      -2715.       836.0      -403.5
        5320        4632.       3504.      -5875.      -4019.       1259.      -508.9
        5321        3580.       3276.      -4664.      -3285.       651.8      -335.8
        5322       -5454.       410.6      -88.21       47.73       1232.       387.9
        5323       -3454.       1340.      -1470.       120.1       2844.       52.77
        5324       -3076.       1654.      -922.5      -195.9       2232.      -433.8
        5325       -2688.       100.4      -1313.       250.7       1750.       385.0
        5326        376.4       4989.      -5135.      -2085.       3408.      -1047.
        5327        37.48       7507.       8.351       35.76      -22.31       139.6
        5328       -2103.      -287.4      -5287.       502.9       3652.       256.4
        5329       -2177.       98.40      -2041.       310.8       1968.       348.1
        5330       -1913.       1361.      -2090.      -214.6       2396.      -250.9
        5331        6838.       151.8       3066.      -410.9      -676.1      -3972.
        5332        9510.       445.2       1955.      -146.5      -1121.      -2052.
        5333       -6668.      -2662.      -8792.      -2273.       1044.      -1059.
        5334       -4667.      -2032.      -4820.      -1666.       121.7      -453.2
        5335       -8925.      -2643.      -9419.      -1479.       543.9      -1025.
        5336       -1399.       12.04      -2720.       429.7       1853.       184.5
        5337       -1103.       1212.      -2975.      -270.6       2083.      -151.0
        5338      -1.2758E+04  -2486.     -1.3639E+04  -1012.       388.6      -567.2
        5339        5075.       2733.      -3988.      -3508.       2192.      -840.4
        5340        4432.       2751.      -3624.      -3441.       2824.      -1054.
        5341        4543.      -925.3       7317.      -4181.      -125.0      -28.72
        5342        5582.      -1237.       6866.      -3832.      -73.13      -96.48
        5343        7643.      -841.8       9139.      -3240.      -179.6      -353.4
        5344       -12.32      -1939.      -1272.      -3837.       98.22      -223.1
        5345       1.2083E+04  -68.31       5633.      -374.2      -1212.      -2348.
        5346      -1.0385E+04  -2699.     -1.2434E+04  -1724.       239.4      -262.3
        5347       -8653.      -2552.     -1.1265E+04  -1899.       304.2      -277.3
        5348       -1126.      -70.20      -2094.      -2977.       2930.      -2343.
        5349       -6275.      -2728.      -7916.      -1806.       2351.      -1323.
        5350       -7751.      -2685.      -9592.      -1642.       1818.      -1129.
        5351       -6199.      -2614.      -8647.      -1816.       2246.      -1269.
        5352       -8350.      -2785.     -1.0461E+04  -1644.       1725.      -854.5
        5353       -4407.      -2520.      -6396.      -2245.       2454.      -1528.
        5354       -5844.      -2591.      -8594.      -2002.       1901.      -1139.
        5355        4229.       259.6       3838.      -1099.      -3714.      -1077.
        5356        4520.       107.1       4492.      -1520.      -3370.      -1672.
        5357       1.3037E+04  -36.64      1.1851E+04  -1227.      -1579.      -2081.
        5358       -1299.       601.4      -3920.       344.5       2728.       122.4
        5359       -1228.      -37.26      -2806.       441.6       1584.       171.0
        5360        2212.       3081.      -3136.      -3473.       4745.      -2102.
        5361        3001.       3176.      -3704.      -3612.       3963.      -1670.
        5362        871.2      -3305.      -1358.       621.2      -266.4      -795.5
        5363        1716.      -2512.      -1118.       280.2      -351.4      -906.1
        5364        528.2      -3081.      -1648.       735.2      -90.19      -1006.
        5365        1514.      -3165.      -872.9       231.4      -358.4      -554.2
        5366        773.1      -3510.      -1351.       593.7      -164.2      -804.9
        5367        1056.      -3725.      -1126.       308.3      -347.9      -280.8
        5368        1142.      -3302.      -1136.       292.1      -421.2      -238.5
        5369        40.30       5576.      -4157.      -3001.       4681.      -1883.
        5370       -1395.       3362.      -4623.      -392.9       3713.      -303.5
        5371       -745.7       6934.      -4626.      -2043.       4701.      -1429.
        5372        523.3      -2739.      -1616.       662.0      -198.8      -915.8
        5373       -2510.       2139.       688.6       4.221       47.83      -1375.
        5374       -1400.       1078.      -109.1      -151.6       70.16      -340.7
        5375        264.7       1597.       665.2      -1236.      -16.77      -179.2
        5376        3241.       4356.      -6744.      -3653.       1046.      -393.3
        5377        4804.       4161.      -6725.      -4186.       1020.      -434.7
        5378       -1693.       7507.      -376.6      -50.71       827.1      -3.336
        5379       -1632.       7510.      -472.9      -53.59       898.1       2.485
        5380       1.8974E+04  -398.6      1.7424E+04  -462.4      -591.1      -1354.
        5381       1.9521E+04  -87.91      1.8682E+04  -529.3      -513.0      -1018.
        5382       1.8337E+04  -563.5      1.7343E+04  -225.5      -221.5      -1175.
        5383        6690.       13.58       5997.      -1248.      -4059.      -1510.
        5384       -3712.      -1768.      -3537.      -2223.       2904.      -2186.
        5385       -3969.      -2405.      -5029.      -2541.       2405.      -1995.
        5386       -4192.      -2031.      -5203.      -2035.       3272.      -1895.
        5387       -1085.       7418.      -4011.      -2663.       5153.      -1882.
        5388       -913.0      1.0181E+04  -4371.      -2594.       5034.      -1918.
        5389       -2385.       1427.      -5513.       221.9       4654.      -34.44
        5390        338.5       340.1       1401.      -59.34      -743.4      -88.61
        5391       -2365.       1929.      -605.4      -305.5       1467.      -870.6
        5392       -2341.       2182.      -900.2      -672.9       1844.      -886.9
        5393       -2591.       1656.      -1027.      -412.0       1981.      -427.8
        5394       -3145.       42.10      -1041.       197.9       1633.       416.5
        5395       -190.0       8195.      -5294.      -2100.       4732.      -1421.
        5396       -1769.       941.7      -6340.       149.5       4451.      -187.2
        5397        472.6       7465.      -4422.      -2752.       4655.      -1684.
        5398       -3954.      -577.6      -1968.       314.0       2964.       496.0
        5399       -2897.       136.3      -1027.       233.6       1596.       414.3
        5400        4454.       139.7      -147.7      -101.4      -1431.      -140.0
        5401        5930.       149.1      -288.5      -57.44      -1634.      -46.25
        5402        3344.       206.7      -52.87      -2.066      -985.4       22.44
        5403        1693.       272.4       61.20      -1.839      -445.9      -118.5
        5404       1.1644E+04  -205.1      1.3943E+04  -2016.      -1241.      -1136.
        5405       -565.5       4253.      -3064.      -2789.       5006.      -2318.
        5406       -1104.       7313.      -3190.      -2489.       5167.      -2039.
        5407       -3049.       1473.      -4962.       122.3       4808.      -27.33
        5408        807.3       3252.      -1644.      -2939.       4444.      -2213.
        5409       -612.4       7559.      -192.0       10.81       329.8       120.2
        5410        4006.       212.7       1884.      -430.0      -3448.      -587.3
        5411        5325.       155.0       1937.      -610.8      -3494.      -1009.
        5412        5169.       135.4       2326.      -416.7      -3862.      -707.9
        5413       -4117.       3211.       3679.      -1499.       3611.      -3686.
        5414       -3931.       2947.       3815.      -1126.       2894.      -3539.
        5415       -4525.       3194.       3984.      -1026.       2585.      -3750.
        5416        1116.       3797.      -4183.      -3299.       4349.      -1825.
        5417       -1303.       2904.       1094.      -2442.       5096.      -3214.
        5418       -229.9       2807.       1006.      -2332.       4170.      -2814.
        5419       -1226.       7495.      -226.7      -15.96       511.0       67.91
        5420        203.8       8412.       249.4      -736.2      -68.78      -144.4
        5421       -224.3       7536.      -562.9      -709.3      -192.6      -748.8
        5422       -158.3       7657.      -496.4      -760.2      -201.8       541.2
        5423       -288.0       5074.      -914.5      -1309.      -78.08       82.76
        5424        251.1       5699.      -120.7      -1274.      -343.3       938.0
        5425        106.8       7325.       377.1      -1042.      -463.4       1536.
        5426      -1.0099E+04  -2845.      -9800.      -1433.       1381.      -1538.
        5427        1001.       150.6       2689.       37.31      -1926.      -82.76
        5428       -1322.       3844.      -2385.      -2050.       3993.      -1731.
        5429       -3419.      -2631.      -8189.      -2470.       1607.      -654.7
        5430       -2858.       1523.      -514.4      -363.4       1146.      -729.6
        5431       -2421.       1801.      -195.6      -393.0       988.7      -813.4
        5432       -3380.       1332.      -300.6      -189.0       1657.      -440.9
        5433        789.6       2782.      -5359.      -1154.       1178.      -401.3
        5434        1968.       3600.      -5518.      -2606.       1074.      -397.2
        5435        638.9       5027.      -4162.      -3050.       4262.      -2042.
        5436        2924.       4242.      -6166.      -3321.       1955.      -800.3
        5437        4009.       5341.      -6967.      -4423.       1948.      -731.0
        5438       -751.4       7479.      -98.52       9.826       269.6       100.5
        5439       -675.1       7498.      -131.2       20.05       284.5       116.3
        5440        30.55       5576.      -2734.       922.4      -265.9      -1355.
        5441       -62.86       4764.      -4762.       1369.      -413.1      -408.2
        5442       -235.8       6281.      -4655.       563.0       193.6      -1352.
        5443        552.4       2665.      -3738.       1059.      -505.6      -567.9
        5444       -438.3       6067.      -2757.      -3313.       5695.      -2795.
        5445       -5940.      -2617.      -5708.      -1719.       2646.      -1846.
        5446       -2556.       7498.      -593.9      -135.0       1248.      -116.8
        5447       -3255.       7597.      -956.9      -225.9       1796.      -290.1
        5448       -3552.       7566.      -818.4      -200.1       1711.      -317.5
        5449       -513.7       19.27      -3289.       486.1       954.5       28.17
        5450        3236.       5324.      -7045.      -3589.       1179.      -474.1
        5451        1062.       367.7       567.1      -19.41      -824.0      -99.94
        5452        1765.       4643.      -6573.      -2669.       1923.      -654.1
        5453        8773.       171.9       3206.      -727.2      -1996.      -2358.
        5454       -7061.      -2424.      -9139.      -2269.       598.2      -685.9
        5455        7726.      -1119.       8984.      -3037.      -436.5      -823.7
        5456       1.2429E+04  -215.9      1.4876E+04  -2235.      -936.6      -493.9
        5457       -812.2       2135.      -2543.      -749.0       1719.      -492.0
        5458        190.7       5597.      -1578.       1017.       60.57       656.2
        5459        1039.       8429.      -267.1       866.0       31.07      -714.3
        5460       -194.1       8061.      -2702.       805.6       278.4       447.5
        5461       -198.4       9124.      -5203.      -10.05       774.9       525.2
        5462       -270.8       8090.      -5074.       590.1       363.1      -347.1
        5463        613.9       6519.      -1584.       1032.      -124.5      -855.7
        5464        51.75       4935.      -3118.       1291.      -213.3       180.7
        5465        112.9       269.9       1769.      -23.39      -460.3      -215.8
        5466       -76.00       244.2       1093.      -84.31      -217.3      -120.5
        5467       -109.6       78.40       3818.       57.65      -924.2      -25.39
        5468       -159.1       252.1       4993.       50.64      -1443.       40.20
        5469       -19.06       177.4       3446.       41.09      -967.7      -14.24
        5470       -504.8       52.01       6164.      -114.7      -1736.      -5.500
        5471       -298.6       214.6       5844.      -138.7      -1912.      -48.79
        5472        9665.      -145.9       5145.      -519.5      -1022.      -3250.
        5473        7066.      -318.7       4290.      -659.6      -529.6      -4241.
        5474        2440.       519.1       2985.      -1178.      -2769.      -1126.
        5475        3907.       235.9       4386.      -1020.      -3965.      -927.5
        5476       -534.3       755.4      -757.2      -109.4       366.2      -262.0
        5477        3848.       7427.      -7289.      -4536.       1666.      -684.7
        5478        4.722      -3223.      -1615.       189.1       76.36      -744.9
        5479        129.9      -3685.      -1243.       48.70       11.93      -62.40
        5480       -108.6       500.0      -569.6      -133.4       120.0      -128.8
        5481       -328.2       675.0      -976.7      -163.3       183.6      -144.1
        5482        2538.      -264.6       4088.      -4942.      -158.6      -209.7
        5483        1405.      -51.45      -606.6      -4981.       95.21      -245.0
        5484        1646.       579.8       2469.      -4885.      -79.61      -318.1
        5485        2724.       151.5       6252.      -4281.      -219.7      -237.5
        5486       1.8949E+04  -405.9      1.6679E+04  -300.8      -596.6      -1419.
        5487       -70.87       6140.       538.4      -71.72       40.29       612.8
        5488       1.4060E+04   106.2      1.0432E+04  -761.7      -1314.      -2300.
        5489       -1856.       4464.      -1451.      -2361.       5036.      -2576.
        5490        4008.       163.6       1776.      -49.16      -3766.      -161.7
        5491        3177.       233.0       1394.      -142.3      -2670.      -27.81
        5492       -7428.       7343.      -370.5      -358.4       1975.      -1178.
        5493       -5039.      -2493.      -8083.      -1921.       2577.      -1220.
        5494       -594.8       7177.      -17.00       53.38       42.27       122.1
        5495       -558.9       7228.       77.75       4.807       43.09       151.3
        5496       -1054.       7313.      -15.72       12.82       90.97       122.7
        5497       -4387.      -2581.      -8131.      -2097.       2328.      -1014.
        5498       -1302.       6970.      -71.22      5.8897E-02   58.04       96.95
        5499       -1922.       1314.      -2418.      -152.6       2570.      -149.0
        5500       -1788.       128.6      -2334.       374.6       1875.       267.3
        5501       -1595.       105.2      -2549.       439.9       1891.       187.7
        5502        932.7       5944.      -5021.      -3441.       4389.      -1772.
        5503        776.6      -2159.      -2352.       366.0      -71.22      -1385.
        5504        74.56       2935.       110.1      -2615.       5055.      -2746.
        5505       -737.4       7447.       34.87       4.281       60.69       136.9
        5506       -295.0       7456.       28.26      -24.71     -0.4389       142.2
        5507       -5547.       53.56       138.2       43.39       647.3       373.9
        5508       -7744.      -248.4       286.3       38.15       825.9       560.7
        5509       -6071.       1321.       387.6       25.18       374.5       234.4
        5510       -4555.      -575.9      -4.352       35.57       126.2       460.3
        5511       -4680.       1220.       352.1      -74.08       110.6      -94.52
        5512       -3845.       134.5      -225.1      -22.93       197.0       216.6
        5513        7.320       1220.       1414.      -840.2      -6.918      -101.5
        5514        142.9       514.0       752.5      -98.51      -53.19      -30.09
        5515      -1.0796E+04  -2990.      -8609.      -819.5       1408.      -1758.
        5516        64.14       953.7      -7251.       295.7       1696.      -158.2
        5517       -29.48       1101.      -3991.      -309.9       911.3      -111.7
        5518        245.8       1603.      -4436.      -311.7       727.7      -211.6
        5519       -488.0      -1262.      -3425.       82.48       126.4      -407.4
        5520       -217.5      -1029.      -3530.       94.32       156.8      -891.8
        5521        994.9      -935.8      -2712.      -40.50      -375.0      -1029.
        5522       -253.1      -2224.      -2264.       665.3       138.1      -1061.
        5523       -888.3      -1483.      -2937.       300.9       75.39      -806.3
        5524       -709.4      -322.9      -2432.      -504.0      -108.1      -200.2
        5525        76.84      -801.7      -1930.       51.23      -77.32      -695.2
        5526       -3866.       2723.       3494.      -1345.       3542.      -3530.
        5527       -4693.       3526.       2649.      -1569.       3762.      -3587.
        5528       -525.4       1808.       434.3       37.55      -138.2      -1100.
        5529        3268.       3034.      -2770.      -3298.       2389.      -1142.
        5530        3413.       2917.      -2837.      -3565.       3269.      -1351.
        5531        976.1       1486.       301.9      -68.89      -23.91      -919.0
        5532       -8702.      -2932.      -6001.      -692.6       927.1      -2444.
        5533       -8439.      -2355.      -7500.      -968.7       823.2      -1975.
        5534       1.5064E+04  -399.8      1.3638E+04  -814.1      -899.2      -1717.
        5535        9311.      -636.9       8368.      -1257.      -400.2      -2600.
        5536      -1.1669E+04  -2614.     -1.0225E+04  -670.8       520.5      -1584.
        5537        3471.       128.1       318.9       41.16      -1448.      -13.68
        5538       -2096.       2787.       2738.      -1650.       3222.      -3135.
        5539       -770.2       1265.       78.11      -34.86     -4.5559E-02  -471.4
        5540      -1.4019E+04  -2489.     -1.3691E+04  -224.3       122.6      -924.8
        5541      -1.3257E+04  -2701.     -1.3463E+04  -303.8       146.6      -429.2
        5542       -1346.       1567.      -1888.      -608.4       1527.      -592.7
        5543       -45.29       6708.       382.0       21.09       119.1       375.9
        5544       1.2849E+04  -231.3       9309.      -555.5      -932.8      -2660.
        5545       -635.1      -1927.      -2972.      -3902.       294.5      -486.5
        5546        730.8      -1763.      -474.2      -4188.       171.7      -255.1
        5547       -397.8      -2.697       6072.       57.68      -1451.       26.36
        5548        140.1       9235.       1116.      -375.6      -76.93      -545.6
        5549        149.7       5073.       502.3      -206.2       230.8      -453.5
        5550        3447.       5.603       2303.      -28.19      -3371.       55.23
        5551       -6394.       3301.       221.8      -327.2       2621.      -702.0
        5552       -8058.       1875.       41.93       82.20       2771.      -195.2
        5553        3649.       1765.      -4091.      -3611.       826.0      -448.6
        5554       -494.0       1496.      -833.4      -2754.       3531.      -2693.
        5555       -4774.      -1544.      -1121.      -1436.       2041.      -3409.
        5556        8158.       448.4       298.5      -68.50      -1063.      -1418.
        5557        6970.       709.2       1248.      -67.66      -804.2      -2548.
        5558        8400.       321.4       1099.      -102.6      -475.9      -2030.
        5559        7726.       291.3       36.55      -51.06      -549.3      -1358.
        5560       1.0301E+04  -635.8      1.0314E+04  -1833.      -740.9      -2049.
        5561       -8936.      -2600.     -1.0067E+04  -1359.       2091.      -1181.
        5562       -5802.      -2718.      -6684.      -1872.       2103.      -1703.
        5563       -5137.       3267.       4051.      -869.3       2231.      -3827.
        5564        550.3      -3641.      -1259.      -148.8      -69.66       247.6
        5565        443.2      -3284.      -1569.      -453.4       134.5       821.2
        5566        837.1      -3601.      -1352.      -378.0      -121.7       710.1
        5567        551.1      -4147.      -829.9       15.51      -140.8      -121.4
        5568        470.9      -3771.      -1163.      -253.8       5.782       1018.
        5569        499.4      -3198.      -1698.      -555.5       163.0       1011.
        5570        670.4       5250.       523.5      -48.65       185.2      -41.84
        5571        118.8       9027.       1598.      -42.55       11.31      -545.5
        5572        691.4       4349.      -320.3       836.3       82.80       401.9
        5573        1302.       9898.       902.1       230.7      -59.64      -409.4
        5574        2295.       5289.       303.9       69.41       89.07      -146.7
        5575       -44.60       7227.       824.7       276.6       44.18       274.9
        5576        403.6       2368.      -353.5       575.6       125.1       131.0
        5577        327.6       9262.       1562.       173.6       74.83      -237.8
        5578       -51.68       6263.       960.4       175.6       55.66      -242.7
        5579      -0.2689       2909.      -4644.       140.0      -39.08      -1388.
        5580       -162.6       2444.      -4928.       693.4      -263.8      -806.0
        5581        494.5      -2515.      -2270.       409.0       28.36      -1455.
        5582        2242.       430.2       6000.      -1376.      -3135.      -885.8
        5583       -1907.      -1385.      -3463.       111.2       156.7      -258.9
        5584       -259.1      -1054.      -4219.       216.4       77.03      -774.5
        5585       -1326.      -1426.      -3633.       216.2       178.8      -387.9
        5586        3501.       347.3       4689.      -983.8      -3927.      -831.0
        5587        3623.       174.2       204.3      -20.10      -1333.       49.02
        5588        7159.      -188.2       8090.      -1730.      -3160.      -1657.
        5589        719.8      -3699.      -1215.       247.9      -157.8      -303.1
        5590        1431.       331.3       5908.      -839.8      -3422.      -496.5
        5591        511.1       289.8       5803.      -504.6      -3013.      -227.4
        5592       -5806.       7404.      -24.60       19.60       181.4      -617.2
        5593       -899.0      -1831.      -2811.       615.1       332.2      -1013.
        5594       -82.84      -2632.      -2202.       777.1       207.8      -1116.
        5595        626.8       7461.       39.46      -3.349      -159.0       47.31
        5596       -3090.       3370.       1978.      -1714.       3856.      -3276.
        5597       -1860.       7198.      -2627.      -2458.       5283.      -2272.
        5598        6836.       228.0       2537.      -681.8      -3726.      -1123.
        5599        6417.       363.4       1972.      -767.5      -3007.      -1382.
        5600        6777.       306.2       3073.      -1151.      -3032.      -1886.
        5601        978.4      -3768.      -1245.      -134.1      -215.2       344.2
        5602        343.2      -3601.      -1232.      -128.4      -15.22       263.5
        5603        6598.       405.1       1445.      -542.2      -2642.      -1344.
        5604        1.745       6549.      -7137.      -932.9       316.8      -533.0
        5605       -37.55       6823.      -8406.      -1371.       386.0      -391.7
        5606        50.77       6527.      -8383.      -1277.       715.6      -863.9
        5607        77.24       5860.      -5499.      -464.4       112.8      -837.9
        5608       -23.72       6140.      -7315.      -904.5       615.1      -1139.
        5609      -1.6725E+04  -2704.     -1.6296E+04  -249.1       368.5      -662.8
        5610      -1.0109E+04  -2007.      -9531.       30.22      -39.62      -1268.
        5611       2.1268E+04   591.6      2.1057E+04  -530.4      -602.7      -759.1
        5612        405.9      -1685.      -3137.       278.8      -5.324      -1441.
        5613        113.0      -1269.      -4016.       196.8       42.16      -1276.
        5614        223.3      -1395.      -3986.       200.5      -57.88      -1103.
        5615       -983.7      -1608.      -3332.       397.4       288.1      -849.3
        5616       -6758.       7561.      -1098.      -517.4       2952.      -1202.
        5617       -5460.       7559.      -1217.      -464.6       2701.      -798.3
        5618       -5718.       7537.      -941.5      -399.0       2466.      -835.2
        5619       -7020.       7448.      -818.1      -463.0       2641.      -1217.
        5620       -7978.       7317.      -928.1      -617.7       3037.      -1612.
        5621        265.9      -2702.      -2229.       425.5       130.7      -1457.
        5622        449.1      -3218.      -1578.       596.7       50.79      -986.9
        5623        678.5      -3591.      -1167.       359.2      -112.3      -1073.
        5624        206.8      -2809.      -1982.       386.4       157.7      -1469.
        5625        1728.      -3121.      -687.3      -56.10      -423.6       250.1
        5626        504.4      -3502.      -1366.       425.5      -15.83      -658.2
        5627        364.4      -3786.      -1213.       275.5      -41.21      -955.7
        5628        1029.      -1656.      -1332.       169.7      -385.4       629.5
        5629        1984.       298.3      -1384.       101.6      -404.5       535.9
        5630        2346.       1915.      -528.0       280.4      -222.6       178.7
        5631        2687.      -441.4      -665.8      -63.35      -411.6       389.9
        5632        1218.       132.8      -859.9       484.1      -140.2       273.1
        5633        1138.      -2336.      -1493.      -239.0      -389.1       913.4
        5634        1358.      -2460.      -991.8       95.54      -467.6       311.9
        5635        2631.       1126.      -322.6       71.61      -273.8       38.07
        5636        882.3      -3770.      -1181.       280.9      -212.7      -256.9
        5637       1.5370E+04  -453.9      1.4701E+04  -1086.      -1123.      -1477.
        5638       1.5188E+04  -606.3      1.2157E+04  -391.7      -481.3      -2067.
        5639       -3391.      -2630.      -7493.      -2430.       1712.      -961.9
        5640       -5204.      -2653.      -8614.      -2276.       1673.      -1009.
        5641        542.4      -3543.      -1286.       189.8      -59.64      -268.3
        5642       -129.7       102.9       5617.      -317.8      -2205.      -50.69
        5643        267.2      -4251.      -899.9      -151.1      -21.91       629.8
        5644       -59.02       203.6       6440.      -444.7      -2528.      -171.7
        5645       -133.4       363.9       6415.      -403.2      -2256.      -9.965
        5646       -56.76       261.2       6600.      -705.6      -2319.      -175.2
        5647        1057.      -3808.      -753.7       163.4      -266.2      -528.3
        5648       -704.2      -937.7      -4524.      -117.7       111.3       571.5
        5649       -459.3      -1017.      -4363.      -217.3       149.7       929.3
        5650        4196.       3046.      -4021.      -3745.       2566.      -1048.
        5651        2971.       2590.      -2796.      -3371.       1667.      -792.1
        5652       -5465.      -2229.      -4537.      -339.3       107.9      -2623.
        5653        767.2       322.5       527.5      -40.38      -711.3      -165.3
        5654       -1771.       2794.      -1748.      -1297.       2986.      -1195.
        5655       1.3079E+04  -256.7      1.0529E+04  -1024.      -1768.      -2381.
        5656       1.3334E+04  -442.3      1.0902E+04  -825.6      -1176.      -2311.
        5657       1.3746E+04   1.378       9893.      -935.0      -1724.      -2236.
        5658       -570.6       3612.      -693.2      -2930.       5607.      -2887.
        5659       -1583.       3879.      -758.5      -2488.       4989.      -2617.
        5660        2830.       198.1       3387.      -456.2      -3948.      -430.2
        5661        4232.       2.753       2352.      -547.2      -3769.      -700.2
        5662       -4387.       1417.       2868.      -838.1       1895.      -3640.
        5663       -3460.       2262.       2845.      -837.9       1668.      -3417.
        5664        5309.       161.2       2938.      -773.7      -3874.      -1137.
        5665        5605.       492.9       2888.      -772.5      -3506.      -1357.
        5666        973.2       246.9       7392.      -1167.      -2499.      -383.0
        5667       -475.9       286.4       6695.      -271.9      -2016.      -24.81
        5668       -2354.       1858.      -6680.      -256.6       5209.      -537.8
        5669        9669.      -292.3      1.0044E+04  -2174.      -2419.      -1874.
        5670       -932.1       39.21      -3373.       528.7       1480.       136.3
        5671       -545.2       787.9      -370.7      -160.7       365.9      -241.2
        5672        2365.       103.2       1200.      -27.75      -1998.       6.003
        5673       -5176.       7554.      -1499.      -514.0       2896.      -766.6
        5674       -5870.      -688.8       1001.      -274.4       699.2      -3539.
        5675       -2743.       2076.       2249.      -224.1       279.2      -4026.
        5676       -1701.       2539.       2528.      -414.6       385.9      -3554.
        5677       1.5781E+04  -424.9      1.4726E+04  -639.2      -681.0      -1660.
        5678       -4800.      -2350.      -4719.      -554.8       182.1      -1943.
        5679       -5617.      -2347.      -4752.      -426.6       147.9      -2319.
        5680       1.8206E+04  -4.926      1.7595E+04  -703.8      -596.4      -1196.
        5681        652.2       7434.       11.52       3.637      -109.0       30.91
        5682        634.2       7355.       1.787       5.823      -88.53       23.89
        5683        620.4       7436.     -0.1145       4.378      -88.81       58.91
        5684        622.3       7453.       16.26       6.555      -118.7       56.44
        5685       1.7602E+04  -357.2      1.6997E+04  -1041.      -642.1      -1122.
        5686       1.8427E+04  -380.6      1.8047E+04  -884.6      -832.4      -944.5
        5687        367.5       130.6       5626.      -138.2      -2955.      -190.8
        5688       -8047.       7898.       5.661      -3.676       304.7      -1215.
        5689       -7202.       6897.      -30.62       48.56       164.5      -897.0
        5690       -6785.       7606.       55.08      0.4283       456.7      -894.0
        5691       -6439.       7571.      -1438.      -647.3       3232.      -1135.
        5692       -3744.       11.22      -417.5       88.04       938.6       382.6
        5693        70.68       8211.       252.5       51.00      -155.9      -47.77
        5694        48.28       8393.       200.4       42.60      -101.4      -60.91
        5695        66.89       8285.       234.6       112.1      -132.1      -145.8
        5696        118.8       8251.       312.8       98.67      -193.8      -96.67
        5697        586.3       7373.      -11.19       8.752      -17.65       81.39
        5698       -6163.      -1938.      -1197.      -967.2       2103.      -3009.
        5699      -1.2732E+04  -2506.     -1.0667E+04  -316.5       463.7      -1550.
        5700      -1.3160E+04  -2673.     -1.1350E+04  -554.1       561.1      -1534.
        5701       -3577.      -1871.      -2883.      -84.37       99.04      -2775.
        5702        1510.       3326.      -1522.      -3087.       4510.      -2189.
        5703       -3902.       2788.       3909.      -185.6       338.6      -3456.
        5704       -2398.       2698.       2066.      -134.9       218.8      -2637.
        5705       -3464.       3063.       2201.      -158.6       265.2      -2456.
        5706       -5047.       2984.       4064.      -187.3       416.4      -3494.
        5707       -1829.       2867.      -2233.      -1210.       3132.      -1058.
        5708       -1373.       1838.      -1532.      -659.3       1647.      -529.7
        5709       -799.2       4465.      -2371.      -3015.       5549.      -2734.
        5710        1709.       179.9       3839.       47.51      -3250.      -35.39
        5711        1993.       88.89       3537.       4.637      -3374.       36.10
        5712       -616.8      -29.17       6274.       78.00      -222.2      -55.94
        5713        1296.       2208.       455.6      -2512.       26.71      -69.53
        5714        5589.       401.8       1444.      -554.0      -3133.      -969.9
        5715        664.5      -3513.      -1366.       533.1      -85.36      -763.4
        5716       -9377.      -2675.      -8284.      -1316.       1105.      -1727.
        5717        3491.       3723.      -5139.      -3710.       2579.      -1087.
        5718       2.0365E+04  -113.2      2.1560E+04  -780.0      -333.3      -461.2
        5719       -7557.       4270.       1347.      -145.5       666.7      -1178.
        5720       -7186.       7029.       4110.      -337.9       797.0      -4503.
        5721       -4893.      -1987.      -5017.      -221.4      -179.2      -476.1
        5722       -630.6       472.3      -149.2      -121.5       125.8      -126.5
        5723       -766.8       617.2      -186.1      -78.93       96.28      -202.3
        5724        6934.      -1262.       7713.      -2631.      -68.18      -212.7
        5725        2358.       383.3       4473.      -818.9      -3567.      -688.4
        5726       -2628.      -1830.      -3454.      -2966.       168.7      -320.1
        5727        302.8       7100.      -9576.      -1938.       1405.      -908.5
        5728        1037.      -61.80       4682.      -60.95      -3141.      -23.70
        5729        713.3      -93.15       3070.       111.9      -1920.      -78.58
        5730        1338.      -8.537       4209.       44.47      -3165.      -68.86
        5731        656.8       43.24       2949.       82.35      -1704.      -14.27
        5732       -5456.       191.5       44.43       146.3       959.2       483.9
        5733       -6946.       3033.       541.0      -160.8       1562.      -759.6
        5734       -4990.       2501.       580.0      -226.7       1080.      -908.3
        5735       -7413.       292.8       136.6       90.79       1187.       497.9
        5736       -8372.       3126.       1009.      -71.15       1324.      -324.6
        5737       1.0560E+04   61.82       5933.      -889.9      -2598.      -2253.
        5738       -3006.      -1755.      -2663.      -194.1       77.15      -2075.
        5739        4254.      -245.2      1.0855E+04  -2643.      -644.6      -435.0
        5740        4445.       42.89       9872.      -2849.      -1579.      -724.7
        5741        4320.       6.762       8487.      -3239.      -1451.      -1174.
        5742        7198.      -264.8      1.2142E+04  -2249.      -1979.      -867.0
        5743        6289.      -426.4      1.0665E+04  -2843.      -1434.      -813.1
        5744        8506.      -437.5      1.0404E+04  -2216.      -2540.      -1610.
        5745        1673.       347.8       144.4       52.74      -431.7      -97.13
        5746        2777.      -1432.       2312.      -405.6      -99.42      -1309.
        5747       -3276.       1439.      -4539.       26.03       4869.      -3.893
        5748       -8959.      -2452.      -3537.      -529.5       934.1      -2295.
        5749       -8833.      -2656.      -3178.      -240.2       531.1      -2396.
        5750        9141.      -436.2      1.2918E+04  -2351.      -1840.      -919.6
        5751        1086.       300.5       8515.      -2068.      -460.9      -128.0
        5752        628.5       187.0       8817.      -1600.      -1066.      -133.5
        5753       -132.1       424.6       6912.      -1301.      -232.0      -104.1
        5754      -1.5780E+04  -2787.     -1.6394E+04  -722.4       427.7      -420.3
        5755      -1.2977E+04  -2561.     -1.3854E+04  -918.2       304.7      -344.3
        5756        2651.       61.76       1002.       66.24      -1961.      -47.34
        5757        3692.       103.6       1754.       40.54      -3298.       3.999
        5758        4489.       29.14       1440.      -5.028      -3823.      -139.9
        5759       -3742.      -156.2       875.9      -850.3       1039.      -3929.
        5760       -5791.       3471.       3426.      -170.1       423.7      -3370.
        5761       -3672.      -100.4      -270.6       114.7       524.1       589.3
        5762        3373.       268.1       3493.      -715.2      -3789.      -672.3
        5763        4054.       58.56       3412.      -595.3      -4260.      -631.1
        5764       -121.3       162.5       5780.       61.39      -1828.       54.38
        5765        114.6       63.72       3615.       64.20      -1231.      -14.10
        5766        464.5       7447.       17.64       10.09      -103.0       122.7
        5767        451.5       7555.       35.02       34.03      -144.8       130.7
        5768        933.6      -1616.      -514.8      -4502.       204.4      -334.4
        5769        4082.      -337.1       7917.      -4146.      -254.3      -30.17
        5770        6520.       222.0       509.4      -375.6      -2658.      -786.8
        5771      -1.0630E+04  -2447.     -1.2390E+04  -1381.       1381.      -846.0
        5772       -8530.      -2767.     -1.0968E+04  -1671.       1592.      -839.6
        5773        965.9      -3315.      -1216.       402.8      -176.2      -1150.
        5774       -848.2      -1619.      -3157.       401.7       394.9      -884.2
        5775        6337.      -1193.       7488.      -3433.      -142.0      -215.2
        5776        74.78      -2683.      -2116.       687.5       321.3      -1055.
        5777        2425.      -1488.       2192.      -3852.      -50.98      -308.1
        5778       1.3081E+04  -197.9      1.4857E+04  -2018.      -649.2      -589.5
        5779        6775.      -1126.       7762.      -3024.      -115.3      -329.5
        5780        9794.      -760.0      1.0993E+04  -2649.      -424.8      -414.0
        5781       -31.90      -348.0      -4208.       403.2       170.1       1.882
        5782       1.4433E+04  -206.7      1.7475E+04  -1659.      -735.4      -438.6
        5783       1.6114E+04  -47.56      1.8663E+04  -1470.      -595.4      -476.5
        5784       -4642.       2082.       4373.      -218.2       521.2      -3614.
        5785        619.8       7435.      -18.50     -0.5217      -58.32       62.62
        5786       1.6320E+04  -688.4      1.6267E+04  -1103.      -1462.      -1097.
        5787       1.6313E+04  -148.2      1.6890E+04  -1149.      -1146.      -1107.
        5788       -1804.       7339.      -19.74      -48.26       134.9      -22.79
        5789       -3894.      -40.33      -307.8       105.4       450.1       468.6
        5790       -8673.      1.1917E+04   896.8      -237.2       189.7      -2635.
        5791       -9631.       7058.       724.6      -285.5       887.2      -2227.
        5792      -1.0908E+04   3694.       882.6      -93.29       257.7      -1849.
        5793       -3542.      -12.90      -515.3       139.8       1091.       393.0
        5794        1201.      -2658.      -1442.       382.7      -224.1      -1194.
        5795       -4225.      -1956.      -6379.      -3036.       327.6      -120.4
        5796       -2721.      -1807.      -2091.      -129.2       283.7      -2484.
        5797        3048.       258.7       8967.      -1527.      -3351.      -689.3
        5798       -334.4      -1755.      -1296.      -3381.       105.1      -245.0
        5799       1.2194E+04  -486.2      1.5666E+04  -2092.      -330.9      -227.1
        5800        837.6      -1.774       173.1       22.76      -477.2       44.78
        5801        731.2       11.43       156.5      -17.46      -438.9      -112.2
        5802        8354.      -474.9      1.3531E+04  -2514.      -455.1      -193.6
        5803       -4331.       7593.      -1259.      -339.9       2369.      -532.5
        5804        600.9       71.40       701.4      -9.284      -679.4      -10.47
        5805        557.5       7447.       28.80       11.71      -134.2       103.3
        5806        212.5       8038.       352.9       73.18      -270.9      -43.03
        5807        3946.       170.9      -13.91      -56.72      -929.1       47.73
        5808        3335.       686.6      -92.20      -53.39      -52.97      -429.3
        5809       -7955.       9344.       2755.      -360.7       694.4      -3380.
        5810       -8043.       6556.       2230.      -208.7       1065.      -1815.
        5811        4854.       773.1      -175.9      -18.98      -298.6      -733.2
        5812        5133.       429.8      -433.7       21.45      -608.0      -782.8
        5813        1765.       1403.       380.9      -163.5      -64.09      -1564.
        5814        4016.       1194.       339.7      -107.8      -156.2      -1794.
        5815        1101.       1435.      -1457.      -1058.      -309.3       31.52
        5816       -485.0       1862.      -2024.      -1479.      -239.0       121.4
        5817       -158.0      -43.97      -2536.      -797.2      -192.7       109.8
        5818        6954.       361.6       9.023      -114.7      -1199.      -1212.
        5819        888.2      -98.11       200.3       39.29      -435.9       91.63
        5820        6150.       25.85      -708.9       45.01      -952.6       35.53
        5821        22.85       7450.      -11.98       3.385      -3.468       158.3
        5822       1.1074E+04  -358.3       6540.      -621.8      -1545.      -2612.
        5823        155.3       6872.      -9726.      -1907.       1746.      -954.3
        5824        81.82       7094.      -8952.      -1519.       1245.      -1057.
        5825        118.4       7505.      -9567.      -2091.       2215.      -979.5
        5826       -2256.       1416.      -596.1      -283.7       1081.      -663.1
        5827       -338.3      -2098.      -2932.      -678.5       469.1       1200.
        5828       -467.2      -1909.      -2948.      -698.7       458.0       1107.
        5829        341.3      -1740.      -3197.      -388.2       98.24       1557.
        5830       -1116.      -1510.      -3292.      -390.1       478.8       700.6
        5831       -679.0      -1770.      -3163.      -494.7       522.7       1011.
        5832       -210.4      -1376.      -3830.      -292.5       253.6       1298.
        5833       -228.8       6031.      -478.0      -651.6      -249.4       1179.
        5834       -1263.      -1517.      -3486.      -482.8       477.1       908.7
        5835       1.5912E+04  -610.3      1.7554E+04  -1425.      -183.9      -219.8
        5836        52.84      -2993.      -1711.      -85.21       83.22       1490.
        5837        2502.       261.9       4039.      -747.3      -3753.      -643.9
        5838        29.14       8399.      -9068.      -2146.       2868.      -968.0
        5839       -304.4      -929.1      -4093.       176.0       105.6      -716.9
        5840        642.9       6777.      -9546.      -2145.       2421.      -938.4
        5841        6508.       94.08      -743.4       48.25      -751.6      -504.2
        5842        6802.      -41.69      -866.9      -50.89      -472.3      -279.3
        5843        7520.       159.8      -1046.      -59.44      -497.0      -509.8
        5844        6158.       284.6      -227.2      -99.75      -293.3      -1170.
        5845        7733.       209.5      -521.3      -52.86      -942.0      -802.5
        5846        331.4      -41.08       927.7       77.15      -523.6      -55.69
        5847        372.7      -24.93       786.9       70.24      -604.4       38.54
        5848        418.4      -49.64       845.0       72.63      -639.2       61.13
        5849        535.9      -84.41       5451.      -9.135      -2310.      -16.13
        5850        664.5      -3188.      -1687.      -640.0       48.58       1118.
        5851        908.6      -3642.      -1355.      -432.9      -169.7       772.5
        5852       -165.6      -1160.      -3224.      -81.51       206.0       994.5
        5853        121.1       1548.      -1893.      -1238.      -328.2       395.2
        5854        463.9       3218.      -1195.      -1436.      -283.0       483.6
        5855       -124.9       7789.      -350.2       139.3       208.7      -16.15
        5856       -178.5       7765.      -389.3       123.6       254.8       7.253
        5857       -391.1       7730.      -873.7       29.11       560.0       70.10
        5858        2987.       213.5       7298.      -1641.      -3110.      -956.3
        5859       -3718.       7646.      -307.5      -105.0       1129.      -292.6
        5860        5718.       167.2      -488.8       66.93      -1175.       28.29
        5861      -1.1545E+04  -2694.     -1.1429E+04  -982.5       1065.      -1422.
        5862      -1.2979E+04  -2767.     -1.2107E+04  -794.7       886.4      -1258.
        5863       -9507.       6773.      -192.9      -514.4       2176.      -1752.
        5864        9148.      -558.4      1.3009E+04  -2660.      -1085.      -626.3
        5865        3434.      -72.24       2197.      -44.43      -3082.       1.096
        5866       -1260.       7821.      -2856.      -373.8       1935.      -53.33
        5867       -3048.      -1896.      -4720.      -2445.       2901.      -1740.
        5868        5772.       67.57      -33.60      -33.82      -2073.       38.89
        5869        5367.      -10.64      -38.24       10.70      -1630.       71.99
        5870       1.0910E+04   77.65       3749.      -389.6      -1014.      -2401.
        5871       -12.65      -1479.      -2569.      -32.75       148.7       935.1
        5872       -7261.      -2920.      -7829.      -1490.       2452.      -1585.
        5873       -7645.       7136.      -177.3      -364.5       1623.      -1140.
        5874        240.6       178.4       6250.      -457.4      -2841.      -192.6
        5875       -7623.      -2850.     -1.0669E+04  -1988.       1223.      -711.9
        5876       -1709.       8069.      -6284.      -1252.       3503.      -566.6
        5877        470.1      -31.99       730.5       38.57      -547.7       56.09
        5878       -2168.       7726.      -3095.      -518.0       2659.      -276.6
        5879       -2509.       7780.      -2821.      -483.5       2719.      -330.0
        5880        49.92      -2772.      -1873.      -302.8       222.6       1041.
        5881        29.63      -2203.      -2038.      -83.85       171.9       1233.
        5882       -959.0       7984.      -1107.      -91.03       1033.       26.24
        5883        758.8       1702.      -7228.      -88.40       248.0      -130.2
        5884       -272.2       9046.      -4498.      -427.2       1163.       485.4
        5885       -4861.       7399.      -606.8      -271.3       1767.      -540.6
        5886       -6143.       7424.      -485.3      -272.0       1927.      -865.7
        5887       -2415.       7644.      -1729.      -304.8       2083.      -224.1
        5888        3273.       46.13       601.6      -5.943      -1783.       61.30
        5889        482.1       7629.       183.4       24.91      -301.2       47.20
        5890        3252.      -25.42       365.8      -48.13      -1572.       26.83
        5891        1739.      -1059.      -1734.      -85.47      -321.1       965.0
        5892       -5858.       6275.      -3234.      -1376.       5378.      -1681.
        5893       -5385.       7133.      -3127.      -1493.       5061.      -1617.
        5894       -5064.       6572.      -1778.      -1356.       4987.      -1662.
        5895       1.4354E+04  -180.0      1.3151E+04  -1005.      -1142.      -1874.
        5896       1.5510E+04  -98.53      1.3500E+04  -794.1      -1779.      -1749.
        5897       -4439.       7569.      -1000.      -320.1       2171.      -521.5
        5898       1.2556E+04  -307.8      1.0796E+04  -1209.      -1890.      -2332.
        5899       -2717.       7602.      -1593.      -310.2       2092.      -233.1
        5900       -13.28       7353.      -33.24      -1.077      7.3074E-02   149.5
        5901        3.828       7452.      -47.35      -11.60      -12.27       169.1
        5902        385.9       7471.       45.01       27.52      -152.8       115.0
        5903       -65.36      -1117.      -2866.      -15.49       100.2       480.1
        5904       -8753.       6588.      -949.6      -684.5       3377.      -1793.
        5905       -650.8       7850.      -39.28       9.047       206.1       115.0
        5906       -416.3       7736.      -292.2       54.65       352.2       102.1
        5907       -652.7       8084.      -3326.      -436.1       1558.       123.9
        5908       -620.1       7902.      -2287.      -233.0       1203.       126.6
        5909       -867.0       7972.      -3225.      -414.6       1726.       30.35
        5910       -43.67       7807.      -102.6       161.6       57.39      -20.52
        5911       -55.61      -1310.      -2786.       47.32       133.4      -703.6
        5912        105.7       8177.       294.1       165.0      -181.2      -176.0
        5913        65.86       8243.       243.8       175.5      -140.2      -237.8
        5914       -1094.       8022.      -4179.      -644.7       2261.      -91.04
        5915       -848.0       8145.      -4441.      -670.0       2093.      -18.31
        5916       -866.4       556.7      -4126.       838.3      -801.5       264.9
        5917        630.5       108.2      -3779.       537.1      -466.7       467.2
        5918        192.9       344.9       7225.      -1380.      -1643.      -274.4
        5919       -186.7      -1812.      -2575.      -475.7       54.63       1119.
        5920        712.4       5869.      -9884.      -1757.       1911.      -877.0
        5921        3898.       3965.      -6098.      -3806.       1571.      -470.1
        5922       -79.25       7750.      -52.04       15.76       109.0       202.9
        5923        5987.       229.7       226.6      -15.57      -2833.      -162.0
        5924        294.5       7913.       316.4       94.43      -296.6       17.03
        5925        814.6      -2253.      -1993.      -562.5      -197.6       1214.
        5926        18.02      -2401.      -2446.      -788.4       258.5       1204.
        5927        1006.      -1763.      -2296.      -470.3      -104.5       1395.
        5928       -4870.       7575.      -1783.      -573.2       3063.      -727.3
        5929        4843.       29.59       1567.      -267.0      -3842.      -459.8
        5930       -3524.       7483.      -3293.      -702.0       3484.      -606.1
        5931       -3047.       7669.      -3588.      -715.2       3407.      -518.1
        5932       -3635.       7741.      -5313.      -1346.       4624.      -1018.
        5933       -4491.       7161.      -5226.      -1340.       5157.      -1194.
        5934       -4037.       7577.      -4869.      -1218.       4617.      -998.9
        5935       -2752.       1309.       99.68      -36.07       30.01      -438.1
        5936       -922.5       7763.      -2073.      -205.6       1387.       23.90
        5937       -5633.       6077.      -3861.      -1369.       5310.      -1772.
        5938       -5269.      -807.0      -4813.       21.33       5618.       5.540
        5939       -3575.       3976.      -4662.      -638.9       5258.      -674.2
        5940       -3325.       6901.      -3494.      -1506.       5130.      -1771.
        5941       -5357.       528.8      -2491.       186.5       4651.       140.3
        5942        225.2       7483.       23.10       35.95      -103.7       113.5
        5943        218.6       7425.       13.46       24.26      -92.99       121.7
        5944       -319.9       7379.      -76.75       20.03       113.7       125.5
        5945       -286.4       7521.      -42.22     -0.7849       94.71       122.6
        5946       -911.2       8258.      -6065.      -942.3       2521.      -289.5
        5947       -2176.       7255.      -79.11      -35.55       288.3      -102.7
        5948       -1357.       7455.      -32.37       12.39       150.2       54.52
        5949       -1461.       7462.      -81.68       13.67       252.9       55.58
        5950       -4119.       7492.      -212.5      -116.2       944.9      -342.6
        5951       -4107.       7424.      -66.67      -84.47       698.5      -357.7
        5952        27.26       7531.       3.657       39.45      -20.12       139.3
        5953        262.5       7524.       67.80       40.82      -134.3       120.8
        5954       -5716.       7402.      -101.2      -124.0       695.8      -672.0
        5955       -4496.       7611.      -56.04      -92.31       500.2      -414.3
        5956      -1.2919E+04  -2809.     -1.2287E+04  -890.8       320.9      -879.0
        5957       -8244.       7378.      -625.0      -523.3       2660.      -1608.
        5958        37.52       7702.      -3.880       176.2      -19.25      -65.75
        5959       -1965.       5927.      -7919.      -2219.       4650.      -965.0
        5960       -1332.       5704.      -7923.      -2001.       4238.      -1094.
        5961       -1376.       7012.      -8315.      -1513.       4035.      -808.8
        5962       -1410.       7716.      -1663.      -156.8       1542.      -55.67
        5963       -2057.       7429.      -84.79      -40.52       371.6      -18.22
        5964       -1334.       7519.      -89.68      -7.525       302.1       63.58
        5965       -2587.       7499.      -435.2      -93.84       1100.      -131.3
        5966       -2349.       7922.      -6659.      -1526.       4213.      -871.8
        5967       -7571.       1996.      -809.3      -73.32       4373.      -297.5
        5968       -5308.       7427.      -263.0      -181.6       1235.      -565.0
        5969        110.2      -4550.      -857.4      -8.965       14.74       211.5
        5970        5076.       3718.      -6644.      -4159.       414.6      -280.2
        5971       -3291.      -1858.      -3777.      -2096.       245.3      -314.2
        5972       -208.9      -1170.      -3156.       25.91       188.6      -462.1
        5973       1.2578E+04  -634.9      1.3041E+04  -1683.      -2304.      -1544.
        5974       1.1762E+04  -599.6      1.3062E+04  -1785.      -2012.      -1530.
        5975       -544.1       179.1       6903.      -188.2      -1481.      -31.81
        5976       -2978.      -2595.      -8741.      -2442.       351.2      -286.5
        5977       -323.5       1613.      -3867.       1461.      -1102.       483.6
        5978       -43.84       8213.      -166.9       43.83       87.03       26.56
        5979        3515.       59.85       2084.      -31.79      -3474.       48.08
        5980        958.8      -62.52       4333.       64.06      -2730.       9.941
        5981       -1102.       7561.      -8814.      -1830.       3605.      -946.7
        5982       1.0717E+04  -463.6      1.3998E+04  -2424.      -946.6      -645.9
        5983       -2441.       7524.      -942.1      -139.0       1472.      -129.5
        5984        1160.      -70.30       312.3      -41.88      -452.1       91.05
        5985       -8878.       6817.      -693.3      -651.8       3066.      -1813.
        5986       1.3048E+04  -432.8      1.4995E+04  -1515.      -1526.      -1314.
        5987        350.4       69.93       912.1      -69.38      -531.1      -34.30
        5988        1631.       99.34       3972.       98.61      -3087.      -75.10
        5989        1578.       124.1       5583.      -761.7      -3680.      -579.4
        5990        791.0       48.97       389.9       15.77      -606.7      -66.32
        5991        696.9       24.39       5143.      -64.29      -2415.      -9.938
        5992        805.9       92.33       577.9       26.62      -624.9      -52.46
        5993        211.9       8024.       351.9       31.27      -277.0      -19.62
        5994        252.0       7960.       351.8       60.76      -296.1      -25.42
        5995        890.8      -39.74       365.5       39.42      -605.0       101.2
        5996        371.0       1042.      -4584.      -119.5       112.4      -119.9
        5997        2138.       187.0       8781.      -2356.      -1244.      -326.9
        5998        1724.       305.2       7850.      -1908.      -1961.      -640.2
        5999       -113.1      -25.23       1395.      -25.39      -99.24      -3.294
        6000        8313.       300.1       1504.      -260.2      -1769.      -1642.
        6001        858.5       2.218       294.6       79.58      -524.8      -14.76
        6002        1231.       423.1       333.0      -24.92      -628.3      -68.85
        6003        280.3      -41.91       5491.       130.6      -2218.      -6.159
        6004        483.4       7713.       226.7       23.00      -317.3       28.81
        6005        1256.      -3640.      -769.9      -57.52      -293.1       311.1
        6006       1.4215E+04  -91.43       7606.      -210.1      -792.3      -2067.
        6007      -1.3931E+04  -2944.     -1.2572E+04  -554.7       353.6      -1143.
        6008        4678.       2735.      -3009.      -3459.       3523.      -1060.
        6009        812.9       260.9       6760.      -640.9      -3086.      -350.5
        6010       -425.3       172.4       6481.       54.17      -735.5      -116.9
        6011        103.0       191.2       6455.      -151.3      -2849.      -96.89
        6012        2598.       22.59       9623.      -2565.      -473.6      -201.4
        6013        85.06       49.99       1030.      -23.07      -319.4      -130.4
        6014        3439.       143.9      1.1231E+04  -2226.      -1013.      -315.4
        6015       -968.9       3444.      -5055.      -854.6       3585.      -520.4
        6016        1301.       471.0       275.7      -41.92      -639.1      -54.20
        6017        1655.       6857.      -7890.      -2546.       2141.      -811.8
        6018        2333.      1.0327E+04  -7430.      -3102.       1801.      -719.6
        6019        328.9      -317.9     -1.0013E+04   201.6       2327.      -327.9
        6020        3895.       147.1       1671.       22.87      -3036.       71.00
        6021        4998.       91.88       548.3       24.46      -2635.       71.61
        6022        1013.      -3316.      -1295.      -400.6      -139.9       1091.
        6023        150.0      -2685.      -2360.      -815.6       339.8       1179.
        6024        788.6      -3196.      -1668.      -676.2      -48.78       1090.
        6025        210.7      -2614.      -2256.      -800.4       416.8       1120.
        6026        449.3       7651.       212.7       29.88      -314.0       43.57
        6027        248.5       361.4       1426.      -53.30      -707.3      -103.8
        6028        1079.      -3694.      -1249.      -175.7      -287.6       438.3
        6029        1483.      -3004.      -1061.      -340.4      -314.4       973.0
        6030        936.1      -2392.      -1990.      -590.2      -33.89       1530.
        6031       -750.1      -1569.      -3148.      -583.0       364.3       988.6
        6032        1042.      -2931.      -1557.      -597.7      -252.5       1102.
        6033        1633.       266.0      -31.79       103.0      -302.8      -120.3
        6034        561.3       622.3       67.11       59.38      -121.6      -136.5
        6035      -1.2457E+04  -2446.     -1.1114E+04  -358.9       348.1      -1430.
        6036      -0.4467      -2588.      -2133.      -110.4       155.3       1503.
        6037       1.1649E+04  -57.95       5223.      -337.2      -595.5      -2502.
        6038        588.7       508.2       29.16      -32.48      -48.61      -143.8
        6039       -8102.      -2529.      -6785.      -1313.       2304.      -1771.
        6040       -2061.       7920.      -4594.      -829.9       3193.      -408.4
        6041       -142.7       859.9      -3606.      -281.3       294.6      -148.2
        6042       -9439.       7127.       266.5      -336.7       1674.      -2070.
        6043       -6685.       3427.       5298.      -329.9       729.6      -4214.
        6044       1.8809E+04  -257.8      2.0290E+04  -951.7      -549.6      -345.1
        6045       1.7874E+04  -93.66      1.9798E+04  -1175.      -603.1      -573.2
        6046       -702.0      -1552.      -3129.      -276.8       454.8       769.3
        6047        4161.       5997.      -6720.      -4565.       2800.      -1168.
        6048       -201.4       286.0      -227.6      -17.56       20.81      -15.28
        6049        504.6       148.3       7651.      -1230.      -2147.      -381.6
        6050        448.7      -2522.      -2285.      -516.7       162.1       1564.
        6051        104.6      -1898.      -2983.      -413.0       236.5       1621.
        6052        3593.       6306.      -7305.      -4095.       790.6      -457.9
        6053       -9393.      -2563.      -8780.      -1284.       1736.      -1431.
        6054       -5035.       7493.      -2850.      -832.7       3899.      -972.5
        6055       -4247.       7559.      -2399.      -626.3       3274.      -692.2
        6056       -5408.       7475.      -2498.      -781.6       3783.      -942.9
        6057       -1119.       7922.      -8127.      -1439.       3296.      -716.0
        6058      -1.2577E+04  -3191.     -1.1120E+04  -941.0       1607.      -1426.
        6059        1108.       6066.      -9713.      -1748.       1265.      -554.6
        6060        309.2       1500.     -1.0341E+04  -143.4       1621.      -436.5
        6061       -1478.       8067.      -5258.      -891.7       2922.      -351.3
        6062       -1124.       8152.      -5547.      -911.1       2696.      -308.3
        6063       -350.2       6411.      -9240.      -2019.       3496.      -686.1
        6064        4135.      -239.0      1.0186E+04  -2869.      -257.2      -47.82
        6065       -7135.      -2596.      -6898.      -1542.       2256.      -1690.
        6066      -1.0142E+04  -2778.      -9959.      -1163.       2090.      -1361.
        6067      -1.0651E+04   3464.       1041.      -14.69       315.0      -1569.
        6068       -275.6       4409.       12.62      -422.5      -206.0       1384.
        6069        62.00       6617.       200.8      -231.1      -73.68       982.6
        6070       -7699.       9558.       3126.      -390.0       1426.      -3701.
        6071       -8437.       7235.      -458.5      -433.2       2304.      -1584.
        6072       -1974.       7508.      -269.3      -50.34       713.1      -8.100
        6073       -1929.       7531.      -360.1      -67.85       828.9      -15.55
        6074        109.8      -2576.      -2207.      -677.8       483.3       1070.
        6075        1528.      -1798.      -1386.       232.4      -309.2      -1007.
        6076        2088.      -2134.      -745.7       92.28      -436.2      -396.7
        6077       -9633.       7194.       1456.      -284.2       916.9      -2285.
        6078      -1.2889E+04  -2432.     -1.3029E+04  -835.7       7.281      -124.2
        6079       -95.73       8035.      -139.4       25.84       91.21       8.756
        6080        90.73       7811.       292.5       276.8      -112.9      -324.0
        6081        111.6       7740.       535.7       285.1      -159.8      -469.1
        6082       -9.174       7616.       810.3       162.0      -248.7      -876.6
        6083        29.03       8323.       161.9       187.3      -92.53      -279.4
        6084       -452.7       628.0      -842.6      -82.48       417.7      -282.1
        6085        101.8       7967.       257.8       218.6      -166.9      -158.3
        6086        8197.      -421.2      1.2099E+04  -2646.      -1475.      -733.7
        6087        185.3       8042.       338.3       137.5      -251.1      -78.80
        6088       -578.9       7167.      -7890.      -2080.       4302.      -1220.
        6089       -597.5       7116.      -8893.      -1612.       2725.      -907.4
        6090       -5408.       7393.      -3603.      -926.7       4653.      -1177.
        6091       -6222.       6589.      -3002.      -1035.       4426.      -1199.
        6092       -329.0       8080.      -2519.      -287.9       939.7       395.6
        6093       1.0356E+04  -412.9      1.1555E+04  -1880.      -2473.      -1581.
        6094       -8.355       7571.      -351.1       39.16       63.15       360.7
        6095       -126.4       7784.      -708.7       42.00       304.9       127.7
        6096       -51.05       7722.      -583.8       40.41       190.1       213.7
        6097       -60.50       7785.      -260.9       149.5       135.0      -34.60
        6098       -206.8       7780.      -777.1       47.65       400.5       76.12
        6099       -18.31       7765.      -180.4       160.0       70.65      -44.57
        6100       -822.4       4059.      -1538.      -2804.       5507.      -2830.
        6101        40.99      -2708.      -2121.       565.1       383.6      -1016.
        6102        178.5      -3541.      -1304.      -135.7       37.54       352.7
        6103        101.5       8120.       299.3       219.5      -179.1      -234.4
        6104        130.2       8043.       310.7       196.4      -205.6      -156.8
        6105        2.664       7822.      -20.52       186.9       4.820      -70.88
        6106        26.12       7833.       48.52       208.3      -27.54      -126.7
        6107        200.9       7869.       182.2       112.1      -176.6       80.42
        6108        342.8       7599.       130.8       48.80      -217.9       101.3
        6109       -1070.       7550.      -320.1      -25.18       590.6       76.19
        6110        86.03      -3659.      -1328.      -89.23       14.77       444.7
        6111        385.2       7675.       222.4       48.91      -292.9       60.78
        6112        319.0       7672.       187.2       61.59      -243.1       87.32
        6113       -2880.       7659.      -2507.      -434.1       2734.      -382.6
        6114       -2312.       7536.      -681.3      -138.2       1290.      -104.6
        6115       -6316.       7345.      -345.2      -257.6       1617.      -804.5
        6116        137.8      -2756.      -2079.      -385.8       246.4       1480.
        6117        29.65      -2711.      -2152.      -276.2       233.8       1504.
        6118       -38.63      -1974.      -2703.      -290.9       275.4       1601.
        6119       -356.7       7465.      -28.47       8.372       62.61       141.0
        6120       -1375.       2672.       2088.      -1724.       3050.      -3036.
        6121       -290.8       7487.      -68.13       24.40       120.5       127.5
        6122        462.4       7534.       116.5       28.40      -234.7       90.27
        6123       -563.4      -111.4       6285.       8.681      -1207.       22.76
        6124       -354.7      -15.62       6291.       102.1      -1057.       58.18
        6125        412.9       7635.       197.0       43.57      -282.6       69.24
        6126       -76.75       8471.      -570.8      -200.3      -82.83       403.5
        6127       -9.728       8425.       112.0       255.5      -59.85      -464.2
        6128        43.94       8377.       248.2       319.7      -93.63      -622.7
        6129       -776.1      -1018.      -3262.      -220.3      -18.12       803.3
        6130       -74.47      -2128.      -2343.      -217.8       340.9       994.6
        6131       -1551.      -486.7      -5021.       715.9      -373.4      -246.3
        6132       -1362.       895.5      -5182.       1087.      -868.0      -579.2
        6133        1403.       154.6       4694.      -154.8      -3688.      -82.58
        6134        21.12       8347.       88.63       121.5      -44.54      -180.2
        6135        220.1       7975.       337.8       117.1      -271.6      -46.85
        6136       -230.4      -1303.      -3429.      -190.4       254.9       1301.
        6137       -1856.       7937.      -5046.      -863.9       3126.      -402.1
        6138        138.0      -3214.      -1528.      -309.6       116.7       706.1
        6139        191.2      -3540.      -1457.      -264.1       115.4       1260.
        6140        120.1      -3961.      -1141.      -157.4       5.338       927.0
        6141        1879.      -2014.      -1225.      -393.9      -296.8       1127.
        6142        71.33      -1251.      -3670.      -248.4       31.38       1192.
        6143       1.3381E+04  -547.1      1.6048E+04  -1860.      -295.3      -167.3
        6144        13.83      -3262.      -1581.      -171.3       104.8       878.5
        6145        15.90      -3695.      -1431.      -116.9       28.83       1324.
        6146        678.6       250.1       8237.      -1700.      -1296.      -253.9
        6147       -369.8       5312.      -7122.      -1698.       4372.      -836.1
        6148       -1276.       2421.      -8081.      -810.4       4419.      -592.5
        6149       -1649.       7569.      -640.4      -73.10       1003.     -8.2639E-02
        6150       -249.4       7753.      -744.7       41.09       440.5       70.64
        6151       -763.0       7805.      -2161.      -217.7       1291.       73.26
        6152       -1365.       8132.      -6722.      -1300.       3280.      -554.9
        6153       -1560.       7939.      -7693.      -1720.       3751.      -820.2
        6154       -504.4       7776.      -1429.      -73.25       844.6       98.90
        6155       -455.8       8689.      -5718.      -640.7       1650.      -85.59
        6156        1444.       193.8       151.8      -24.92      -569.6      -46.05
        6157        163.9       5383.      -9496.      -1507.       352.7      -239.3
        6158       -1992.      -906.4      -4257.       362.0      -400.2      -46.82
        6159        282.8       6666.      -9372.      -1767.       759.3      -596.6
        6160        243.3       7817.       271.6       114.5      -256.7       27.52
        6161        288.8       7851.       253.0       91.39      -255.8       56.03
        6162       -6500.       7486.      -2397.      -993.7       4180.      -1331.
        6163       -8288.       3617.      -730.7      -534.1       4109.      -1118.
        6164       -6107.       7571.      -1769.      -693.5       3457.      -1094.
        6165        172.8       8877.      -23.03       210.1      -79.86      -733.4
        6166       -199.3       6130.      -6024.      -70.87       290.5      -1978.
        6167        708.9      -1053.      -2906.      -204.9      -206.1       1113.
        6168        1309.       653.7      -2377.       346.1      -422.4       588.3
        6169       -89.34      -874.1      -2650.       186.8      -366.5       850.1
        6170       -5353.      -2417.      -5934.      -1993.       2850.      -1922.
        6171        65.27       8010.       329.8       311.2      -132.0      -461.6
        6172       -844.3       7696.      -1219.      -97.93       1008.       43.99
        6173       -1271.       7656.      -1872.      -191.7       1525.      -34.27
        6174       -4444.       7608.      -4482.      -1192.       4652.      -1043.
        6175       -6888.       7273.      -2607.      -1239.       4617.      -1669.
        6176       -600.4       7754.      -1351.      -66.72       904.9       67.28
        6177       -1575.       7964.      -1406.      -163.3       1500.      -79.40
        6178       -5772.       7559.      -2119.      -783.3       3649.      -1034.
        6179        43.47       7642.       22.43       78.88      -43.53       116.8
        6180       -194.3       7643.      -124.9       66.12       145.8       123.9
        6181       -154.2       7604.      -72.40       50.72       114.0       127.7
        6182       -4581.       7541.      -2099.      -599.3       3188.      -687.9
        6183       -1616.       7874.      -3611.      -563.8       2504.      -194.1
        6184       -2388.       7796.      -4262.      -806.3       3293.      -422.6
        6185       -1995.       7786.      -3530.      -559.2       2698.      -255.8
        6186       -3468.       7680.      -5625.      -1757.       5126.      -1291.
        6187       -3976.       7577.      -1430.      -351.1       2445.      -502.6
        6188       -198.2       7547.      -53.32       37.18       108.2       135.6
        6189        39.68       7560.       10.62       38.15      -24.41       136.9
        6190       -3800.       3737.       1867.      -1940.       4661.      -3480.
        6191       -293.0       7530.      -81.72       23.02       136.6       136.8
        6192       -7522.       825.9      -1891.       27.67       4627.      -3.917
        6193        3157.       114.2       8818.      -2363.      -2129.      -832.0
        6194       -1736.       7663.      -2545.      -357.2       2101.      -101.2
        6195       -1505.       7712.      -2703.      -372.2       2033.      -94.08
        6196        49.32       7835.       147.2       241.5      -69.56      -210.0
        6197        9531.       37.58       2766.      -190.9      -485.3      -2551.
        6198       -743.0       7710.      -1327.      -69.40       976.4       35.29
        6199       -208.8       7737.      0.6861       17.74       43.58       152.7
        6200        592.6       7464.       51.11       14.38      -179.9       74.45
        6201      -1.1126E+04  -2900.     -1.1026E+04  -1126.       639.9      -1105.
        6202       -8314.       6242.      -520.4      -954.2       4054.      -2120.
        6203       -7698.       5866.      -1358.      -1000.       4400.      -1982.
        6204       -6420.       7728.      -168.6      -938.0       4415.      -1993.
        6205      -1.3692E+04  -2913.     -1.2896E+04  -754.0       970.2      -1154.
        6206       -3532.       7522.      -583.2      -176.7       1500.      -306.2
        6207       -7213.       7554.      -1640.      -869.6       3746.      -1512.
        6208       -9112.       6750.       162.7      -168.0       828.2      -1702.
        6209       -9637.       7015.       939.9      -305.3       1365.      -2077.
        6210      -1.0068E+04   2107.       856.7      -61.00       1299.      -368.1
        6211       -764.9       7527.      -9190.      -1884.       3168.      -913.3
        6212       -1066.       8179.      -7140.      -1266.       3004.      -548.9
        6213       -723.4       8364.      -6558.      -970.7       2320.      -330.0
        6214        175.3       8076.       323.7       39.36      -246.0      -29.71
        6215       -155.9       3527.      -8541.      -877.5       3735.      -440.1
        6216       -987.2       7851.      -8454.      -1424.       3088.      -719.1
        6217       -1060.       6514.      -6881.      -1965.       4808.      -1248.
        6218       -1850.       7498.      -7523.      -1915.       4443.      -1029.
        6219       -2354.       7710.      -7133.      -1798.       4660.      -969.5
        6220       -1937.       7992.      -7096.      -1633.       4008.      -856.0
        6221       -7286.       7748.      -213.6      -212.0       946.6      -1084.
        6222       -7995.       7026.      -19.60      -71.88       617.5      -1131.
        6223       -7247.       7424.      -557.6      -391.6       2318.      -1218.
        6224       -7388.       7361.      -1838.      -940.2       4272.      -1727.
        6225       -7622.       7494.      -1208.      -667.5       3378.      -1612.
        6226       -520.4       7606.      -298.3       49.96       377.3       89.94
        6227       -249.0      -1418.      -3668.      -243.5       256.4       1328.
        6228        879.3       5005.      -9947.      -1720.       749.9      -287.8
        6229       -4412.       7687.      -3291.      -1173.       5279.      -1266.
        6230       -4221.       632.7      -6096.      -294.8       5518.      -220.7
        6231       -2255.       8473.      -4638.      -1910.       5315.      -1533.
        6232       -1987.       7486.      -3967.      -1809.       5186.      -1466.
        6233       -1.068      -286.0      -8799.       452.1       562.1       63.39
        6234      -1.5009E+04  -2829.     -1.6459E+04  -742.6       243.6      -505.5
        6235       1.4559E+04  -630.3      1.6731E+04  -1673.      -253.2      -197.4
        6236        27.96       8294.       209.6       261.0      -107.9      -396.0
        6237        6411.      -503.1      1.1858E+04  -2855.      -296.0      -158.0
        6238       -577.7      -30.78      -5840.       834.4      -338.7      -96.04
        6239        672.3      -1503.      -1992.      -71.80      -278.9       1002.
        6240       -64.63      -1385.      -2722.       56.13       72.80      -473.5
        6241        46.29      -2813.      -1991.       265.3       174.7      -1525.
        6242        1846.       7954.      -5266.      -3376.       4262.      -1765.
        6243        1213.       8300.      -4999.      -2945.       4474.      -1553.
        6244        4133.       3214.      -3892.      -3743.       3295.      -1278.
        6245       -7638.      -380.4      -205.8      -21.64       1390.       649.1
        6246        278.8       40.00       820.5       28.33      -525.8      -39.42
        6247       -2633.      -12.90      -1525.       238.4       1893.       359.0
        6248       -1739.       9080.      -4669.      -2214.       5148.      -1666.
        6249       -3374.       1997.      -6198.      -238.2       5360.      -290.2
        6250        5399.       3453.      -5984.      -4198.       892.6      -428.0
        6251       -2570.       7323.      -6559.      -1599.       4987.      -1255.
        6252       -2905.       7273.      -5972.      -1644.       5214.      -1330.
        6253       -6382.      -2618.      -4997.      -1563.       2816.      -1924.
        6254       -316.4       347.2       8167.      -931.4      -1101.      -23.91
        6255        193.8       68.64       5629.      -9.253      -2478.      -14.99
        6256       -197.8      -22.46       6130.       6.042      -1163.      -13.20
        6257        7531.       486.7       5141.      -748.4      -3966.      -1726.
        6258       -5516.       7494.      -57.60      -34.88       386.7      -609.6
        6259       -4824.       7244.      -71.65       44.79       238.1      -424.4
        6260        1510.       562.6      -21.42      -59.85      -11.65      -248.5
        6261        3187.      -6.277       4275.      -607.7      -4411.      -537.9
        6262       -3936.       7658.      -3941.      -970.2       4079.      -814.9
        6263        450.5      -1546.      -3115.       239.7      -113.0      -1262.
        6264        514.9       9624.       638.5       689.8       56.48      -213.8
        6265       -9812.       5221.       1188.      -190.0       985.0      -1623.
        6266       -9013.       8062.       1454.      -243.6       1256.      -2246.
        6267        1629.       6461.      -153.0       547.7       88.23      -404.5
        6268       -8728.       7217.      -208.1      -419.8       1908.      -1678.
        6269       -6492.       7297.      -195.7      -201.6       1284.      -876.4
        6270        141.5       8096.       328.3       158.6      -219.9      -123.1
        6271        169.0       8144.       341.1       99.39      -240.2      -72.61
        6272        3563.       9252.      -6749.      -4756.       2821.      -1620.
        6273       -86.78       5569.      -6069.      -408.4       227.5      -1607.
        6274       -23.92       8481.      -82.39       144.7       24.30      -250.4
        6275       -7965.      1.3953E+04   2117.       167.8       74.44      -3234.
        6276       -1243.       7752.      -108.1      -21.38       386.4       60.86
        6277        292.0       7563.       14.22       36.58      -94.15       141.5
        6278       -7067.       7357.      -2215.      -1084.       4460.      -1605.
        6279       -6879.       7548.      -2023.      -877.8       3985.      -1429.
        6280       -3725.       7571.      -1672.      -381.2       2556.      -472.9
        6281       -8321.       5905.      -1405.      -886.4       3971.      -1815.
        6282       -5783.       8700.      -2799.      -1289.       4856.      -1652.
        6283       -2720.       7229.      -16.28       2.624       242.6      -155.2
        6284       -2646.       7037.       75.88      -14.80       98.57      -60.89
        6285       -4864.       6401.      -4207.      -1504.       5562.      -1541.
        6286        58.71       7578.       286.3       198.3      -135.9      -105.5
        6287        365.5      -1551.      -1436.       525.2      -185.4      -792.8
        6288       -7.605       8625.      -99.91       182.3      -10.31      -464.8
        6289        1131.      -3474.      -1189.      -109.9      -390.9       459.1
        6290        346.5      1.2404E+04   1513.       63.53      -56.90      -270.3
        6291       -1350.      -863.4      -4010.       98.43      -231.9       445.1
        6292        661.5      -156.5      -1749.       662.3      -349.0       754.8
        6293       -458.4      -2006.      -2862.       623.0       366.6      -1142.
        6294       1.7801E+04  -98.35      1.6938E+04  -722.7      -589.6      -1334.
        6295        85.11       8102.       442.6       310.9      -108.1      -706.4
        6296        83.88       8416.       305.4       29.15      -183.2      -1129.
        6297       -5822.       5461.      -1336.      -749.3       4587.      -1182.
        6298        54.88       7914.       193.2       242.4      -114.9      -199.7
        6299       -34.84       8777.      -459.9       61.62       1.140      -235.0
        6300       -52.32       8924.      -668.3      -249.1      -140.0      -245.8
        6301        69.09       7892.       166.3       216.7      -106.2      -129.4
        6302        65.05       8215.       268.8       235.8      -143.7      -312.3
        6303       -3321.       6742.      -5431.      -1750.       5465.      -1186.
        6304       -4713.       7286.      -4856.      -1311.       5014.      -1151.
        6305       -1033.       7524.      -386.3      -4.394       618.8       71.23
        6306        336.6       7630.       159.9       55.19      -233.8       94.05
        6307        200.3       7629.       92.76       62.85      -149.0       116.1
        6308        211.7       7597.       79.38       59.83      -139.0       119.2
        6309       -352.1       7759.      -331.8       79.93       346.8       103.3
        6310       -8985.       6482.       263.4      -300.9       1488.      -1727.
        6311       -655.8       8420.      -5443.      -684.3       1863.      -11.05
        6312       -726.7       8288.      -4888.      -680.5       1985.       10.68
        6313       -5953.       7435.      -719.5      -354.9       2199.      -854.5
        6314        197.1      -2675.      -2057.      -595.4       386.9       1032.
        6315        141.3      -2680.      -2010.      -461.5       357.5       1003.
        6316       -60.74      -5206.      -920.0       7.014       36.85      -696.3
        6317        2173.      -523.0      -884.8      -18.75      -383.2      -539.5
        6318       -192.9       7880.      -1457.      -129.8       514.5       403.6
        6319        320.6      -3602.      -1261.       90.02      -21.57      -167.4
        6320        363.1      -4135.      -877.3       63.42      -69.58      -191.4
        6321        1997.      -7.568       3780.       21.77      -3139.      -125.9
        6322        4085.       3655.      -6299.      -4035.       2526.      -1029.
        6323        4329.       4057.      -7452.      -4131.       378.9      -322.8
        6324        521.9       39.05       5192.       50.27      -2395.      -23.88
        6325        70.74      -3145.      -1730.      -240.7       127.4       1367.
        6326       1.0631E+04  -118.8       4631.      -90.28      -245.9      -3000.
        6327      -1.2024E+04  -2602.     -1.3162E+04  -1110.       189.4      -376.3
        6328       -126.2      -1846.      -2767.      -177.0       302.1       1368.
        6329        437.2       7604.       169.2       38.54      -271.0       74.14
        6330       -874.4       1182.      -7729.      -33.99       3618.      -264.7
        6331        288.5      -3264.      -1494.      -360.7       112.0       714.9
        6332        1461.       7445.      -6111.      -2652.       4013.      -1546.
        6333       -496.3       277.3      -4850.       865.0      -675.1       4.892
        6334        102.7     -0.9870       1008.      -16.49      -412.8      -83.55
        6335       -1119.       8650.      -5650.      -2043.       4954.      -1360.
        6336       -2074.       7554.      -7016.      -1923.       4949.      -1281.
        6337       -1849.       378.9      -7731.      -245.2       5057.      -204.4
        6338      -1.0139E+04   34.48       496.2      -72.10       1757.      -18.32
        6339       -52.81      -1085.      -2994.      -13.80       148.2       986.6
        6340        47.14      -728.8      -2795.       4.403       43.75       561.8
        6341       -9621.       6319.       552.8      -379.8       1368.      -2239.
        6342        3103.       7020.      -7231.      -3717.       455.6      -261.5
        6343       -174.3      -1620.      -2830.      -141.1       337.3       815.9
        6344       -2382.       2877.       1757.      -2108.       4833.      -3269.
        6345       -2999.       7439.      -444.1      -119.1       1080.      -154.3
        6346       -2733.       7742.      -224.9      -63.65       822.2      -113.9
        6347       -1539.       7621.      -738.6      -85.13       1051.       2.358
        6348       -5138.       7184.      -4359.      -1469.       5113.      -1509.
        6349        2177.      -2207.      -638.4      -178.3      -486.1       465.2
        6350       -5175.       7475.      -98.20      -138.3       964.7      -588.9
        6351       -13.07       7435.      -29.65       15.32       6.527       117.1
        6352       -3628.       7431.      -65.33      -7.517       302.3      -236.6
        6353       -3627.       7051.      -53.26      -26.64       413.6      -204.8
        6354        3822.       187.3       9940.      -2760.      -1215.      -489.5
        6355       -93.14       7702.      -156.6       117.7       104.2       18.79
        6356       -3146.       7552.      -1201.      -277.6       1947.      -267.0
        6357       -1281.      -1392.      -3517.       248.1       244.2      -451.3
        6358        2604.      -803.0      -519.6      -83.98      -495.9      -9.158
        6359        1697.       214.8      1.0238E+04  -1761.      -1176.      -184.3
        6360       -517.7       8228.      -3678.      -485.5       1440.       256.0
        6361       -63.16       7204.       703.8       171.9      -178.7      -114.3
        6362       -2767.       7593.      -1290.      -284.5       1947.      -226.8
        6363       -1227.       7626.      -1053.      -74.35       1116.       6.969
        6364       -1154.       7614.      -821.7      -52.88       1012.       18.04
        6365        383.6       7571.       122.9       38.62      -215.6       101.2
        6366        249.1       7561.       77.69       51.68      -138.6       122.2
        6367        299.9       7716.       209.8       75.54      -245.6       85.01
        6368       -2182.       7465.      -147.5      -41.82       491.5      -25.61
        6369       -4662.       7515.      -786.8      -284.2       1994.      -538.5
        6370       -3901.       7412.      -514.6      -166.3       1399.      -334.3
        6371        370.0       7719.       248.9       63.37      -297.4       65.02
        6372       -76.68      -1886.      -2829.      -346.3       310.2       1599.
        6373       -143.7      -2174.      -2629.      -678.4       484.7       1209.
        6374       -449.5       3172.      -5431.      -426.7      -35.64      -1153.
        6375        6.148      -169.4       1232.      -54.78      -31.11      -21.49
        6376        275.4      -2616.      -2157.      -470.1       222.7       1521.
        6377       -6.499      -201.1       1190.      -43.95      -258.2      -2.931
        6378        1070.      -127.0      -96.08      0.9803      -132.2       19.73
        6379        5670.       25.91      -238.9       10.22      -1409.       15.01
        6380        7025.       69.04      -699.1      -84.11      -1191.      -531.1
        6381        1256.      -116.2      -48.04       11.34      -3.471      -32.64
        6382        1094.      -100.8      -44.00      -54.61     -0.7971      -45.39
        6383        51.64       8214.       284.1       309.6      -126.7      -477.8
        6384        71.90       8105.       299.6       275.3      -154.3      -349.8
        6385       -296.7       2983.       494.6      -202.5      -163.7       894.9
        6386       -133.4       4186.      -678.8      -1094.      -318.4       1001.
        6387       -88.73       8088.       1234.      -122.8      -102.1      -895.4
        6388        1171.      -15.22      -46.78      -63.27      -47.30      -50.30
        6389       -3093.       7459.      -166.2      -75.03       702.9      -157.8
        6390       -78.09      -2092.      -2430.      -333.0       459.3       1059.
        6391       -3460.       7567.      -1929.      -389.0       2636.      -470.9
        6392       -2724.       7739.      -3927.      -762.8       3359.      -483.4
        6393       -284.9       7855.      -1470.      -96.54       645.1       236.2
        6394       -341.3       7804.      -1358.      -75.90       708.8       149.2
        6395       -1098.       7650.      -1946.      -191.5       1459.      -5.940
        6396       -3198.       7766.      -4657.      -1040.       4020.      -724.7
        6397       -270.5       7650.      -379.2       72.30       314.7       53.18
        6398       -563.4       7684.      -781.2       16.63       656.0       69.57
        6399        2101.       170.9       44.86       20.30      -330.5      -29.77
        6400        202.7       7710.       136.5       87.42      -162.7       99.77
        6401       -24.62      -109.2       1213.       83.98      -267.4       27.26
        6402       -316.1      -82.04       6205.      -56.33      -885.4      -58.63
        6403       -6.435      -1751.      -2584.      -94.89       228.8       1315.
        6404       -8142.      -2078.      -1162.      -252.9       375.2      -2578.
        6405       -371.8      -566.6      -5181.       417.0      -242.3       457.6
        6406       -1075.       7863.      -3049.      -392.1       1846.      -12.11
        6407        204.4       22.24       1178.       9.879      -526.7      -24.77
        6408       -876.4       7611.      -515.0      -11.45       664.9       78.04
        6409       -1941.       7819.      -165.9      -15.67       572.9      -6.437
        6410       -886.6       7469.      -59.94       10.26       157.1       112.7
        6411       -665.9       7569.      -28.40       15.71       164.1       127.3
        6412        57.85      -4426.      -917.3       80.84      -6.365      -612.3
        6413       -6158.       835.7      -4154.      -58.79       5378.       26.16
        6414        198.4      -3477.      -1453.       319.9       89.99      -1165.
        6415       -2044.       7576.      -940.9      -128.3       1413.      -109.1
        6416       -2910.       7432.      -41.24      -64.63       521.5      -146.5
        6417       -408.9       7980.      -2285.      -261.9       1026.       260.2
        6418        1103.       8324.      -8706.      -2186.       2246.      -783.2
        6419        5605.       86.21       89.12       12.05      -1692.       9.454
        6420       -2684.       7695.      -6711.      -1614.       4792.      -1134.
        6421        1966.       12.70       3833.       104.5      -3303.       46.79
        6422       -133.5       7725.      -98.81       79.41       113.3       110.7
        6423       -718.3       7662.      -630.4       1.385       664.0       48.20
        6424       -253.6       7731.      -454.8       101.3       317.4       26.52
        6425       -459.6       3686.      -5294.       280.2      -150.8      -1378.
        6426        246.7       7901.       332.4       99.70      -285.9      -14.76
        6427        536.4       7430.       36.88       10.12      -164.4       83.62
        6428       -499.3       1223.      -572.3      -142.0      -215.4       585.1
        6429       -8503.       6628.       124.3      -204.3       1178.      -1378.
        6430        2298.      -70.76       3549.       69.34      -3206.      -45.52
        6431       -7325.       5881.      -2139.      -1095.       4738.      -1621.
        6432       -5982.       7411.      -872.4      -1212.       4784.      -1828.
        6433       -6611.       6273.      -2152.      -1353.       5225.      -1977.
        6434        1448.       11.52      -6.310      -20.17      -210.5       62.01
        6435        1059.       7701.      -8077.      -2359.       3532.      -1122.
        6436        215.5       3966.      -8500.      -386.3       3211.      -416.7
        6437       -322.0       8198.      -8141.      -1268.       2139.      -909.6
        6438       1.2901E+04   118.2       7944.      -772.0      -2122.      -2097.
        6439       -539.6       8285.      -7775.      -1232.       2464.      -737.8
        6440       -4517.       7151.      -3486.      -940.9       4119.      -956.9
        6441       -3887.       7636.      -2779.      -654.3       3369.      -680.1
        6442        152.0       6289.      -7764.      -1791.       3507.      -858.8
        6443       -594.7       8008.      -666.5       21.45       643.4       64.65
        6444       -856.2       8158.      -7576.      -1269.       2775.      -582.7
        6445        70.87       7955.       282.2       276.4      -141.3      -311.9
        6446       -323.6       7897.      -377.1       53.52       342.4       86.31
        6447        207.4       7662.       120.4       70.35      -162.8       107.8
        6448       -1382.       7586.      -803.9      -64.78       1049.       1.948
        6449       -759.2       7678.      -549.7      0.2305       666.3       78.89
        6450       -410.2       7685.      -757.1       35.91       554.7       70.59
        6451       -2817.       7813.      -5072.      -1090.       3940.      -667.3
        6452       -474.4      -1436.      -3085.       134.6       318.5      -557.8
        6453        161.7       7982.       308.7       176.0      -227.5      -92.81
        6454        186.9       7910.       297.1       154.8      -239.6      -46.37
        6455       -1689.       7663.      -1272.      -148.9       1513.      -85.53
        6456        860.1      -1457.      -983.8       326.1      -233.8       28.09
        6457       -1288.       7422.      -181.3      -25.26       454.4       69.70
        6458       -2044.       7587.      -1179.      -150.3       1537.      -108.4
        6459        890.6       601.7      -680.2       21.44       33.30      -274.0
        6460        1149.      -2251.      -1131.       291.3      -401.0      -394.6
        6461       -66.47       7773.      -121.1       139.2       79.06       3.520
        6462        76.01       7811.       113.0       169.1      -87.48      -14.23
        6463        383.6       7528.       89.91       32.28      -192.8       101.0
        6464        460.1       7578.       144.8       31.41      -256.1       78.67
        6465       -3574.       7693.      -4283.      -983.6       4058.      -758.9
        6466        5816.       110.1      -291.4       31.23      -1081.       81.21
        6467       -474.5       8396.      -6955.      -925.4       1981.      -515.8
        6468       -268.7       8494.      -7440.      -876.3       1589.      -994.6
        6469       -270.4       8958.      -6292.      -501.0       1339.      -318.7
        6470       -350.6       7737.      -6364.       230.2       412.8      -1391.
        6471       -280.0       9069.      -7035.      -336.8       1002.      -907.1
        6472        208.3       7849.       278.7       133.1      -243.1      -11.82
        6473        57.16       7847.       112.8       194.4      -86.41      -67.65
        6474        331.5       7747.       280.2       71.71      -302.8       52.72
        6475       -3152.       7631.      -6178.      -1669.       4917.      -1141.
        6476       -166.2       7253.      -33.63       96.25       9.482       659.7
        6477        142.1       7887.       229.7       165.5      -175.7      -39.94
        6478        132.9       7925.       259.4       190.7      -182.4      -92.60
        6479       -1510.       7984.      -4169.      -643.0       2536.      -179.8
        6480        383.8       7490.       65.12       30.69      -167.0       106.2
        6481        305.8       7407.      -6.052      -3.265      -71.86       143.7
        6482       -4614.       7690.      -3951.      -1243.       4656.      -1230.
        6483       -2076.       7933.      -5867.      -1174.       3676.      -604.1
        6484        1215.      -104.9       52.10       82.45      -242.9       53.62
        6485       -190.4       26.20       6026.       16.41      -185.1       14.84
        6486        1085.       2729.      -2467.       1029.      -424.3      -78.00
        6487        269.6       874.9      -2562.       1085.      -570.3       766.0
        6488        1733.       3691.      -965.7       745.0      -184.4       22.93
        6489       -97.70       7540.       1293.       64.36      -202.3      -711.7
        6490       -78.76       1393.      -848.7      -290.5       173.6      -574.5
        6491        1858.       2637.      -83.01      -109.0       43.69       36.19
        6492        2.911      -2453.      -2224.      -264.6       295.9       1265.
        6493       -19.08      -21.81       1224.       48.76       13.82     -0.8932
        6494       -3181.       7628.      -2203.      -435.6       2712.      -452.4

 MAXIMUM          2.7246E+04  1.8154E+04  2.7327E+04   1461.       7006.       2154.                                        
  NODE               426         605         425        5977        1642         729                                     

 MINIMUM         -2.2561E+04  -6216.     -2.1642E+04  -6897.      -5311.      -6706.                                        
  NODE               453        2769         453         571        1248        1752                                     



   THE FOLLOWING TABLE IS PRINTED FOR ALL NODES
  
       NODE FOOT-   U1          U2          U3       
            NOTE




 MAXIMUM         0.1623      0.2521      0.2411    
 AT NODE              2817        4943        9253

 MINIMUM        -0.1584     -0.2786     -0.8024    
 AT NODE              1616        4981         112